generated by phonopy
   1.0
    37.5077515677999997    0.0000000000000000    0.0000000000000000
     0.2072005697000000   37.9423292839000013    0.0000000000000000
     0.1640085979000000   -0.1602080096000000   37.7381498961999995
C
4096
Direct
  0.0429117131204721  0.0391880832429690  0.0374556080223300
  0.1523619976000072  0.0438575837858639  0.0500774313313726
  0.1621093781126240  0.0267427841810987  0.0178539348604327
  0.2375559318027422  0.0544868434461660  0.0344277772909802
  0.2453964014841434  0.0230634221711283  0.0536608653463405
  0.2432570863358873  0.0543687853546517  0.9972978697556588
  0.4296024564552599  0.0478694280615316  0.0530826902089791
  0.4560137671093880  0.0307352433377304  0.0312816029203082
  0.0446907572465263  0.0700900253311268  0.0167463576709052
  0.0323076219082960  0.1042360442710509  0.0318084906997752
  0.1468364873617811  0.0809295644024415  0.0515624741899692
  0.1535962242768923  0.1010310942500509  0.0207420088200672
  0.2305887842516868  0.0916318604611778  0.0436352872233891
  0.2360566498234488  0.1124281551803133  0.0126901559911453
  0.4192822700426941  0.0831921330557606  0.0532351425686158
  0.4371138796721991  0.1068404293928579  0.0292069845244583
  0.4657839159058805  0.1056422031035296  0.0031539398811913
  0.0383867914007621  0.1336000513515630  0.0105765668719279
  0.1471616401141445  0.1557076360342330  0.0556553224198065
  0.1544617046764682  0.1384869637298711  0.0232140663601586
  0.2411041552709826  0.1485525179918322  0.0079414481320447
  0.4298718128833834  0.1426912847267498  0.0321923420554946
  0.4025660524733077  0.1534877686911766  0.0533786715973281
  0.4560411638826385  0.1648184992476942  0.0161798435715441
  0.0265774452216838  0.1699339390090884  0.0110687998523760
  0.0043622562123901  0.1894708727223049  0.0336217430766992
  0.1519103141681143  0.1929207369786347  0.0580701811304392
  0.1637817563341425  0.2131048190669891  0.0281864623179927
  0.2381608446001806  0.1749302827993938  0.0359922185834757
  0.2454545184185927  0.2091949398616984  0.0248694354805799
  0.4246696596699901  0.2146131330469441  0.0446406065118109
  0.4547654465937107  0.2013991388256280  0.0224908406568565
  0.0012187743707522  0.2258942272744855  0.0240814088528359
  0.0205028147389187  0.2425988649803859  0.9944845415906052
  0.1738537571773468  0.2492134898274582  0.0302023165718245
  0.2499750634276637  0.2378799020299167  0.0480290770741390
  0.2670176937296125  0.2654481310946938  0.0304104507814136
  0.4220194648203895  0.2524826861576990  0.0494827736689878
  0.4519799127637086  0.2738036383849050  0.0403731795064341
  0.4822017881063911  0.2594108927590523  0.0234459744167028
  0.4830386215531294  0.2244090537322962  0.0099196101565566
  0.0110966296900718  0.3185664918843832  0.0491931328140422
  0.0210665607687209  0.2788962832935458  0.0026229448866005
  0.2033779112306915  0.3166530803388725  0.0393990474914542
  0.2039697166208318  0.3008358834145078  0.0056323583849404
  0.2835258730000511  0.2935284088963996  0.0465965749470158
  0.3066538851203539  0.3172943566638410  0.0263979339935875
  0.4387838193872863  0.3393381878502138  0.0522767996159412
  0.4003439846900891  0.3360911508084252  0.0522259367621638
  0.4609316935146359  0.3103984585445100  0.0472793047594435
  0.4977378362514612  0.3173566805529964  0.0392394487825464
  0.0334616590932349  0.0454825709746622  0.0738502689629899
  0.0397120430607776  0.0195477963550805  0.1000595108765580
  0.1370830696817579  0.0397051291711759  0.1132818222874903
  0.1498811868289824  0.0241081291517834  0.0816202431351876
  0.2197260383687229  0.0490314316948759  0.1113045263626704
  0.2396993500872581  0.0228959823563055  0.0916051692917808
  0.2572954164570810  0.0044758282779082  0.1197579034062579
  0.4195231708279483  0.0246691487786318  0.0809687427286328
  0.3975240823539159  0.0339014089987752  0.1098782979930221
  0.1392018765668740  0.0977920265620126  0.0844972307537813
  0.1377342408933071  0.0772656007833351  0.1162284413005013
  0.2155219980894486  0.0846234916987059  0.1051272481802157
  0.2225200957096828  0.1062409856771655  0.0762188609646079
  0.3853339897519000  0.0696105374135943  0.1113081812848216
  0.3938873303966426  0.0941737305432881  0.0815744743308146
  0.4912586068490498  0.0862034914909570  0.0950633467689215
  0.1383020303406168  0.1352737558412232  0.0859255890635624
  0.1340198206737906  0.1528829613036287  0.1188486126727591
  0.2257038358997423  0.1410221782834684  0.0913870960681957
  0.2221237086208234  0.1395069294951432  0.1295952452214003
  0.3696278711444326  0.1551871321217426  0.1030200526706657
  0.3846925790043774  0.1307437734902171  0.0782107312657953
  0.5002814469545639  0.1208942001052160  0.0828549642364648
  0.4824108606450063  0.1491021122977842  0.1015266450670864
  0.1402420946377060  0.1898668011908450  0.1219981504833546
  0.1483500307448738  0.2099910245433004  0.0912363865072967
  0.2330609919246165  0.1724782368268472  0.0742384604890794
  0.2381932823888169  0.2026652215578889  0.0982950277160651
  0.3753985515209790  0.1906324195960357  0.0901803008192165
  0.3731122412975616  0.2201558185583146  0.1137229128032094
  0.3999029020739306  0.1900408891189859  0.0605103476529977
  0.4941302958056596  0.1839074803429065  0.0970826426329107
  0.4771944391440711  0.2109595282810955  0.1179462104592519
  0.1572936746935620  0.2464603522247711  0.0929149521013768
  0.1713953753821117  0.2660605640725603  0.0637423280318843
  0.2491241720372049  0.2349379849848597  0.0841748026529479
  0.2627759346761475  0.2638398349668966  0.1029797234546287
  0.3796913379767503  0.2544033031214198  0.1021935044671688
  0.3938205539473236  0.2688493199035495  0.0691852021676056
  0.4846867044581379  0.2468403249042763  0.1133132363871020
  0.1872687132165712  0.2998874235452481  0.0692448041885363
  0.1919823444773026  0.3135321269705733  0.1048206181511383
  0.2773779296525357  0.2928298700427678  0.0840803987139684
  0.2864136668758318  0.3225642311543092  0.1035289915045202
  0.3881984754246961  0.3124896129309262  0.1107216278883015
  0.3888534130302437  0.3062546349282290  0.0730544196677115
  0.0395439188856699  0.0308543193661029  0.1383092847518096
  0.0636717042195135  0.0264373618135120  0.1691547282407394
  0.1023922443605069  0.0184719853270283  0.1703466192084662
  0.1281629097285849  0.0157805942493507  0.1415597345045769
  0.2236981234372351  0.0465260526095832  0.1500549095696450
  0.2520762110604187  0.0211167922061300  0.1546257229368729
  0.2778331630240586  0.0136752148339832  0.1812083761077167
  0.3764972112489631  0.0542020728831094  0.1790609425365718
  0.4658025342869195  0.0488834605399901  0.1449136432242183
  0.4953469730408898  0.0258455084051033  0.1390828989878095
  0.4509961887958426  0.0502476672396256  0.1807749576692138
  0.1433311928152026  0.0958523329781132  0.1484689844470670
  0.1716704223799503  0.0896158811942194  0.1761308526857406
  0.2066855727473375  0.0783538059717438  0.1646494260341487
  0.2146941344181910  0.1039564896091895  0.1368023359438680
  0.3721577981839455  0.0793753876391391  0.1466644826316015
  0.3655514254434689  0.1139733725652867  0.1538498701173644
  0.4455183303399485  0.1077510557169947  0.1333135387886779
  0.4661555823923685  0.0798548243462872  0.1238645951870228
  0.1335827149325967  0.1314438296445349  0.1496403754697215
  0.1440190973216715  0.1463457383523774  0.1826197325241414
  0.3708661457243246  0.1463338775048560  0.1407473679713917
  0.4343727348834184  0.1691764949184358  0.1434248346802241
  0.4541098363409926  0.1417029245426745  0.1271076492407225
  0.1433001733023345  0.1817832916878134  0.1850100479012363
  0.1448599900345345  0.2052465868713164  0.1570673871481139
  0.2270321529901636  0.1685605148198136  0.1526436013912819
  0.2182670703049123  0.1677649913721611  0.1912427164514157
  0.2379459965243722  0.2008425848110563  0.1360159656506336
  0.3970088838680972  0.1731088753029010  0.1510180344207565
  0.3894183723005983  0.2097966870868206  0.1474583835006798
  0.4494926591287682  0.2029433250447456  0.1417129198095244
  0.1577115577110348  0.2405300167648221  0.1582225434056386
  0.1596452704605772  0.2612663875843158  0.1268523876545956
  0.2402334826208759  0.2294918597625605  0.1930281211462755
  0.2483701196419964  0.2319814524217418  0.1562234348057865
  0.2584569060016249  0.2642074443921951  0.1401312858353053
  0.3945679748117060  0.2795218577733803  0.1271819663444416
  0.4231519590639017  0.2287126873293330  0.1508637059755089
  0.4269824936069881  0.2640322394481436  0.1411741570441020
  0.4618395612927000  0.2743194310606686  0.1279660257135783
  0.1789256972729457  0.2924856065135163  0.1332873006184782
  0.1931554562031077  0.2885804433327734  0.1689098185134364
  0.2242660551203439  0.3092528980771765  0.1766652673312776
  0.2549790577282444  0.2988974103031528  0.1547997749245317
  0.2673752921941240  0.3280194854673145  0.1361924986820175
  0.4740550863088136  0.3098978212878249  0.1269036405645904
  0.0480519165125427  0.0336041494863219  0.2040707901999051
  0.0107313591620948  0.0396097510336324  0.2083488001300171
  0.1190078337007490  0.0118587197361724  0.2043495028561675
  0.1048864685393003  0.0257584572841066  0.2361568763840592
  0.0690276799127439  0.0363798876164773  0.2358613364587932
  0.2870163944387497  0.0323452463612797  0.2144614885006579
  0.2670452351211564  0.0261946784690983  0.2469584639319704
  0.3196545141567882  0.0524278727907526  0.2252986175365246
  0.3782494776984539  0.0757085578739885  0.2394447853128563
  0.3541918497633599  0.0622952969939613  0.2131484029324385
  0.4137442116110490  0.0738342136248924  0.2272204483681760
  0.4168952713818573  0.0601421521256731  0.1931998897681563
  0.4788795111336144  0.0486618102524849  0.2071001832759952
  0.4754693223379488  0.0662010509017682  0.2400159789208972
  0.1713922148850712  0.1224348809846768  0.1965369910925824
  0.2002864896106230  0.1406769378719552  0.2070138033127759
  0.2210771032652528  0.2017489775614315  0.2063393672296609
  0.2044201392325695  0.2347609589221579  0.2056395713977868
  0.1819050751575685  0.2559528021285433  0.1833206065752740
  0.0548899786116195  0.0496424884916909  0.2681511051239683
  0.0178053195323226  0.0539407502015964  0.2720229536486548
  0.0769194823734063  0.0563655719852590  0.2976784535251204
  0.1130501560733342  0.0454520395489555  0.2979990283289535
  0.1266983421069010  0.0290801392458934  0.2670033726537986
  0.1623662017566174  0.0171929453313096  0.2669990110197372
  0.1841610051591184  0.0218140947871383  0.2974859719111573
  0.2214316765123923  0.0185565731985963  0.2933466672438735
  0.2345814640308509  0.0101869604536313  0.2573719381240259
  0.2777813550573007  0.0396630734263468  0.3113966803439748
  0.2846147687350357  0.0432996589495570  0.2752047656964174
  0.3154746166451786  0.0590742181204078  0.2628133026467916
  0.3395419046123440  0.0712377840949431  0.2886116100009641
  0.4375367880396758  0.0084614422896342  0.3058079723500720
  0.5023136945468246  0.0040464133278012  0.3059328433364070
  0.3729676721757136  0.0815865182741512  0.2762479328921670
  0.4417515456151200  0.0786442581734761  0.2508657339069314
  0.4006168269135404  0.0912838966223806  0.3004147800351383
  0.4354497900992950  0.0909162826219077  0.2858859093430642
  0.5049144079042730  0.0716469453815609  0.2620840490910213
  0.4996713734612404  0.0910560486261280  0.2936790762261501
  0.4648046187984821  0.0988509697939015  0.3071622703254782
  0.1339228699633168  0.3406870168740547  0.3171306922283728
  0.2028441703691413  0.3222216838546587  0.2895244210448216
  0.2559737549977407  0.2851396298825027  0.3039837334780192
  0.2397452973256956  0.3139648547584714  0.2852292025339555
  0.2933907178110971  0.2846263893875144  0.2996391325781084
  0.3005198674044868  0.3113714132479534  0.2760485643481156
  0.3319911595635189  0.3310970308587707  0.2765627628462766
  0.3575409437667493  0.3217379860899253  0.3027427372943479
  0.1149277406972057  0.0575234345968103  0.3613067608641028
  0.1327114209296482  0.0452041439816830  0.3301734169341105
  0.1664951964743410  0.0278766152582603  0.3308323072100883
  0.1752621491443414  0.0054798720004148  0.3605621218164204
  0.2460382410207205  0.0242463199072979  0.3230561628890984
  0.2415357282653847  0.0119757324785475  0.3592295869640677
  0.3027600891072227  0.0494479837209455  0.3369246699950257
  0.2960483996394402  0.0401307408307961  0.3724473149494618
  0.4070080871239058  0.0183101234446180  0.3618061176171984
  0.4057224302750106  0.0095817652383569  0.3257105616944327
  0.4395153483019177  0.0311931821816137  0.3770549918090396
  0.4704363097380532  0.0159265832027573  0.3215658778551290
  0.4705383184811351  0.0308452985737986  0.3556629627291696
  0.5034225924597445  0.0419982479619536  0.3692886121426768
  0.0621355915867596  0.0731271359758937  0.3278124665365666
  0.0253595031711783  0.0804231127200121  0.3303476835586824
  0.0101723884934032  0.0964712595537152  0.3606557909552023
  0.0829347897587907  0.0779339370554786  0.3581448411534597
  0.3336889031505650  0.0686692887205747  0.3257152651576520
  0.3592399327836779  0.0843217043248798  0.3497672895016276
  0.3944415416755291  0.0960365569728059  0.3381738409302640
  0.4244672349956418  0.1083853306568237  0.3604951180017937
  0.4588760254893577  0.1120136227900035  0.3421335819459477
  0.4897321733471298  0.1269772547202095  0.3578571402452311
  0.2057972325371329  0.2750833564976988  0.3397020716505996
  0.1915891417283894  0.2580133927589067  0.3698399216280974
  0.2420067251536391  0.2673201516125186  0.3326644955974412
  0.2663020593527475  0.2497708137703523  0.3566261869492224
  0.3179988334988457  0.2744379074235249  0.3252949186371248
  0.3042598319930794  0.2546658918167312  0.3541417487810057
  0.1374544453088418  0.2942274888371122  0.3643473630217500
  0.1522461871616939  0.3116290597052435  0.3333584750339539
  0.1866898975747591  0.3022676210070160  0.3200083955683273
  0.3091699620952218  0.3365884645057880  0.3762823943160465
  0.3725875367833542  0.2871284308266376  0.3564420364272939
  0.3512145439081523  0.2923846506566898  0.3260498205090597
  0.4009005436020336  0.3108703279869362  0.3634303254855913
  0.0189469663488329  0.0181183657141105  0.4062951295220734
  0.0521255476100270  0.0070218046871057  0.4227680674299966
  0.1208079705304050  0.0042894843223948  0.4041843000240958
  0.1213411547043268  0.0457898351727964  0.3960624948788238
  0.2736216263216537  0.0089219530469244  0.3856577240811029
  0.3131718948517803  0.0558708977421177  0.4307066150488921
  0.3156889536970374  0.0615479140985528  0.3942457285511533
  0.3784040921298084  0.0068861313994501  0.3831250959511366
  0.3829354097599567  0.0096986344383964  0.4193214411285546
  0.4427254370821253  0.0369456867628736  0.4144076999804049
  0.4142976945836592  0.0249515559801930  0.4354980211060875
  0.4751538731994959  0.0509901367270253  0.4279085552528915
  0.0316591634675524  0.1072547370084692  0.3891872134801953
  0.1118544805325810  0.0696022112683214  0.4234280732879548
  0.0673733475959176  0.0959416592593026  0.3874931585205366
  0.0856924044354221  0.0962288934579590  0.4195191137760088
  0.3467439548490724  0.0824856189396194  0.3850250380573928
  0.3640919779823455  0.0914530701094338  0.4176336768853368
  0.3991185251851204  0.1039974714824954  0.4259756915539388
  0.4252475020456157  0.1153066155074665  0.3993744404920503
  0.5037781548105377  0.0572779877322621  0.4033141752275617
  0.0166258035038565  0.1240589981283717  0.4206295789184512
  0.4567452011413140  0.1325530515739275  0.4139563344511765
  0.4869253118018260  0.1419968390949240  0.3920394889705430
  0.1103580596684626  0.2626688989706049  0.4275526395538723
  0.1628816864457598  0.2265881171728789  0.4306068327328443
  0.1561833428241398  0.2663548410688458  0.3804877568056365
  0.1417103075948052  0.2500581129241381  0.4109242780224770
  0.1994811070914663  0.2202063342445920  0.4223242300917574
  0.2140276607527630  0.2358856720773516  0.3917216964970650
  0.2517981748476237  0.2336104960076277  0.3869877283377517
  0.2748447302631200  0.2211680348778506  0.4147879782939808
  0.3120923534401071  0.2293133900621750  0.4132257501465448
  0.3268903801007216  0.2470823499686774  0.3831898474030949
  0.3612405971595668  0.2635936075149913  0.3841132763495549
  0.3809507440017166  0.2616034179125951  0.4163547403149763
  0.0917809602268468  0.2921045525882167  0.4147346926929237
  0.1049625519513667  0.3062030413979644  0.3817089083492801
  0.2550676650649647  0.3134517657448940  0.4057531872155148
  0.2361223560122235  0.3354693069668858  0.3816382822055149
  0.2383091755708482  0.3017144115313828  0.4381338498436805
  0.3120727040795270  0.3090680499467751  0.4352605240368180
  0.2927017543116512  0.3150949766559134  0.4033578604639746
  0.3450938384034448  0.3261430918653761  0.4383063331269868
  0.4115850907864722  0.2832400479333959  0.4227770212340630
  0.4204229350424530  0.3068446172603937  0.3953104919301351
  0.4437415957650741  0.3338521398341087  0.4044611869416776
  0.0230261283108670  0.0222335240104855  0.4810659862747551
  0.0527650086663249  0.0067958208556072  0.4621602555496820
  0.1376556145759872  0.9998775880301407  0.4414216792773247
  0.1449622579222393  0.0314102771429909  0.4610490352032861
  0.1658926825337017  0.0315264398369397  0.4913394257800404
  0.2966356068919391  0.0266415199971677  0.4476796543145106
  0.3112629851679459  0.0203540770334854  0.4831661554727152
  0.3550771248500951  0.0677150533995781  0.4762690314558802
  0.3404943842539830  0.0405000027384729  0.4968129876946588
  0.4445066424787879  0.0082282170461970  0.4929667922558459
  0.4170187277583101  0.0082398998038164  0.4686086532763682
  0.4712866498196436  0.0346705695411407  0.4933903503805543
  0.0950604693552553  0.1148421117350371  0.4790314747734975
  0.0730054164858151  0.1163109205392853  0.4489778419610898
  0.1274439058295555  0.0642278098758568  0.4562112198757682
  0.1223989994234398  0.0890591889986875  0.4841192705591445
  0.3418357522751588  0.0758215174604336  0.4439320010673587
  0.3884424740523119  0.0803137429158806  0.4874197609208234
  0.4094516072018793  0.1014648200312277  0.4640510954609196
  0.4835198393348227  0.0558874554701174  0.4644852555892000
  0.0277617268880260  0.1553916690675948  0.4826401996414252
  0.0384956618961957  0.1337158007259293  0.4503711879556504
  0.4390966500849094  0.1210171639337866  0.4773829546374782
  0.4608399602334164  0.1394811149690362  0.4511958123764447
  0.4883752686218530  0.1644374939304832  0.4611283263187284
  0.1495258246739274  0.2175006957190525  0.4638073129748861
  0.2068403641149026  0.1927675849250687  0.4805236809403311
  0.1708216886250807  0.1997855169207477  0.4878083146798267
  0.2220892824932990  0.2042630253077789  0.4482107163844617
  0.2599747515202904  0.2051850045586058  0.4460175696555507
  0.2815773200224184  0.1941438357478624  0.4761251611279777
  0.3181057127618303  0.2058634270725548  0.4746466652251984
  0.3410705335152854  0.2045574486467676  0.5042213821381859
  0.4906449892739461  0.1756495686099177  0.4962449815772694
  0.0995374454809345  0.2558547352928089  0.4633364181364036
  0.1205256796062346  0.2333399695785487  0.4828821669881318
  0.2032555047075160  0.2823671332674186  0.5036942259300856
  0.2417013802017252  0.2750685997847283  0.5003432031494820
  0.3326530972235581  0.2247324961537569  0.4443338384664285
  0.3841023425781947  0.2475539659962748  0.4780501521569448
  0.3661004700357310  0.2434239600748557  0.4454939483319207
  0.4132775206390649  0.2702656712084560  0.4858813945684801
  0.0662309688875337  0.3036030160137439  0.4429497960546076
  0.0726382073166496  0.2810013079625566  0.4739473145661812
  0.1521291799312554  0.3188569988412749  0.4828506683586741
  0.2024012838841245  0.3120755004585441  0.4442274766015507
  0.1854946368541495  0.3020476526284949  0.4763032488195705
  0.2585238676998452  0.2880871634946418  0.4677938385574544
  0.3157507839382258  0.2948617404734478  0.4992300351718374
  0.2960677947217483  0.2944147713470009  0.4666907770635949
  0.3468467288323103  0.3164258663226414  0.5026403745857725
  0.3608949491116952  0.3311249937498014  0.4718144066143766
  0.4278032329965020  0.2885845161098637  0.4573250529628596
  0.4537343306536065  0.3154652318780992  0.4659717434046944
  0.4685644857339611  0.3207588395552676  0.5011198336965706
  0.1012038894703347  0.0174730504650542  0.5355483259139602
  0.0894373056166984  0.9882098920448318  0.5168994095803360
  0.1874885788980476  0.0448076400346188  0.5460890678712137
  0.1888825548191783  0.0073096602533453  0.5412194465329799
  0.3654982068463876  0.0371508318541147  0.5258107605852209
  0.3683922435254236  0.0109446225280183  0.5521504328461574
  0.4898435435648339  0.0367814679894284  0.5260237625480122
  0.4908053267318854  0.0083204536251127  0.5500963681870998
  0.1666335240855747  0.0589071606616459  0.5173913414861412
  0.1234083269401867  0.1022478187833637  0.5483826249278811
  0.1393994951525212  0.0849386981736896  0.5177028617920475
  0.3927494680806632  0.0640043790593446  0.5215200918469449
  0.4175819522632305  0.0720196752640757  0.5482161223299190
  0.4393315919728910  0.1032346178851216  0.5472061947074778
  0.0535118276063609  0.1566893000412771  0.5097485926817267
  0.0516641238831925  0.1673774355560837  0.5468474065835968
  0.1007067716330178  0.1306165864464987  0.5404911596382701
  0.0854664033055882  0.1361727541745231  0.5072048431798555
  0.2810354390418115  0.1632603368690506  0.5404493239890837
  0.3168901335640584  0.1632109216819911  0.5548343270030938
  0.4481790449196658  0.1247046743303492  0.5147226839001968
  0.4697448604562268  0.1554716345163640  0.5204566321884724
  0.4736333099764301  0.1667304682363784  0.5545351178465490
  0.1543490546768579  0.2025640887954754  0.5218770171344073
  0.1239902558327997  0.2259912042076640  0.5208472130738773
  0.2058547960082051  0.1700499447242939  0.5391242775801437
  0.1706761157140075  0.1838097775854798  0.5483113919711147
  0.2268879256801202  0.1789368633015420  0.5087400350257555
  0.2654672713803701  0.1771182838736980  0.5077259816048735
  0.3400576343466573  0.1878015188786602  0.5385037834630656
  0.3646906047671727  0.2071176407275580  0.5592158295530280
  0.4922200015505148  0.1975855198137155  0.5627335033225459
  0.1049388387804701  0.2427538284864771  0.5498486347919621
  0.0797778811201273  0.2709664912691596  0.5420361744352427
  0.1822533653216155  0.2814319044531033  0.5371353777478401
  0.1908627797811223  0.2570675189392749  0.5619956955583448
  0.2192477811722010  0.2386845535866738  0.5652044326144291
  0.2549519376430225  0.2396621136210490  0.5577301790864786
  0.2663451648452460  0.2628780273244108  0.5291060943613085
  0.3015145746913203  0.2783610285138376  0.5301208340903447
  0.3823340418249032  0.2338746505654293  0.5403057133453477
  0.3701999195119776  0.2285976325955842  0.5056504956519204
  0.4243094760422592  0.2778971655765479  0.5217009035724474
  0.4065979571282150  0.2603565782125542  0.5501919160613310
  0.0470263497971438  0.3198669461346891  0.5598696188900215
  0.0420845980808776  0.3174857804299147  0.5226300747187925
  0.0631732833977608  0.2872665202017620  0.5099058526432331
  0.1540893507996221  0.3044513016293066  0.5455104120531605
  0.1351744108398607  0.3169992367188960  0.5165897918584249
  0.3214794800143305  0.2858148678858111  0.5615694981945567
  0.3463235940202594  0.3146167997932916  0.5656959113978622
  0.3602943458124728  0.3303625658088664  0.5353168996245415
  0.4523348716412308  0.3022406598243813  0.5302689812574787
  0.1009937481951155  0.0218535151784007  0.5718849084907885
  0.1805774143847619  0.9990999487127812  0.6038439765245250
  0.1914988496814239  0.0336455560713297  0.6077203483234174
  0.3972553496649817  0.0157522411147166  0.5773816962392756
  0.4186920728070758  0.0471458259659642  0.5776959803266679
  0.4409501889951507  0.0540755186263909  0.6079625117581680
  0.4481821392407851  0.0272104415302928  0.6341054467646174
  0.1091167943973308  0.0528202014161021  0.5924143568641443
  0.1165914513229798  0.0887958666523451  0.5830447666491348
  0.1958583835713733  0.0583239026998292  0.5794785266408096
  0.1957242071397915  0.0930057199295600  0.5954246051225371
  0.4531793970577169  0.1128087760989441  0.5824329825509874
  0.4547025173161385  0.0888275595843987  0.6123570568128713
  0.0576682139160919  0.1642558764590013  0.6230736632472722
  0.0793516602320617  0.1495284980347714  0.5650340453533237
  0.0997179696689668  0.1117551147821268  0.6100974256376667
  0.0803760860041360  0.1427000975804426  0.6014940918522791
  0.1702044667904688  0.1510594939153636  0.6021649593979758
  0.2215142937086531  0.1485439775390613  0.5643881922824381
  0.1958802337246162  0.1284719424301261  0.5846787789197313
  0.2571878095686070  0.1597184750622743  0.5702695749313090
  0.3130056888092141  0.1264598239656870  0.6175794352427117
  0.3274931664721349  0.1492429916129341  0.5901449080375439
  0.3532019429157902  0.1695572126517412  0.6088230865369880
  0.4674164953989401  0.1466395851645582  0.5852541118403890
  0.4820913869057239  0.1673113697829327  0.6133209911896242
  0.0284551741694496  0.1883083432792594  0.5670471647089085
  0.0354209808448205  0.1896531179995702  0.6046914452024535
  0.0194582884868568  0.2178936534058802  0.6239405048939872
  0.1573014178256012  0.1814051449139962  0.5842430871848364
  0.1341468022066662  0.2061449807826363  0.6027805433644368
  0.2671038860833570  0.1863968400533879  0.5980873429694212
  0.2744940498355314  0.2219277325629692  0.5859285460686171
  0.3683465750500305  0.1998911678866901  0.5938884275367398
  0.3846382401326726  0.2212349805804637  0.6194591802804288
  0.1126640936458941  0.2354881259652984  0.5881729512721835
  0.0982667935120537  0.2594332147727064  0.6150494119039256
  0.2985786132471606  0.2414130991788688  0.6075103406780559
  0.3177208545389943  0.2705092694693721  0.5955574680215873
  0.4029752761017632  0.2522007458870046  0.6169970299032754
  0.4152398678037377  0.2694523932813778  0.5857187318614612
  0.0696016786843118  0.2927232698539501  0.5704445994096730
  0.0753832853700597  0.2880843057945633  0.6063628917405984
  0.1489732216937507  0.3302857744902904  0.5742285527935238
  0.3360395918981295  0.2922317476497393  0.6198485130919315
  0.3537165266065060  0.3201695662051289  0.6030304469772514
  0.4404952139844049  0.2954052938780465  0.5959523045475161
  0.4635512189133528  0.3079733712719349  0.5672860158456174
  0.4994997011819016  0.3214600596423107  0.5712425664558273
  0.0614426437139740  0.0332349073992014  0.6777297872404543
  0.0783700512856778  0.0271094812462939  0.6450569507767845
  0.1533166762474791  0.0048653572569357  0.6651339180389314
  0.1658015357188862  0.0399497340455227  0.6685509933421641
  0.2899482390178312  0.0267608768359656  0.6863165462864411
  0.4699596940106961  0.0334530416372686  0.6656099880118744
  0.4825148368434306  0.0053438950087339  0.6881871758799472
  0.0962033662468522  0.0547661244160493  0.6283844137888662
  0.0720307555911531  0.0979001062804318  0.6718530471085187
  0.0912886816091922  0.0903339704695536  0.6402524651170819
  0.1564882451738096  0.1007362981573972  0.6863971146240083
  0.1845321701196234  0.0520821533630078  0.6394384585988903
  0.1859823836647309  0.0875675259504478  0.6311107318591211
  0.2798698742933082  0.0940903306476339  0.6921601369395750
  0.2929245612705517  0.0621909221884606  0.6724893369124981
  0.3320120961653998  0.0993665664278902  0.6388187673828576
  0.3139762541752389  0.0687357394484868  0.6433783178768081
  0.4772898875867532  0.0691229323098059  0.6725224227951775
  0.4696409570677544  0.0960021783693296  0.6466121383035029
  0.0554136442952612  0.1625624386273365  0.6612215322858909
  0.0609040142626985  0.1322025089923574  0.6837073166270423
  0.1692900127564651  0.1115159645751009  0.6529117899995692
  0.1609213303171484  0.1438593393076551  0.6374515408457349
  0.2817985034103084  0.1300321025009437  0.6785937909102071
  0.2874288587046722  0.1411729456729244  0.6419160999315253
  0.3528868361085015  0.1110110102038698  0.6700756944777064
  0.3632800167490401  0.1468011430815078  0.6740750373287770
  0.4813151478608043  0.1284056538243035  0.6626590616864899
  0.0441605604781505  0.1943563885983161  0.6785500606265410
  0.1428980865833483  0.1684669665704373  0.6576819682010747
  0.1332867757304930  0.2008012851088342  0.6412396014791576
  0.2770632395186292  0.1766081421891953  0.6325627876740121
  0.2878373143313731  0.2025872864907859  0.6572924975979735
  0.3655172001687543  0.1699184843587780  0.6454475979081502
  0.3822772150166466  0.2027734483244356  0.6512909474259867
  0.0284762290195631  0.2228620955752247  0.6601235823303694
  0.0183511609167409  0.2544436453308713  0.6786719690935075
  0.1234322012226110  0.2275688552721864  0.6652662483204564
  0.1078589126933022  0.2581981120183237  0.6515085415587830
  0.3014529006137555  0.2344515235961487  0.6444333192510013
  0.3172526661718338  0.2582448768809135  0.6690419209592031
  0.3922125112057574  0.2185388938314671  0.6828952020934922
  0.4082835020427732  0.2528924310617975  0.6823805690218281
  0.4167060410909312  0.2681055499413774  0.6481240168708661
  0.0620050025367026  0.3141657799459303  0.6312385547654711
  0.0985820091081269  0.2855560952588395  0.6754250028183447
  0.0766674919193196  0.3139060985383161  0.6654133911988243
  0.3353408366911473  0.2882105800106116  0.6563406544339921
  0.3468787813701597  0.3165309393750680  0.6779800247329115
  0.4366840561419781  0.2985256512257591  0.6360765529318407
  0.4431532485335358  0.3258965766444666  0.6608628607549009
  0.0398247136228423  0.0061528270473420  0.6917437095300909
  0.0251941779049377  0.0099625751203015  0.7254790570100740
  0.0308520488954241  0.0417068371455231  0.7440600420856198
  0.1257991116470668  0.0200189940347719  0.7256716870149893
  0.2616301516240545  0.0523988909698062  0.7392578909335770
  0.2730090913972585  0.0215452958037426  0.7198008401237296
  0.3528732050005414  0.0310184501884345  0.7289767297990968
  0.3482285696835360  0.9932352701947182  0.7384192488674700
  0.0432721673921329  0.1053360500739031  0.7425873254804637
  0.0455510247852622  0.0715188588773889  0.7266840392395971
  0.0609737413335676  0.0678806293615030  0.6924800545834766
  0.1358032374759426  0.0553904490863607  0.7278440616604209
  0.1538695970808146  0.0650122233249192  0.6952592766780542
  0.2675445481338239  0.0883439781892276  0.7274431596543179
  0.3543694679459284  0.0526052976473674  0.7001784473451540
  0.3555376493236893  0.0897445092202439  0.7009526585897530
  0.0512860244482715  0.1349392548933767  0.7208655346069122
  0.0466901421082092  0.1678021257568625  0.7374419063082444
  0.1292710322713138  0.1171894225870909  0.7441482525572289
  0.1376530907470457  0.1607318987660705  0.6944923021422168
  0.1414122784718753  0.1262168877850977  0.7089644132950478
  0.2610010653941456  0.1192104470340572  0.7494582558443846
  0.2705335944417543  0.1551324835190122  0.7396875012892673
  0.2799882228754542  0.1594084216429035  0.7038605303402716
  0.3517040058685441  0.1091785714800338  0.7347179465941951
  0.3568301199235037  0.1461256867991836  0.7388879973368215
  0.0454614395780976  0.1977557083743964  0.7157834068256742
  0.1289947906118166  0.1884043091913156  0.7170869179976661
  0.2884011732948644  0.1949258843460819  0.6938336609510517
  0.3686887518173301  0.1639613638344287  0.7084183663887559
  0.3808518754795900  0.1994238970471886  0.7131097198463832
  0.0406106697364439  0.2311327234319246  0.7318461232457242
  0.0278511213919765  0.2610825046053308  0.7145220784317035
  0.1253110462526086  0.2225016295998120  0.7025169138635904
  0.1194891926436154  0.2512117128347997  0.7254979238597198
  0.2949933137093023  0.2229504334955529  0.7188904722309077
  0.3117674540803686  0.2542621416357774  0.7059808224112949
  0.2825711396696304  0.2211043588134128  0.7546320468367105
  0.3790853896363657  0.2173827032115834  0.7463283276331479
  0.3939790947629170  0.2524452347642117  0.7474607784850722
  0.4115571701904134  0.2681738893338182  0.7171277811561473
  0.0212398563107503  0.2936870166372643  0.7341480113944261
  0.1076230205841384  0.2838109526722564  0.7115606825946688
  0.1015053966217000  0.3121446626678384  0.7344793524918142
  0.3190097477406920  0.2835076563247303  0.7288964582434341
  0.3367267552701339  0.3145468255791177  0.7148115229336212
  0.4283703311280845  0.3007533997293450  0.7228984747539786
  0.4418415860729479  0.3249466065402686  0.6983629926875079
  0.0194560176476271  0.0441160736640176  0.7793315327035006
  0.0077269896095637  0.0127707656138424  0.7964528330793058
  0.1008953376676791  0.0396812010215492  0.8087320094903004
  0.0987061019405557  0.0071037865076846  0.7884639173314684
  0.1071055087926334  0.0006009707723647  0.7518973685261982
  0.2304641962916416  0.0554518298315502  0.8015529135159299
  0.2453196934733368  0.0393320379913397  0.7714003012885198
  0.2471514744398843  0.0022825554839616  0.7709769604505627
  0.3354424955238414  0.0285175569992299  0.7862499905695629
  0.3420285691919626  0.9935844755635669  0.7751918491093207
  0.0300484806190956  0.1087452133924115  0.7781372160736719
  0.0199561036738057  0.0776759064293453  0.7961977649313845
  0.1109165869452121  0.0740529426519863  0.7924840640640796
  0.1253859493544570  0.0808535037611798  0.7556661727837254
  0.2283908844623186  0.0917398707476031  0.8043774133998189
  0.3446998876789114  0.0522908534580352  0.7606512979294323
  0.3260288530292518  0.1064591169865706  0.7940204880848512
  0.3406303331542445  0.0888280688871676  0.7640584866854701
  0.0274824529340994  0.1423667882522509  0.7956253203346192
  0.1101762528006538  0.1407840590721297  0.8022302228188584
  0.1208419281676981  0.1463544328989957  0.7666397923474576
  0.2416963896459686  0.1180866109571989  0.7808665576095795
  0.2325403397075350  0.1499607137156806  0.7970013469851792
  0.3293502953384187  0.1437754591461967  0.7970983734692562
  0.0386820806109219  0.1703485472320290  0.7744385715883456
  0.0372117850611306  0.2033317956765165  0.7900306343052105
  0.1235264211646392  0.1815770940978934  0.7534835803612947
  0.1196961533074428  0.2110167218208324  0.7757718483954597
  0.1112868539762672  0.2064173175132548  0.8115826500303348
  0.2460501435227223  0.1835892253806664  0.7933321978514549
  0.2671508896657571  0.1874358127421749  0.7629806834515575
  0.3488800243168115  0.1648149793370469  0.7718611399901475
  0.3612300154853800  0.2015691198712777  0.7760336073854253
  0.0408360811204028  0.2324792436269775  0.7682913836462213
  0.0338708456064046  0.2630701513389941  0.7877847504917982
  0.1205726790296937  0.2457344763113379  0.7622633032918393
  0.2694566627969743  0.2570120317508725  0.8134518301622178
  0.2844882552343203  0.2526437231184790  0.7780035741221223
  0.3706347407576932  0.2601993468736597  0.8082037774477963
  0.3561380452418362  0.2244221065900862  0.8067777456961597
  0.0310502191002836  0.2962023196087119  0.7716308663804475
  0.0399425694706528  0.3243568909923412  0.7962165178379775
  0.1165113192652869  0.2754463153740107  0.7846155649241707
  0.1104574104367597  0.3084115084792101  0.7698336055134850
  0.3043034850831597  0.2832497893204864  0.7641676361803798
  0.3073234046870301  0.3155060676238692  0.7843628365835861
  0.3898624604957824  0.2731144467763258  0.7791281602535763
  0.4047381371451328  0.3075735698519707  0.7823832694822449
  0.4242873161936392  0.3207141736274697  0.7544646618425500
  0.0017975217479694  0.0128169059339317  0.8332481795342687
  0.0045613974979025  0.0468008054549252  0.8494045438943930
  0.0811747834660151  0.0034758214278173  0.8653345484561836
  0.0894781885394067  0.0370031137731312  0.8467478476791370
  0.2039776228503824  0.0526583950729858  0.8622433158355896
  0.2178294676907366  0.0356283787558242  0.8313614839703409
  0.3155084720713601  0.0296623796691766  0.8174672045358105
  0.0103142041822840  0.0802979011266139  0.8318242994514401
  0.1055060207811420  0.1051674768778853  0.8152803220249561
  0.0873580775839564  0.0681622179131328  0.8681606938897397
  0.0942215529746683  0.1019349820685891  0.8517647496873371
  0.2020364288951473  0.0902911170262539  0.8647405580231163
  0.2140234070570853  0.1083836822367490  0.8350489514371552
  0.3026648158299172  0.0581516856814186  0.8367574559657912
  0.3077339345762155  0.0931335223687713  0.8253251096216625
  0.0083368164423882  0.1155524512012256  0.8487973440167353
  0.0141878849187265  0.1488558002478527  0.8313357063420609
  0.0885690085879742  0.1333515215574661  0.8725587552800442
  0.2171388074260845  0.1448848912969748  0.8298740130647878
  0.2991143900860971  0.1217130568398338  0.8484241275225846
  0.3128235496191371  0.1530130934453922  0.8304266845671632
  0.0108534401847704  0.1869560795756976  0.8469056773559067
  0.0245351718937112  0.2134778209105559  0.8239529729339228
  0.0926543576125211  0.1681409013093139  0.8592140549864373
  0.1047780141481071  0.1716855510988254  0.8241483269727476
  0.2190271453021284  0.1769217553789699  0.8483262504403705
  0.2368061704195271  0.2024862044514806  0.8260348847450768
  0.3144660384814417  0.1858902169830267  0.8453269831124457
  0.3349392944336964  0.2166654420279433  0.8362192764298081
  0.0261721704404066  0.2526497276530234  0.8228477491719015
  0.0936143364135057  0.2327861723309760  0.8678382165019114
  0.1071683905986209  0.2368381311476722  0.8335090693772281
  0.1134306905955994  0.2715504014816128  0.8214567456345160
  0.2469947087780782  0.2360759889111721  0.8365067865496694
  0.2395872434401674  0.2552500040655385  0.8712240687588835
  0.3308745971075439  0.2415750646274546  0.8644718776551628
  0.0199224993406425  0.2809727041619920  0.8458444833092946
  0.0301876561010083  0.3171089716135230  0.8331276330842569
  0.1123738077406122  0.3017034958586228  0.8444414627546136
  0.2572094265560820  0.2885332882191183  0.8666435050461561
  0.2736454864489173  0.2891401449318883  0.8323147421480457
  0.3477175235986920  0.2735868393626217  0.8686584845883210
  0.2913952496917429  0.3183135301950356  0.8183584485446586
  0.3663787657540334  0.2839201882720352  0.8383112311286246
  0.3802669578484715  0.3185609223636688  0.8405797790101576
  0.0731920753254826  0.0337017327177001  0.9248261718180927
  0.1944687366571631  0.0322509925522805  0.8919183847798879
  0.1828909918343479  0.0501289960023111  0.9233530418381412
  0.2881313912599346  0.0141841794345972  0.8834219030794883
  0.2788692897547997  0.0064863337871275  0.9189541881461450
  0.2881291219334182  0.0500028743403902  0.8707540510169224
  0.0040472276401831  0.1133094651824358  0.8850620470762196
  0.0750052828866216  0.0980794143277697  0.9252615694209216
  0.0791193387907961  0.0661394466322220  0.9058999180943531
  0.1913777216973946  0.1093694556071864  0.8958079474745017
  0.1805688800495128  0.0879185098060946  0.9252993004703746
  0.2646859520144856  0.0696636942247600  0.9273105993869557
  0.2781123459120248  0.0785480537038003  0.8931569563613927
  0.9955642693980209  0.1390679562192805  0.9112763342821650
  0.0681881061064463  0.1631055656264724  0.9263858243225714
  0.0775193236948520  0.1312539034508269  0.9080875849573836
  0.1918062203786439  0.1473229786050563  0.9003307367598659
  0.1787028128561000  0.1611888411304215  0.9321646741231006
  0.2741846109680042  0.1410981721439029  0.9096322287769757
  0.2832852793385447  0.1150647161624563  0.8829094746734009
  0.9867136536115413  0.1746738207859051  0.9090858559405565
  0.9960544014635442  0.1996217468649424  0.8808716376249094
  0.0706124063960397  0.1981355772928103  0.9147247810226106
  0.0853176038681204  0.1992254290102086  0.8802790171583121
  0.2059309967433586  0.1784399216400078  0.8821124774681132
  0.1846748572135289  0.1977880880274812  0.9341069447484920
  0.2036489045462213  0.2097385564691657  0.9042730974852649
  0.2816361443375064  0.1767665769050072  0.9058868384918459
  0.2804763004508893  0.2017660366489889  0.9340563010363530
  0.2976452005011845  0.1939389633893739  0.8776985011481777
  0.0032366589995663  0.2735056387673701  0.8790915477109954
  0.0898516260685438  0.2621322689317042  0.8901733071811944
  0.0736990092860712  0.2626731564026706  0.9248244494231109
  0.2193083384378777  0.2442323356191000  0.9026197890911963
  0.2133949350140585  0.2652286228952124  0.9364746230858180
  0.2998024202535861  0.2329882363624271  0.9248997207336498
  0.3082471464352787  0.2272123975873898  0.8890952893103687
  0.1024804335718110  0.2956895618918713  0.8800553946430800
  0.0793355050715801  0.2989449899553910  0.9379696248321988
  0.0996456774753449  0.3178299123371995  0.9107209466953954
  0.2616401897104548  0.3188749119880122  0.8888070663839688
  0.2505740720282862  0.3221833542030677  0.9248377489622083
  0.3331858544041984  0.2895715686039741  0.9337885640108816
  0.3456283972799291  0.2955771880506788  0.8992240661860599
  0.0649371918800866  0.0337611282051803  0.9635116480275930
  0.1657436978333156  0.0464483460351401  0.9863536183512839
  0.1761145677508039  0.0296430131794849  0.9540583732650185
  0.2651587556515979  0.0342642982101611  0.9402621987988073
  0.2559950057933540  0.0269655767581650  0.9762345345845821
  0.4927965385313620  0.0142714531333926  0.9816924730517972
  0.5098120238601181  0.0191348838313725  0.9484746893647853
  0.4758488479812024  0.0418778762067548  0.0005176941358741
  0.0584364186075143  0.0664332589677115  0.9809671036292024
  0.0650552783198795  0.0971371950166843  0.9615094115584540
  0.1620273213333205  0.0835977748524544  0.9882119579941360
  0.1699868875320232  0.1038322582593376  0.9578981322462766
  0.2536672639862830  0.0970476820402009  0.9507260503942394
  0.2421008159249313  0.0886187849923216  0.9845234411913019
  0.5040949830869762  0.0837672624662405  0.9551620177233334
  0.4813508065856910  0.0766072882175544  0.9862711951268134
  0.0560467384032070  0.1284391012037791  0.9782101481269806
  0.0562311913772739  0.1599106750517445  0.9602228328540516
  0.1627668134014743  0.1590325531569676  0.9932686208280289
  0.1693889715258965  0.1409459707915133  0.9611873051480064
  0.2588126302875651  0.1328106095377760  0.9435952662741863
  0.2527349554078287  0.1582035236953887  0.9722836599282965
  0.4774162604136785  0.1411521337476253  0.9948064280644627
  0.5032623377698008  0.1488200782368609  0.9681880007498490
  0.0398870368350602  0.1863480799289773  0.9797781052251094
  0.1675826522371243  0.1961110674418990  0.9952882349376140
  0.1798525624741753  0.2157348130680452  0.9655416468539985
  0.2595662137749546  0.2192646589342743  0.9919876041344982
  0.2633992932540004  0.1937429053048936  0.9657835453049057
  0.0395242745408988  0.2219571975852961  0.9690273794710402
  0.0604067886531836  0.2295233347246070  0.9370254635498358
  0.1930161838567451  0.2505634711499096  0.9664147209207088
  0.1888867186634649  0.2672563011219984  0.0000772768354575
  0.2737185354136252  0.2543819732257296  0.9956964849456926
  0.3112924771220483  0.2618860929758282  0.9447855630991115
  0.2988441797821278  0.2736120901897716  0.9779918146892614
  0.0698535991279234  0.3173775024203030  0.9696562894749828
  0.0437322980703012  0.3080446393965712  0.9956015465343012
  0.2246313137770214  0.3163753720307554  0.9787322325443193
  0.2277157220798431  0.2994342667001114  0.9446646668704266
  0.3342304496958869  0.3188669642133145  0.9578400875353933
  0.3140452874892201  0.3074618979427068  0.9893261541090926
  0.0374289883221302  0.3305227060917633  0.0254384930538597
  0.0581296155884241  0.3592028112332782  0.0340129281252669
  0.0855191884727801  0.3684971053199705  0.0099390175202460
  0.2237111544370190  0.3474998921949665  0.0429025727136409
  0.2460868169216718  0.3654589252914996  0.0170858071149091
  0.3190825672812970  0.3455999221904748  0.0482787861888126
  0.3438672289267447  0.3745149411076406  0.0385936836862969
  0.3808430462374429  0.3664478096004326  0.0429626286518953
  0.0215900442002203  0.4343857723054256  0.0104171386801234
  0.1103431606808111  0.3937236974346692  0.0221235813969797
  0.1096769192099353  0.4050187943653887  0.0589868259605421
  0.1592777012914819  0.4338055042115087  0.0067374032298706
  0.1600959930643211  0.4438561369980324  0.0430159807638970
  0.2602169774471930  0.3956538503131348  0.0393417972021331
  0.2778791015063007  0.4295187811355995  0.0406598114698386
  0.3147068186991688  0.4400890359460388  0.0397602848609992
  0.3418625254326590  0.4141812661408665  0.0372964070541711
  0.3771446662239582  0.4270824083900180  0.0429052861481967
  0.3999355156044416  0.3981865643234057  0.0430761233518681
  0.0490037047259526  0.4774302313918634  0.0498480043450520
  0.0487511230629544  0.4601919881727046  0.0156755524748066
  0.1084810301509133  0.5081799528850253  0.0565827380481896
  0.1168067157527013  0.5073833404313493  0.0193209803873671
  0.1872522953739511  0.5026391300243298  0.0209489048926483
  0.1759198237980493  0.4764062727562960  0.0492208464142817
  0.2605628549007887  0.4541744529786652  0.0642105677322565
  0.3249798968051281  0.4757815146588998  0.0529835955260048
  0.1505544562939574  0.5278182005209300  0.0166231776259696
  0.1576344726765829  0.5471710187490306  0.0530695562847840
  0.1965792348937841  0.5539009580089903  0.0568650685288652
  0.2139035599284596  0.5295511319737688  0.0346463452394007
  0.2510915588174970  0.5320717028219433  0.0272405301486047
  0.2727673411402421  0.5279221339363005  0.0576815234977693
  0.3054178422122383  0.5072560564311801  0.0629064950595006
  0.0497043347672005  0.6130933859590031  0.0366756434485244
  0.0836065385009804  0.6081644602667248  0.0511267209788226
  0.1126880956702845  0.5906106892600382  0.0341871202893789
  0.1398311036146476  0.5805223962662116  0.0570141020669552
  0.2969851958430053  0.6022165513391762  0.0088016268925109
  0.0205291935217627  0.6220515539616422  0.0580544755380445
  0.0387096673025442  0.6208719383762026  0.0015200800743488
  0.0044626441894543  0.6385585584727466  0.0019580333483025
  0.3093619349031621  0.6310618143356839  0.0165962864560847
  0.3158736717889416  0.6667316992298989  0.0133999305050966
  0.4650968053642291  0.6557355649938094  0.0294050851208193
  0.4874975231068486  0.6462793487216371  0.0597027489741057
  0.0515014844245691  0.3766557850359007  0.0665136689769933
  0.0166017166392551  0.3732856242514399  0.0832840525739837
  0.2134315208462133  0.3439052134875467  0.1079150326977231
  0.2273804123934751  0.3605469172420964  0.0776899752124632
  0.2499867292945419  0.3901212265663344  0.0752180808494226
  0.3099985063987019  0.3448532244248267  0.0855013165424123
  0.3247248293846637  0.3711795118203644  0.1078002340122572
  0.3879632208421090  0.3474193323230626  0.1244557412835156
  0.3608336671536240  0.3731425445981846  0.1197736431815684
  0.4564972984134886  0.3721669218057638  0.0572137170459809
  0.4936241704592786  0.3776262031300896  0.0625789273320418
  0.0328007564165958  0.4209219679238387  0.1248558660920061
  0.0781203034989372  0.3993441793838373  0.0803745819109543
  0.0696985186546128  0.4143878940630836  0.1152721880104153
  0.1401131436826338  0.4247617702643031  0.0707258932232064
  0.1515788157703992  0.4235005397186917  0.1071839663874805
  0.1875883062861144  0.4364628611813332  0.1165709453722576
  0.2663164373027154  0.4097365580874123  0.1073192697877278
  0.3062488426742174  0.4033985069655637  0.1129842631853381
  0.4343130231757284  0.4012851768219974  0.0553575052233909
  0.4458164582214481  0.4330599111087371  0.0683401970444686
  0.4801832730057031  0.4380468977034417  0.0825366627290237
  0.0223975544925946  0.4693386177202278  0.0760135477730150
  0.0271938475227207  0.4904657286707033  0.1064558490824303
  0.0745174065280837  0.4996909997633135  0.0678646045724114
  0.1679642701151531  0.4897531677534866  0.0830661261514479
  0.1867532757061380  0.4742221491231928  0.1119840125078718
  0.2658990549994887  0.4776519434704952  0.1264083007015760
  0.2614426772717038  0.4499630100304727  0.1002864475447189
  0.3609584190436876  0.4844509618948427  0.0647159785712209
  0.3880317785121863  0.4596006723429477  0.0590647693681572
  0.4229594172907397  0.4619671693836288  0.0729711275612186
  0.4421058137199502  0.4869664048446391  0.0943203954033374
  0.4783307975422383  0.4720779106932890  0.0994665324167885
  0.0599124338296484  0.5088644500930485  0.1026935316293880
  0.1411753375522238  0.5187749825527233  0.0828417524070198
  0.1410979889261627  0.5303901882521473  0.1228688357207172
  0.2721750397954122  0.5549854381172731  0.0846670578390419
  0.3273277749408773  0.5282215158039711  0.0850262574828317
  0.3633214283021033  0.5171407591959877  0.0857489683225262
  0.3927177133748598  0.5347104159238152  0.1038510655869390
  0.4294053272319427  0.5196702242412747  0.1084912498694661
  0.0876716150736261  0.6186208135653806  0.0875225290345403
  0.1217647234355449  0.6201634555905158  0.1033446573487883
  0.1492003919167763  0.6017476244920725  0.0860975323097959
  0.1840884392723318  0.6020420325812558  0.0990552406591721
  0.2097613186545395  0.5793480085561550  0.0815540411616709
  0.2454045204977425  0.5801658686256861  0.0947001758122716
  0.2545632208274433  0.6068546502469979  0.1210861253815765
  0.3067719933333016  0.5565959494215590  0.0989313273244468
  0.3178165114042408  0.5851361320758192  0.1193254892565212
  0.3863939720011433  0.5683234357962840  0.1210366497182189
  0.0582213790081166  0.6292651686619118  0.1081602368220761
  0.0237128377912122  0.6298129452455868  0.0934919284518309
  0.2231200641570890  0.3471091745474565  0.1769349623223674
  0.1876561422540503  0.3982898474189355  0.1707713694954858
  0.2394965509360896  0.3575271255427305  0.1427402120882034
  0.4209792963666159  0.3600196192851340  0.1357481666189429
  0.4561625850035215  0.3427819869855993  0.1357530303973874
  0.4786015730883423  0.3705194909592663  0.1465865042461191
  0.0941960560928260  0.4203723936012455  0.1427673930709178
  0.0800990461221722  0.4290159566555685  0.1772807460991527
  0.1319189399512452  0.4155685060627720  0.1389824210891730
  0.1512259476160137  0.4075017970479018  0.1709325734765165
  0.2078227299429914  0.4121433622744025  0.1416680954075689
  0.2414895950218301  0.3956967747549468  0.1359690091886747
  0.3324990991643353  0.4263621616486630  0.1262903866010640
  0.3652708700495484  0.4082142796530564  0.1307963131095896
  0.3968930229406930  0.4226088492871219  0.1449997287903877
  0.4247307041692035  0.3971894915648174  0.1450824906642101
  0.4606620180331540  0.4023596961573842  0.1542999144371500
  0.4774382958336890  0.4299554389609075  0.1720671926912309
  0.0464319763533970  0.4457810097505081  0.1812578568057672
  0.0136854544776973  0.4837457582798862  0.1411474395181296
  0.0254658202686987  0.4485077194776102  0.1502520307857211
  0.3012449871602874  0.4824497460071741  0.1384976069143838
  0.3319413261014131  0.4605266509994557  0.1374484102762628
  0.3618787050261091  0.4758144556041400  0.1562272238097624
  0.3956435182076954  0.4584333708513869  0.1601705909437985
  0.4245143366217416  0.4755521518377830  0.1778702373715439
  0.4600820441961599  0.4613711016297132  0.1822534352881078
  0.0493157424003600  0.5315175268072664  0.1628034849853265
  0.0156486848146687  0.5139689760037325  0.1653495933733712
  0.0732715565861591  0.5265608498617619  0.1327234107601112
  0.0691349314079098  0.5490234538008539  0.1904934014988338
  0.1048824772345769  0.5551523895301540  0.1778941412990677
  0.1095844778618147  0.5383842701983139  0.1425332053848677
  0.1763784507377655  0.5300834061472443  0.1415044355562782
  0.2021808373989971  0.5026793367063657  0.1319392056498607
  0.1875324221293138  0.5528874969890488  0.1705124967095419
  0.2395851662617288  0.5026889556388467  0.1396558279750405
  0.2513900439625208  0.5300748972797296  0.1624974792581840
  0.3124190014307885  0.5105609664778589  0.1599427498857802
  0.2879990190266312  0.5345346794374264  0.1721132479431386
  0.3490097510048801  0.5087741294261903  0.1702171438628693
  0.4565107339521852  0.5372248345239331  0.1294115759101313
  0.4916953282044580  0.5217150945088737  0.1349290106697237
  0.2260894203128815  0.5535714223797293  0.1772532481957617
  0.2907718954073787  0.6100648405928305  0.1314626300877446
  0.3540460106856938  0.5894323370152000  0.1267303779638009
  0.4137238306522288  0.5862005031134897  0.1408856871527601
  0.4480991438678906  0.5714031383729996  0.1453849283839021
  0.4734978062912922  0.5881262819314500  0.1671224155754139
  0.5061297422341525  0.5711080151895702  0.1738394295439637
  0.0316520694022628  0.6478488495885300  0.1633368852727113
  0.0626566501999495  0.6411189639168942  0.1431216775293974
  0.0972932054090379  0.6451638420434620  0.1577676231181518
  0.1276083009052599  0.6362174907115076  0.1368778552792843
  0.1632883484190474  0.6420644756804547  0.1488587107595771
  0.1692506125901793  0.6626644111400126  0.1808679370550515
  0.1916382414708222  0.6250658775564042  0.1284726676674787
  0.2277044393318194  0.6288972488056560  0.1387602278967917
  0.2729293394334250  0.6582082990387679  0.1734433852216768
  0.2355684054558465  0.6534206541339249  0.1667371070735399
  0.3365692969687682  0.6413564353072613  0.1632506192525446
  0.2996759945074776  0.6373016178390030  0.1554369052572622
  0.3622936904888759  0.6186142702572925  0.1482905997085857
  0.3984439724961687  0.6172466601032197  0.1585752615446203
  0.1496494904944832  0.3873741644818823  0.2329128546093636
  0.1820802289831979  0.3670974588664483  0.2321560806265755
  0.2004805208931487  0.3706133753991067  0.1966719796920239
  0.0546191113358798  0.4480186753473434  0.2448860419871979
  0.0998567728956618  0.4202969375474386  0.2076687771275491
  0.0845514526613026  0.4249365330120695  0.2415775615676908
  0.1337723216750851  0.4045445770577865  0.2037585562925087
  0.0371743557167138  0.4617558306221487  0.2142893748698131
  0.0107681446139561  0.4881685229100627  0.2209080705580495
  0.4796692322036177  0.4838920924455349  0.2046465062872003
  0.3636591439162970  0.5351515719625796  0.1928658890279327
  0.4248034138189619  0.5094902301842463  0.1972965063332298
  0.3997312411020878  0.5361865222332162  0.2054097310366706
  0.4588017781689139  0.5131131673835357  0.2133586008361995
  0.4705825733588184  0.5384223142071016  0.2377517799542011
  0.0364834870595377  0.5474676544839636  0.2522484288759090
  0.0606314159260012  0.5578616997437765  0.2262427867684028
  0.0826827134148788  0.5825250099089330  0.2449674156106650
  0.1157065819128860  0.5917246607432184  0.2337955724980684
  0.1285328060478916  0.5742074134273563  0.2006588659176030
  0.1657430290910864  0.5741177000269390  0.1948393355324605
  0.1822355258565329  0.5964936847204576  0.2194809205745941
  0.2185785054085433  0.5996623100375651  0.2195665914410487
  0.2414871555541270  0.5786587740464324  0.2006313415158277
  0.3026276092782225  0.5602791044621196  0.1949676078514087
  0.2777795645962010  0.5829986486433348  0.2098752676478590
  0.2886593260856354  0.6077223578324958  0.2357205121201699
  0.3393322969547308  0.5617142016098253  0.2049691585643652
  0.3862066107821116  0.5908721109799373  0.2411077921155909
  0.3503686230253290  0.5885232238230577  0.2294470145944250
  0.4113422190811659  0.5650867602277209  0.2290193269615020
  0.4461356242072649  0.5662899744431948  0.2448715304120012
  0.4734796675875150  0.6195771330655077  0.1884237849380107
  0.5071357772839704  0.6201596896554170  0.2066416878264941
  0.0035345646446266  0.6429334348692104  0.2191800118116782
  0.0349588515756435  0.6515518736204516  0.2006100352249202
  0.0692474509373693  0.6593427735441612  0.2151641784860689
  0.1012995331633743  0.6587337827854844  0.1924897322730562
  0.1364602384771353  0.6703988507467845  0.2029096214589750
  0.2072102349776046  0.6716099021267345  0.1874691340052254
  0.3245098530098751  0.6113457717225177  0.2449838626278533
  0.4108959308237088  0.6427671077588546  0.1832190258138816
  0.4465151057798717  0.6440467859890550  0.1967200535908502
  0.4565164966514908  0.6707046576673616  0.2218857443470796
  0.4902152356674689  0.6703544782520351  0.2378698223068934
  0.1298598954526138  0.3841178256276047  0.2651186035224120
  0.1479097232583964  0.3573579644059570  0.2858699626153720
  0.1812020613330370  0.3473504299290347  0.2689409186172631
  0.2691953724877476  0.3311703889822017  0.2684069788227734
  0.2814298117107017  0.3653592803048577  0.2583461361199828
  0.3202169485310651  0.3632749883073711  0.2594690931307680
  0.3851895838365021  0.3462359493299133  0.3118458279584346
  0.3868133830005198  0.3766963343700486  0.2917373408681225
  0.0506674449315843  0.4336953319542208  0.3070601402525784
  0.0771058421763917  0.4066281014484045  0.3020905219613838
  0.0985647337813464  0.4052398296349425  0.2704774565810873
  0.2852291288655032  0.4242485866054455  0.2920270424043682
  0.2724751611257532  0.4015223049144466  0.2656141100602638
  0.3072653217746329  0.4216973442054576  0.2626497395146037
  0.3358836919217049  0.3970621890240229  0.2586688533181893
  0.3706451021251743  0.3986617522114620  0.2726609949958387
  0.0411483472283709  0.4559189840679255  0.2792202487133859
  0.0151958289041873  0.4826423493020781  0.2856495358052905
  0.5038365786502439  0.5333351531292071  0.2557843319439457
  0.0317586724660412  0.5598268402885405  0.3196969759562815
  0.0429778362721229  0.5639068491848938  0.2851733651384871
  0.0715276875250529  0.5878099887693083  0.2800543516062563
  0.1349296059689762  0.6121380090472445  0.2608384347689282
  0.1694488116056587  0.6160318452382637  0.2499139805724730
  0.4553931034510253  0.5929768692669642  0.2702301312610684
  0.4884073665443703  0.5904121666231903  0.2883909447054235
  0.0179919698592089  0.6477968095005527  0.2844686432569653
  0.0893881955080963  0.6071472853691151  0.3063949513106444
  0.1227460351132211  0.6224973131654500  0.2965453137152034
  0.1986727916612548  0.6332383465789521  0.2668060179869565
  0.2037698402177942  0.6541708334540441  0.2971765953245438
  0.2632397739860456  0.6274482005019220  0.2546179316269966
  0.2699628271640753  0.6508139364811230  0.2821792782446996
  0.2283357993912502  0.6224887827226414  0.2466466545286910
  0.3331983862656188  0.6371979171072758  0.2707853996051084
  0.3691064569433533  0.6417655827391739  0.2801811437254556
  0.4304695037922097  0.6197433465014888  0.2801659204036557
  0.3955229259319670  0.6179750373080992  0.2662535717208480
  0.4390814207435138  0.6465753155539221  0.3055972651473640
  0.4960324752414884  0.6180172584295076  0.3138720878628105
  0.0531351931814651  0.3820894630523133  0.3557020849438003
  0.1019471843409952  0.3514316163409251  0.3341818434313308
  0.0887803799341814  0.3346596579614102  0.3654863483752511
  0.0787850497187672  0.3810501349444456  0.3281857996236086
  0.2523992371799770  0.3596902534162090  0.3564830214783432
  0.2360754511952195  0.3947365965111591  0.3607474144187137
  0.3400583864111487  0.3575594135431047  0.3833360601881725
  0.2891949767045506  0.3550881153368885  0.3481835711644968
  0.3091968495986008  0.3868724713059959  0.3401015798416865
  0.3411491517206840  0.3870322039004890  0.3593529687412032
  0.4029450709800423  0.3434465063351555  0.3444823695850822
  0.4159791422835499  0.3741468432651227  0.3621300073689117
  0.0304985154624302  0.4102967665397392  0.3627872308965149
  0.0299205933290620  0.4380060860459454  0.3388641132428085
  0.2547328314508054  0.4248222027412500  0.3509656206366828
  0.2905964106075505  0.4226430784836323  0.3319181951010611
  0.3108482477389435  0.4536805619364842  0.3491846059291556
  0.3649847312418890  0.4157668296460460  0.3579169100009347
  0.3483292125225921  0.4502964071267626  0.3565780181861802
  0.4021213988463379  0.4095135435390279  0.3653164115866794
  0.0118231518487131  0.4695921447140852  0.3484531392283255
  0.2507625813592538  0.4591927041184650  0.3643387404474878
  0.2849183621211091  0.4777688516645805  0.3643874709762778
  0.3698310358116151  0.4767972219917860  0.3712404804828737
  0.4068244111487539  0.4702272394239878  0.3814531909909426
  0.0133340462987849  0.5305098682164524  0.3339190616037299
  0.0267657010472849  0.5706818167633054  0.3790279157654283
  0.0449282466116257  0.5823445345905085  0.3473620841524077
  0.0737861385307301  0.6063445588247671  0.3417414058578059
  0.0885026434810366  0.6288783499454283  0.3680192600379297
  0.1408270908986749  0.6441044375108300  0.3237769533908803
  0.1203268394589000  0.6497770053321688  0.3562568286198305
  0.1761183673522857  0.6625065893690012  0.3223794286011101
  0.4730300315949341  0.6463730824049944  0.3219204394867088
  0.0394089895362162  0.3538654980732295  0.4101701923007796
  0.0584691835674328  0.3537281604241870  0.3788208838886275
  0.2063426339052187  0.3542531015784789  0.3954217400970841
  0.1874412717905891  0.3411618574134109  0.4245158107661542
  0.2069275225397437  0.3905253618422992  0.3858644326776148
  0.3573722302602664  0.3537416521101405  0.4156336874791896
  0.3771641957038155  0.3794233890802356  0.4369161483896772
  0.4418229915325269  0.3664811186598899  0.3872083591853926
  0.4603335666784456  0.3386277059679111  0.4378702704147112
  0.4740328805975130  0.3737999190208037  0.4376979275728419
  0.4591155663149720  0.3916582069860067  0.4081310064845255
  0.0119810302678111  0.4124847538136837  0.3952233970405065
  0.0162514324622385  0.3831539414786728  0.4171053256001032
  0.1681863462867443  0.4025416967565685  0.4382396923402255
  0.1881406950326791  0.4148110422517500  0.4078107947085578
  0.2704817601134266  0.4308534734395943  0.4326410554017126
  0.3020816323998540  0.4232422069636872  0.4196636836612577
  0.3346475349294346  0.4352371612469207  0.4322280065362311
  0.3686588959641705  0.4162074701284063  0.4376190816302564
  0.4235150984311448  0.4366216023875534  0.3817955819145978
  0.4546835105839513  0.4280502551429765  0.4042415285847417
  0.4792835859096418  0.4479279433411163  0.4262977979643865
  0.1786304264400600  0.4736071052951633  0.4293283492848558
  0.2219222123604331  0.4704074572190495  0.3849585271127147
  0.1939365800446872  0.4512008232439895  0.4035847449303184
  0.2262711652665690  0.5035390195356823  0.4017320149954299
  0.1982721745610070  0.5057513049264906  0.4266281533218773
  0.2898365711351137  0.5095211822747469  0.3858719370200581
  0.4203726591824141  0.5019878410830985  0.3967027806391609
  0.4817049218761886  0.4859647474426144  0.4261763691181763
  0.2588290052897006  0.5513780810463595  0.4312931117388697
  0.2582188852737871  0.5233584136628194  0.4046281135137890
  0.3240222001906392  0.5261113092115167  0.3925486262772962
  0.3242125097068583  0.5581614493157454  0.4138719635954574
  0.3906583250372264  0.5258567818452152  0.3965698912417263
  0.3584877011409282  0.5107655992826685  0.3843319383672399
  0.3911000132530506  0.5587431186556570  0.4124306475757370
  0.4533591834770755  0.5105418413202760  0.4138722948252615
  0.4554907350809395  0.5474934644598116  0.4231187284994024
  0.0248716792134537  0.5841702380630894  0.4137092184683938
  0.2923988285861158  0.5709844666807110  0.4326490976613580
  0.3579964228051877  0.5751354562418910  0.4210804674767616
  0.4246907465129925  0.5709354623098666  0.4238877381111567
  0.4881614729296689  0.5611476799198045  0.4358748890775995
  0.0440196358280322  0.6153009563644753  0.4246741174138418
  0.0718336354832656  0.6336471114366142  0.4033958856454938
  0.0428228644721594  0.3329540009036288  0.4418870121049355
  0.0206659526927673  0.3509422790588802  0.4690764955009755
  0.1639921694621113  0.3658797478726654  0.4415301848614951
  0.1438592025442633  0.3530592091817087  0.4695587422473066
  0.3835937872173426  0.3610354069946231  0.4707136398806002
  0.3993269998182951  0.3726450943588125  0.5023286687911759
  0.0045557307234945  0.3821134031379066  0.4524066295501981
  0.1638865504243189  0.4243871831942390  0.4719523625028957
  0.2042853045843641  0.4197282888236198  0.4906692524920132
  0.2296210449236769  0.4474707531576850  0.4843581879418142
  0.2580007122563945  0.4527342283794745  0.4588208258122245
  0.4238868622985273  0.4017442386845835  0.5020403928680074
  0.4206707009534186  0.4325082094471504  0.4806120557019232
  0.3919952774693579  0.4391138013436113  0.4565723266082786
  0.4960403401665328  0.3914300483334602  0.4612546255679790
  0.1606877188474386  0.4621971020251179  0.4603785995812539
  0.1561603079687382  0.4886572478227114  0.4857616298208062
  0.2595831678991007  0.5004763080946828  0.4988781816751365
  0.3141560792942795  0.4935169714323337  0.4657672076756978
  0.2777900243053721  0.4845891643093113  0.4703718610696231
  0.3386833453298661  0.4697546322292567  0.4488929040399458
  0.3749082631811029  0.4723871209871517  0.4573316537103972
  0.3893196760985280  0.5022909563959359  0.4733930849588070
  0.4247975246056124  0.4980403502178207  0.4854436730573452
  0.4395530146372188  0.4638400231817008  0.4920065782522535
  0.1732763431357864  0.5219260985318162  0.4791657579859480
  0.1988683619782424  0.5305398871952611  0.4530322696535137
  0.2279432052752883  0.5546988343365746  0.4562463885314563
  0.3284758198069715  0.5229703651012237  0.4869768907736124
  0.3813987164929388  0.5563455858915138  0.5079359998495887
  0.3661261204349343  0.5290236467694952  0.4866947969235089
  0.4406739012237456  0.5286016104024225  0.4996788992535847
  0.2240892291379782  0.5754746498364446  0.4882824449710364
  0.2772467969476427  0.6151126151681620  0.4828572028602509
  0.2461448781922894  0.6029719725707928  0.4988966060017639
  0.2984049123854891  0.6006572950896752  0.4553160435066850
  0.3612883759260485  0.6057135007463664  0.4426083140255350
  0.4258199159630192  0.6055308825677995  0.4387735552894006
  0.4892840518724522  0.5972923955815643  0.4461571684438986
  0.0340801561786332  0.6294426921669234  0.4595874558690655
  0.3316092560600919  0.6175005528265879  0.4611474078052872
  0.3326766166614976  0.6395742438066335  0.4926611360423928
  0.3940612489875756  0.6216259646554684  0.4514496033022411
  0.3659258595506388  0.6542810128852492  0.5033520814414046
  0.3948963541206664  0.6481717669038191  0.4787108496227342
  0.4288542171120919  0.6616520552399561  0.4870908232268945
  0.4605934896119245  0.6496462051297066  0.4701695830029718
  0.4590826663917908  0.6195737070281040  0.4479483134837567
  0.4906633895104460  0.6561010689502464  0.4932830875706091
  0.0193610799749359  0.3435646036492421  0.5061233964180970
  0.9981358181892113  0.3641308924394346  0.5302202030315968
  0.1199856030389710  0.3515648601920312  0.5245398795236978
  0.1278737594327050  0.3747579265236888  0.4959162161228386
  0.1282547265469186  0.3601136855235643  0.5596114451314563
  0.1949837511359262  0.3630754906218545  0.5309267639009914
  0.3871737951876805  0.3570277394212671  0.5353836729032245
  0.4056045007926631  0.3669376255029388  0.5665572758285354
  0.4387474464556549  0.3839074841638196  0.5607945502948734
  0.4995463940476190  0.3421943377135576  0.5086720746194543
  0.1330449552349431  0.4222071447995028  0.5380237493318264
  0.1368655505142163  0.4098693467124611  0.5010131300025349
  0.2233030592288082  0.4094260801322805  0.5531836392992360
  0.2091061654627451  0.3964532862253282  0.5202026531241472
  0.4478404049903466  0.4029721523177764  0.5307842953376201
  0.4741017747981868  0.4294235944482278  0.5352268157171600
  0.4975390528750339  0.4274759601618783  0.5654139367904883
  0.1401080951947311  0.4581525524419802  0.5479483031594563
  0.1471907503659450  0.4863599243975765  0.5233602376991132
  0.2244271036102786  0.4437962649595837  0.5647240752029010
  0.2249886323669373  0.4752963605653587  0.5447169603316967
  0.2321752273652152  0.4766743192685851  0.5086392563704568
  0.4691460571501390  0.4608760843632340  0.5157623029622842
  0.4877646502412298  0.4915362746069504  0.5266271413586489
  0.1570528075374361  0.5197021717430182  0.5367711018085635
  0.1735530602498492  0.5404335395746844  0.5105026572047165
  0.2615775650753878  0.5285314925884966  0.5581289532723195
  0.2738411593509559  0.5266701528875880  0.5222626825695182
  0.2383438301395739  0.5020174508914615  0.5689018184264997
  0.3080727122270626  0.5403879403414211  0.5143367905789806
  0.4747016511584077  0.5248160838643156  0.5154571714168409
  0.1989493619818382  0.5663423046711127  0.5159692791924779
  0.2016209017296920  0.5772926680544279  0.5517995306414540
  0.2264419429887418  0.6031278970977885  0.5610978640511514
  0.2466036131548635  0.6173370890210529  0.5337080899672851
  0.3244866077499963  0.5631306845929926  0.5403547857032956
  0.3779701496137211  0.5954617513862177  0.5604835069598851
  0.3605270127558518  0.5734401369856100  0.5347716529694566
  0.4194396928356501  0.5583474245286552  0.5088324640401506
  0.4126506143747887  0.6043021701426479  0.5516754546066490
  0.4350611220985276  0.5872558873408734  0.5284470583442168
  0.4891888202819789  0.5554943746311248  0.5295576533287425
  0.4733363112030596  0.5899079494648587  0.5286556271273090
  0.0106933141023523  0.6600935517690788  0.5246597820629704
  0.2770105462921886  0.6385267062324247  0.5399969992183424
  0.2971009756893774  0.6366845853923347  0.5070045445425139
  0.3487875298297064  0.6698939213569790  0.5642099270516703
  0.4951247411620281  0.6121736068394790  0.5524996524034554
  0.4853548332015473  0.6484119852065980  0.5593362938580483
  0.0380265729965878  0.3423676191145200  0.6223012247445852
  0.0282219817980560  0.3404700382279497  0.5847885007797426
  0.0018452442366900  0.3595495507754244  0.5678495702344387
  0.1780712676466670  0.3419861288730041  0.5944497560612770
  0.2029398122806486  0.3553850097886986  0.5679008446081248
  0.3740998975631907  0.3444699555430274  0.6233582320464724
  0.4021028835316837  0.3617707948119838  0.6041440892759755
  0.4365650859555144  0.3712218000836392  0.6180538437669569
  0.4600000259951026  0.3832059776533289  0.5912556302143145
  0.1298120795731942  0.3963087765559882  0.5679216564391807
  0.1344008089954167  0.4048125056901024  0.6048155106379048
  0.1404716060932130  0.4404423150022658  0.6133185639376192
  0.2234361137613149  0.3833615655846823  0.5797004559092830
  0.2255627328790042  0.3914283507594542  0.6152256420587766
  0.2344035784441690  0.4264880619574710  0.6252851071105657
  0.4949348192749974  0.3980965994630730  0.5898167255475686
  0.1454277085640532  0.4661643745498380  0.5854495029769520
  0.2320147239134888  0.4523987331379705  0.6005280296552642
  0.2396531287653102  0.4885391440281053  0.6040101929399363
  0.1644992229063253  0.5269939829421731  0.5716507661169757
  0.1582593348292627  0.4998372185921332  0.5961533159913963
  0.2736467950963282  0.5378633812188572  0.6227386521236540
  0.2799747881583151  0.5464622827250019  0.5858650426905608
  0.1856695431306954  0.5569173148294058  0.5788352492128813
  0.1952987756843544  0.5633692784326871  0.6140296666300886
  0.2164532477498982  0.5930098697786403  0.6231158354259396
  0.2350433002522435  0.6113318396450321  0.5961996643154348
  0.3096958715014203  0.5672282694647304  0.5754873267432448
  0.3290180052264311  0.5857654845606155  0.6025272930056808
  0.3605504349614381  0.6041215597168225  0.5934818522265510
  0.2606163536285102  0.6390261876881395  0.6039931120813947
  0.2851968785875916  0.6496438225691924  0.5753653228820946
  0.3193436443360568  0.6629493061520222  0.5783254706452273
  0.3760890939189098  0.6269115197029539  0.6196307705681829
  0.4251395762370101  0.6617374278301386  0.5829451751214542
  0.4060428280135115  0.6490129354886450  0.6134637591847385
  0.4626966382784017  0.6545294575310107  0.5893719289678165
  0.4672982967512911  0.6454964336995129  0.6266686619521150
  0.0434037391248855  0.3663769289544024  0.6842222226320651
  0.0279618232981418  0.3686566004156105  0.6506979639315241
  0.1738445906017848  0.3583709579933869  0.6280116345180567
  0.1402475451454782  0.3783930068848976  0.6344718107765794
  0.1306280208738863  0.3880239526226040  0.6713988939492583
  0.2044093323343446  0.3764724512350215  0.6422550990619859
  0.3653321776757657  0.3459298226158018  0.6620145838817514
  0.3702275183478614  0.3750243196560488  0.6855095830388054
  0.4434794099115477  0.3633170159049414  0.6536680167907207
  0.4332155967922913  0.3830411820904340  0.6841858933471433
  0.1318964862282929  0.4251751284401153  0.6783045795940716
  0.2101866462629917  0.3996504971046206  0.6727744754269616
  0.2297019719338154  0.4308554916401403  0.6618004795861718
  0.3992986601012067  0.4020506105082007  0.6828120077660375
  0.1582673276035741  0.4829957063663473  0.6581364684891698
  0.1431066829434782  0.4494295647826270  0.6502124154865050
  0.2519969147743457  0.4953119393954265  0.6691769222778691
  0.2387370676464138  0.4617006113996610  0.6815073015169121
  0.1677622099385106  0.5069452049372020  0.6315251957383262
  0.1833612642148267  0.5399809187496627  0.6407309252442918
  0.1866360106964534  0.5506342865367200  0.6766385466758461
  0.2542808642101895  0.5070116551448635  0.6328764119516344
  0.2848170899413551  0.5499912052076207  0.6857217158545904
  0.2171142461941110  0.6046490239580304  0.6585037069478150
  0.1995710935764119  0.5846368218451388  0.6852685219368430
  0.2914315285435791  0.5576996086581884  0.6491254305624208
  0.3172643888893655  0.5831743845895979  0.6388814784592223
  0.3346528511984341  0.6029855260025091  0.6655733460460174
  0.2325762171375157  0.6389235060511016  0.6648809512128878
  0.2555720415727512  0.6512948134304261  0.6379429613327224
  0.3647498052278149  0.6238794148823908  0.6560189666980170
  0.3874400438787955  0.6350138531705529  0.6840882494507113
  0.4322275373143390  0.6478142828564051  0.6406866623431005
  0.4234097034474811  0.6429214717338946  0.6759617355425432
  0.4859638244261675  0.6306197656383595  0.6889530745813807
  0.4939441863151585  0.6306013768248260  0.6501415667563114
  0.0688816814338788  0.3410981117176237  0.6892930833002843
  0.0909057781110492  0.3483035115952244  0.7205633973788985
  0.1239718686907261  0.3658225176008881  0.7034493628600778
  0.1470772810597073  0.3652150605752236  0.7326324575011560
  0.1815729851685265  0.3790627380079047  0.7318842862188419
  0.3382681492932589  0.3458026655006811  0.7355656060604907
  0.3528994734302294  0.3764366272807523  0.7196179959721488
  0.4404011800359869  0.3598395077620000  0.7133119820140039
  0.4333247971305736  0.3571517932317169  0.7505582488253384
  0.0295498649917083  0.3810609024426098  0.7215228376296683
  0.1100014315036023  0.4322401781182150  0.7475647952429365
  0.1270043423214328  0.4401313699821203  0.7127768974893109
  0.2203496034858753  0.4247143762082604  0.7298712092606721
  0.2041992373605387  0.3978253133869357  0.7085890292330583
  0.3550681180874617  0.4072487293438165  0.7410640049107453
  0.3832858503224976  0.4323835889010641  0.7334689902958699
  0.3945774894663314  0.4333827663927877  0.6991986775339231
  0.1623943724938919  0.4939607188194899  0.6936535010858039
  0.1469927871919864  0.4717471092597907  0.7181461061165840
  0.2342013402182522  0.4567927918580785  0.7184635991583191
  0.2416413436660616  0.4827823179692894  0.7443403181465579
  0.1698651722866408  0.5421551831423045  0.7399678833437427
  0.1743731848962215  0.5285328558238985  0.7042959544414847
  0.2647450296768444  0.5196635136040462  0.6959112111281445
  0.2588492522402238  0.5137442455096213  0.7330265891700616
  0.1906934137496797  0.6000150090922415  0.7187228063538734
  0.1734670481243381  0.5801636348572993  0.7464912185013253
  0.2928804949650618  0.5664923493738890  0.7487950012845070
  0.3003689639152312  0.5718731865352176  0.7121320116094536
  0.3253763063819652  0.5982219487242812  0.7021918793816739
  0.2191661711800165  0.6561295385933612  0.6968128902007432
  0.1749821297978288  0.6565401740892933  0.7453333556988246
  0.1964183625480929  0.6371978340700337  0.7209148878477341
  0.3779074355579400  0.6312291711946587  0.7200149815170471
  0.3447499542978905  0.6159703792135776  0.7292266943581954
  0.4035637482940118  0.6371989820433219  0.7470156851234157
  0.4408614434125321  0.6356646775058551  0.7374419566551744
  0.4507752275817500  0.6383248119548102  0.7013600977472710
  0.5017060669825729  0.6145319125441520  0.7530770871960973
  0.0655721097917634  0.3756079008202388  0.7490315550112943
  0.0631064730637790  0.3557796121211543  0.7884574305269835
  0.1083312976105496  0.3412974934689884  0.7905739624772697
  0.1376905705228093  0.3596519567107936  0.7704881262058862
  0.1636511242963478  0.3766757854807108  0.7908598720947173
  0.3233840637609032  0.3466052562919576  0.7703289371620003
  0.3225719356564142  0.3788633347525506  0.7902395210689146
  0.4008390882962875  0.3301894553876988  0.8119721524314972
  0.4297861293955613  0.3800889864060522  0.7805363771414252
  0.0851823141264374  0.4090809316448669  0.7643657301521447
  0.0805683854007782  0.4133733682549038  0.8035974970530728
  0.1894694077355408  0.3897590284495572  0.7668006057423032
  0.2119132764207257  0.4192084598228155  0.7655923165144153
  0.2164542444036544  0.4450735914486274  0.7911462268850217
  0.3381811169650022  0.4091172916126286  0.7748931805198164
  0.3462130640558023  0.4374334674773985  0.7985809395238691
  0.4287532028306976  0.4186442430997336  0.7829404086122190
  0.1258132386711606  0.4578934862887781  0.7710977374365183
  0.1220955663268154  0.4619706479587065  0.8074368108614741
  0.1471697480014877  0.4827671929031109  0.7533374947684619
  0.2337737834461208  0.4767243743555376  0.7806544115446021
  0.2428917708712633  0.5016262978048955  0.8067216433168480
  0.3804209470470019  0.4532504178285929  0.7937668137519458
  0.4019934181023739  0.4408676174704411  0.7656203518050405
  0.1519658539656939  0.5208830787874562  0.8021727133753384
  0.1579866857473702  0.5163740874348270  0.7655014217564732
  0.2637102232368300  0.5313248760404307  0.7959926833356706
  0.2713591405850047  0.5375588499936773  0.7593228093803672
  0.1586851920975344  0.6004518516083831  0.7763505280620587
  0.3006708932567397  0.5827896234209489  0.8114256921504097
  0.3083161762905198  0.5885829287487957  0.7749967918524004
  0.3350443476675801  0.6136543157061374  0.7656990016595820
  0.1306346852605431  0.6588867653239643  0.7924392234981097
  0.1550596267842505  0.6382324670554335  0.7715371097969972
  0.3913130403724878  0.6416908871320031  0.7828106619231665
  0.3542027561302737  0.6337585056173235  0.7920322268636100
  0.4193891845192895  0.6510891662648809  0.8060254910128198
  0.4673087030251661  0.6288530911900441  0.7640358146678339
  0.4548350018570709  0.6376897967461364  0.7984310487630459
  0.0318767457476128  0.3447453611204749  0.8594758219259182
  0.0490526384263522  0.3785179238472339  0.8532832210527225
  0.0615742249997839  0.3840314204217039  0.8171570780449202
  0.1193825096608172  0.3355707046997382  0.8299502383171627
  0.1371635907997219  0.3631559523794197  0.8493777990750848
  0.1603393798734321  0.3844149401410653  0.8271898565738465
  0.2794787579997915  0.3490508498864295  0.8742221039119367
  0.2922915964238558  0.3496835038338906  0.8389614723319559
  0.3086063721359045  0.3804146453700838  0.8254752017702067
  0.4180011368425193  0.3632149676054436  0.8126516399016178
  0.4198641543002012  0.3816387331429790  0.8459650721567213
  0.0973115645743330  0.4406492827679999  0.8258256614518916
  0.1777887199388505  0.4145937312047723  0.8396819157049029
  0.1724625241093214  0.4233360564402226  0.8751375886427735
  0.2018024160395596  0.4410171707157951  0.8249862880303771
  0.3147796376381374  0.4098771244196991  0.8483840540159564
  0.3401290102655897  0.4346029381576757  0.8357964602598609
  0.4303155828739799  0.4323147348599132  0.8198567890874655
  0.4423824630777059  0.4115883091509610  0.8472345143559751
  0.0954491891218250  0.4499190310772869  0.8629819980464736
  0.1380280401725282  0.4922044298101531  0.8225965179900318
  0.1321822354777864  0.5036109913388823  0.8583700946945947
  0.2100389008796625  0.4661618942307405  0.8513144308442899
  0.2327275155136357  0.4953030306736018  0.8430825991075868
  0.3732397655769649  0.4450662850352741  0.8537809084076049
  0.3986567702835928  0.4530331646263530  0.8269406074711250
  0.1484941977404673  0.5521830537401464  0.8230222092346791
  0.1382999507508025  0.5415371041841871  0.8587019260120928
  0.2780122173226151  0.5540598202403277  0.8221008604113893
  0.2699540401691091  0.5470032924312586  0.8585228737793101
  0.2462695812706518  0.5189503637281689  0.8692242224440115
  0.1456451835936946  0.5871214085315613  0.8101362251221149
  0.1130841990608836  0.5981030900145266  0.8668229971521185
  0.1245038942437842  0.6096151576983215  0.8328257131429947
  0.3152628077263927  0.6067513562772590  0.8365939609344510
  0.3071297059087484  0.5982230203067926  0.8726331600934154
  0.0699226925876597  0.6494346579267906  0.8708512126427596
  0.0862375931239112  0.6632420811993056  0.8403789557048063
  0.1132422943961726  0.6436826520841263  0.8218024806542742
  0.3361358243273223  0.6380821050567145  0.8264489431990015
  0.3332325936624245  0.6681441986840326  0.8522913176313051
  0.4741664162770169  0.6382228694813714  0.8308303106071756
  0.0156083647258342  0.3376261476267733  0.8934838430803742
  0.0148724439747555  0.3635159311139468  0.9215423038929066
  0.1152168887020449  0.3516764948254730  0.9146226112021344
  0.1348368632990307  0.3707882433047495  0.8871973531318066
  0.2893923843250435  0.3769715429681207  0.8970744616022864
  0.2960679198622471  0.3651215146544059  0.9329847991182351
  0.3756076339431220  0.3410689554209518  0.8710183432524302
  0.3540097350821395  0.3311038395365255  0.8995430828848943
  0.3944210653738416  0.3729076396655452  0.8722688523560774
  0.0363298124185744  0.3942576993814940  0.9188495195280262
  0.0536815548589866  0.4019957994502300  0.8854219825801423
  0.0754902705391811  0.4327024854571113  0.8891439668423899
  0.0820103672958753  0.4521045537122291  0.9221358412036017
  0.1535341949574063  0.4019803691510363  0.8991699750341190
  0.1558612857118936  0.4123818289173759  0.9352849701716320
  0.3168270844321249  0.4320053676865438  0.9116629907568500
  0.3036333115442720  0.4083625318297436  0.8843325015082539
  0.3816252523441114  0.3963837970014786  0.8987150454721977
  0.3768408148198400  0.4337732096370583  0.8898428670288737
  0.3505649981361839  0.4465864917070347  0.9142384482254150
  0.1056487919422191  0.4812500870732324  0.9187379083332118
  0.1136120101887028  0.4806045296715792  0.8806121521963197
  0.1927426799889350  0.4536102187185760  0.8830768543678843
  0.1957737444977363  0.4629507197778402  0.9183033507291664
  0.2164432324761824  0.4924007134889172  0.9273613172945707
  0.2378867660702979  0.5162676854315741  0.9057332379572159
  0.2547333980887418  0.5392083622462297  0.9299075205468312
  0.0520774230274426  0.6272533259429843  0.9386180985932951
  0.0767602791399813  0.6090363658638034  0.9172128150215814
  0.0985431174770579  0.5859845581072868  0.9367306875729903
  0.1224376501231608  0.5617933573738855  0.9220303988326601
  0.1262167625866380  0.5660990598966184  0.8837893826734310
  0.2783257697986481  0.5660835326164545  0.9206849089202066
  0.2856756049658911  0.5695952177246490  0.8837623649207641
  0.0309543017211893  0.6555757606501370  0.9256090347851768
  0.0431612208325648  0.6680208281639572  0.8914606145911659
  0.0856051680029182  0.6180682463618239  0.8833604745249255
  0.3162688284131981  0.6225463310225273  0.8982858378919494
  0.3070136138455975  0.6215496785075053  0.9353363081414406
  0.3253705713896321  0.6566714287350172  0.8866696537068274
  0.4903140653641774  0.6367001763955960  0.9017180119745756
  0.4975511299143973  0.6308880764724789  0.9379914224031519
  0.0883235725333037  0.3510846914137079  0.9759772220235076
  0.1120998505462273  0.3663759165530451  0.9501788826062901
  0.2663067211008570  0.3482581603110561  0.9485848722966841
  0.2477177933610695  0.3471060391996510  0.9829485812640540
  0.3390967086811222  0.3511042715234051  0.9322254455177321
  0.3575703218947784  0.3854385212299380  0.9276526908788678
  0.0183723905841110  0.4118959123643554  0.9801285092601874
  0.0401207084350562  0.4167248130045172  0.9503162555303538
  0.0653301161454328  0.4446692981118218  0.9540760900847841
  0.1355852228409782  0.4066264433213935  0.9968921556429610
  0.1345840688926812  0.3947571118118650  0.9609951706628783
  0.1776140303927466  0.4419141449453538  0.9446531612719489
  0.3402193152368688  0.4180882209922838  0.9377699091593127
  0.0724206729577207  0.4657578266809105  0.9862149019591344
  0.1010234619445942  0.4916128883715399  0.9868644595041498
  0.1150647353745193  0.5018247318441839  0.9506061452051284
  0.1790990998807202  0.4528940837025349  0.9802821654414243
  0.1978120965420616  0.4844793451542623  0.9885139044337824
  0.2188564060258756  0.5022461601193100  0.9633493931206396
  0.1397501472880291  0.5512052108585888  0.9865674868112428
  0.1330866458597656  0.5362008584812727  0.9500981579282552
  0.2615237847963475  0.5475568631984837  0.9932019349940142
  0.2447644446772355  0.5308378291958981  0.9651621793909831
  0.0600922025653099  0.6147942190415022  0.9733945331458578
  0.1149957900198655  0.5787882247100036  0.9982241711269808
  0.0914747535309876  0.5924272544493864  0.9727389127705067
  0.2833266453704071  0.5779788235506595  0.9847394189226538
  0.2908899651223728  0.5893131579166024  0.9481541490088519
  0.3102600485298818  0.6587489509151395  0.9465401350689120
  0.4761127007008442  0.6487552161132044  0.9631979999014247
  0.4839710017202430  0.6434732777774987  0.9991297640109456
  0.3320547635794015  0.6934389360639969  0.0352913092894919
  0.3115063857901126  0.7252257277509452  0.0382094971260156
  0.3717842289469484  0.6967639779050766  0.0313971994721265
  0.4311391220217280  0.6718340214726995  0.0205655563172732
  0.3999634846819200  0.6762380013644437  0.0403514285726375
  0.1342562017633910  0.7808791552613225  0.0168190083972270
  0.1604264780156140  0.7620638686812923  0.0332919738634699
  0.1915172979664619  0.7427518910335101  0.0190091983569188
  0.2125270678318811  0.7538223501085717  0.0494945877086592
  0.1803191652062539  0.7697822918751298  0.0646883714944864
  0.2464070723317173  0.7681156343911922  0.0578387323173939
  0.2799411959593255  0.7702906737882200  0.0009505716363592
  0.2944827938335140  0.7358725355656951  0.0050949725550632
  0.3241646483690810  0.7540355852414597  0.0602096426626573
  0.3670527164239726  0.7571083940711919  0.0057143925336338
  0.3491322758752634  0.7721314243143069  0.0367862492946372
  0.1195501573916850  0.8095328238413305  0.0258081248465779
  0.1129918276922050  0.8367301192773661  0.0482485700811566
  0.2651411331960604  0.7879039633949989  0.0304880089025205
  0.2556155306151086  0.8240638970114449  0.0278589777954606
  0.3507313071793098  0.8291005430442486  0.0084578395834964
  0.3489004922257752  0.8088510618179764  0.0396480122665118
  0.0749368695211596  0.8820956378621296  0.0103337633422053
  0.0921541759578895  0.8681315244695991  0.0405838832643520
  0.2482976949922401  0.8436270308171508  0.0588235013138132
  0.2339457425321947  0.8779329576767926  0.0570412764250734
  0.3373869669899300  0.8643657047450745  0.0104463637747037
  0.3309146157820687  0.8804475826279584  0.0444834019319277
  0.0617369618858760  0.9396040503328277  0.0435070270936977
  0.0679967554574207  0.9212555126496341  0.0104789739583874
  0.2070153655041057  0.9245761343535371  0.0212863120001780
  0.1942299768871222  0.9407173155896384  0.0526668497387079
  0.2263304954061587  0.8925336976914384  0.0236701947354856
  0.2949486284517852  0.9368447769663601  0.0256885755572670
  0.3136480943517196  0.9132085239701110  0.0489265259446627
  0.4886976457712817  0.9339484360822529  0.0354857165410445
  0.0519769160638675  0.9763500318919344  0.0498595944733758
  0.0527575445922882  0.0046312869356361  0.0233676701275914
  0.1757320938675211  0.9730820523463561  0.0504565932680164
  0.1727655461961540  0.9908754806068331  0.0177722982405010
  0.2610753755286112  0.9939155751773412  0.0320916150720454
  0.2781851642036963  0.9643628727346498  0.0469843329595376
  0.4804394554125901  0.9707955997368413  0.0300872134199226
  0.4606685016061970  0.9962562277286615  0.0467519922108756
  0.2792641895230264  0.7701402730135318  0.1129090456665194
  0.3126419436040389  0.7707727497445627  0.0925969550603716
  0.1256693322112481  0.8388416571652131  0.0860485892639635
  0.1520668283861666  0.8181683707836424  0.1063263565128835
  0.1787907543600507  0.7905062235411225  0.0950822284576625
  0.2115389524164023  0.7820134073989079  0.1134993687231948
  0.2469776053933820  0.7833939618681897  0.0936667290188472
  0.2525482947057152  0.8278518129615670  0.0914622539656497
  0.3331110515964237  0.8020078545979564  0.1016791074961091
  0.3429288718563825  0.8242218203698155  0.0731799332398667
  0.1052883443384656  0.8689219649279687  0.0998440424441530
  0.0875696430368040  0.8871580230532735  0.0719516931134299
  0.0981334358585869  0.8839506443941825  0.1324610446921605
  0.2504241147321242  0.8501656902806566  0.1192647393255812
  0.2348718970681448  0.8825247444227483  0.1222838616279034
  0.3389434890688995  0.8611839352010284  0.0762174340266115
  0.3351491952069893  0.8765204663343883  0.1106540040114814
  0.0679588941935526  0.9190130316177740  0.0748237361335069
  0.0558089327175159  0.9288905714826722  0.1095827352791456
  0.0320081548615623  0.9580350788247206  0.1133084815170171
  0.2233536604676208  0.8953246700417788  0.0884634092869550
  0.2022270945078749  0.9257274277711965  0.0860674298802087
  0.1904402883981617  0.9419682966109419  0.1176400921139759
  0.3101620740304926  0.9277818345354173  0.0833258561601251
  0.3214269964099671  0.9109530438324868  0.1137798996985903
  0.4924903685352838  0.9214814414919803  0.1029697711914405
  0.4697352924723657  0.9458805813676580  0.1188422573002605
  0.0410546189755087  0.9843895203643792  0.0866986945305831
  0.1632312081695783  0.9892336253318217  0.0817752562986864
  0.1690433352462737  0.9725952204666551  0.1144319496816361
  0.2877460182820032  0.9580324563443952  0.0830496759544534
  0.2796385411756052  0.9749822431875672  0.1151073346718941
  0.4404377873059901  0.9934849113065696  0.0784114565271247
  0.4431870103645699  0.9717757796395380  0.1076414421791524
  0.3485361260429042  0.6667139926642559  0.1877880383509101
  0.1577877762914756  0.8261612326325273  0.1431247425975133
  0.2138447342348382  0.7891719420757523  0.1497190303589560
  0.1856941723760978  0.8094747077295841  0.1627765536173926
  0.1924535645989393  0.8290421449051467  0.1931342402859529
  0.2472196221588329  0.7935249647164557  0.1673499741606551
  0.2787356965843873  0.7820442713171857  0.1490990179825052
  0.3051304869427300  0.8059501730665342  0.1603730860322174
  0.3298266194875695  0.8181574494324477  0.1352563613754148
  0.1163687316767330  0.8780541033780962  0.1644619361858265
  0.1430803272873510  0.8529899684371837  0.1673646553255115
  0.1650267070038262  0.8535512178932554  0.1972939434094970
  0.2911998076084921  0.8335743222674752  0.1824104684234444
  0.3319830475340265  0.8551874007652422  0.1410182882477731
  0.3088690735297375  0.8649771862291868  0.1707194480312543
  0.0482677810233975  0.9426500819853171  0.1927981644572521
  0.0721672456836809  0.9112069400983019  0.1376664440172551
  0.0727483823729003  0.9210858519233773  0.1741760133466921
  0.1032157134138726  0.9034002208786585  0.1901119413573167
  0.2316585612121186  0.9060144270038951  0.1530649148378534
  0.2043467667655334  0.9318824465487632  0.1511749687171194
  0.2578661528878813  0.9101577962242950  0.1802750357055804
  0.2947028309075022  0.8996211005738376  0.1712363120018954
  0.3076428869390819  0.9242119348226535  0.1458001956941201
  0.4964729683357196  0.9306979449610556  0.1780796829861737
  0.4698388474954455  0.9461817241124892  0.1560548610941049
  0.0138721593195673  0.9557398082697021  0.1789861516417409
  0.1533655941390649  0.9873519161347359  0.1446158723999753
  0.1662744139907691  0.9766845607059543  0.1776703229607752
  0.1966144939879458  0.9545087804696967  0.1809400979852373
  0.2939620530039550  0.9793865019937574  0.1772224430290221
  0.2946196507516050  0.9598732776051705  0.1460755287464446
  0.3741228055301841  0.0148486509256598  0.1694728553888116
  0.4224412347304394  0.9816906522810270  0.1379443126999765
  0.4404919586441085  0.9665512635646661  0.1675959398485739
  0.3960320519013944  0.0088348951364841  0.1388731406922446
  0.1344370940362629  0.6898634529806364  0.2357821810150787
  0.2202987789397840  0.6961850628719300  0.2142508236953649
  0.1982561573671148  0.7154081735461260  0.2385679291317500
  0.2586341859387792  0.7023845383131456  0.2188881609914792
  0.2847422250612777  0.6835377026344492  0.1986978765685345
  0.3223955594946530  0.6882637909231570  0.2045496319038493
  0.3346265404563062  0.7138489293165167  0.2287047643760904
  0.3855217593473051  0.6680849820634663  0.1971953784292256
  0.3714898266942936  0.7186520740262903  0.2362050022197187
  0.4324575776167607  0.6965205370662252  0.2341460358895271
  0.3966584927944207  0.6948580922441223  0.2216396146341618
  0.2720344716635795  0.7275255909185394  0.2441908690634547
  0.3092551873738000  0.7339946065899129  0.2469892481649865
  0.2547205975655041  0.8239343252250707  0.1908230186113370
  0.2248574732445687  0.8415501955058710  0.2068649807018252
  0.2141697943589865  0.8737043441777067  0.2262803442534385
  0.1752058963937718  0.8782932887111241  0.2223831892417454
  0.0921328803130162  0.9355868080437502  0.2433201970752842
  0.1163315406957069  0.9130876002046316  0.2237072422262568
  0.1508096412311982  0.9022692305605127  0.2385408117451580
  0.2342674746395289  0.9024548594587229  0.2398940073877760
  0.2499747979003253  0.9308098617023963  0.2136445830592201
  0.2827651352713160  0.9451900447005271  0.2305765609584425
  0.4982341772505190  0.9435064630906477  0.2130923675940391
  0.0582278071017878  0.9475123652534228  0.2297254869103415
  0.0331124136128411  0.9620928075019601  0.2544960393240445
  0.1526707497976852  0.9948313805183124  0.2072875236734298
  0.1751935691976935  0.9982297772692736  0.2370031950321076
  0.2201287350367105  0.9597780232975168  0.2095151140622333
  0.2118681754237846  0.9872409053512942  0.2351556171780851
  0.3073610447670176  0.9643560313516997  0.2092791024923895
  0.3708504051490102  0.9902390539665537  0.2003330261497866
  0.3404755246955941  0.9769841300999325  0.2215886052443190
  0.4043844295628120  0.9843491472741331  0.2183603447086252
  0.4370207215454569  0.9724921406847972  0.2035455527398144
  0.4684302117814028  0.9646715468088258  0.2241010291511822
  0.0484052992243580  0.6704796512000072  0.2817780715071768
  0.0720331159011834  0.6703813721464105  0.2508043628538625
  0.1032695092037256  0.6892716573317598  0.2584114779559440
  0.0980963724010471  0.7061466516124920  0.2918910129483901
  0.1614347322806717  0.7118198882160975  0.2484381999591365
  0.2408159156761704  0.6659779450523587  0.3015466399730919
  0.3061204362298519  0.6576139374204469  0.2882949198602743
  0.3145458784652657  0.6847071828702306  0.3121148289568386
  0.3779473388205780  0.6689811816422150  0.3048341885238622
  0.3508616941249835  0.6916426612028365  0.3192112446724105
  0.4441217735836810  0.7220007082021983  0.2597436540201730
  0.4133201889936139  0.6717785400631587  0.3171256734343799
  0.5025709175835154  0.6932765721266435  0.2643256385762683
  0.4793183228992601  0.7206670214420755  0.2752136532545230
  0.1549025921084088  0.7332490997362713  0.2789903540305817
  0.2122073782316578  0.7403981724290266  0.2633286538246711
  0.1856253793592242  0.7533105554586754  0.2872481117865172
  0.2481591778594630  0.7478688132043058  0.2660408294422233
  0.2607752575578455  0.7756247103476993  0.2872981248371090
  0.2970989849329374  0.7826135239470634  0.2852680571149043
  0.3218954672334304  0.7613227344113604  0.2689845561565842
  0.3831875975722723  0.7452513078150089  0.2603466610584775
  0.3580168974334572  0.7684780526839852  0.2756524002531316
  0.4190131592466726  0.7475475055204657  0.2719159293241686
  0.4286337903355015  0.7740466136646407  0.2971599039922518
  0.4890475444080931  0.7463691980662883  0.3009523713069892
  0.4636827251843710  0.7735494860527794  0.3108534793641605
  0.3057924734595428  0.8108980096724013  0.3066488296811091
  0.3675649550986271  0.7960378771993347  0.2994847715398481
  0.4033605234481457  0.7999865664939625  0.3099765656815601
  0.1009449649138283  0.9444477666526189  0.2788397027661282
  0.1600452715648516  0.9165594653250078  0.2715946708620196
  0.1344426299104495  0.9349532520139988  0.2917647693457465
  0.1935940625433293  0.9216012165065791  0.2887697391094767
  0.2277618925160483  0.9169245690629075  0.2739833544686073
  0.2563501047347812  0.9351517977967141  0.2898365852614672
  0.2857243173105366  0.9440396878397868  0.2674678575331108
  0.0426236481312889  0.9688975607216935  0.2907095056375484
  0.0173507383803860  0.9810695451364542  0.3160012542427472
  0.0777543751043336  0.9622980935173064  0.3024738502389965
  0.3162111642874282  0.9597810027386299  0.2816116775525905
  0.3744299296111566  0.9941318759131301  0.3118838292914078
  0.3734082876158901  0.9884666310195185  0.2750798814608901
  0.3429657433026914  0.9742982124616274  0.2590812908659443
  0.4378206861821210  0.9943417992579028  0.2717252919977552
  0.4047676071559986  0.9900970026289915  0.2549048381136628
  0.5017084322144153  0.9824524132863320  0.2756664337974749
  0.4694373083458173  0.9807641283224825  0.2571625897584666
  0.0231677864426586  0.6856399751861431  0.3634962375667835
  0.0525744506137245  0.7055478267843622  0.3442747308952801
  0.0650636506384210  0.6941077823761884  0.3090022624870174
  0.1312901601496478  0.6794041775320582  0.3773564188803530
  0.1624077088578793  0.7011532710803486  0.3744200428178064
  0.1865973800177995  0.6905498941365193  0.3474818171020204
  0.2218921630667187  0.7063545446105882  0.3479003511330592
  0.2497081326634645  0.6923806938807004  0.3262032726527373
  0.2863455687104723  0.7031126261691999  0.3294815653178597
  0.3598964097537923  0.7187079957466816  0.3436397077140719
  0.4225431498523879  0.6981988231855303  0.3424364054821155
  0.4827547256112733  0.6722450196156113  0.3482984019130078
  0.4572277753532603  0.6984817368110968  0.3577134315574731
  0.0677948704888319  0.7382373051067767  0.3633858267487793
  0.0985001532930322  0.7607264922106763  0.3564463636134557
  0.1245607060295034  0.7306647640671730  0.3014779005142914
  0.1249755166834551  0.7540100877413530  0.3302951743602863
  0.1550891406906317  0.7762460831955869  0.3358520842929886
  0.1864758954530414  0.7774764012789781  0.3163270545279710
  0.2307653611212334  0.7336891816338174  0.3723704060387710
  0.2674065445574114  0.7459269764972519  0.3736265380995739
  0.2953422971192869  0.7303239145953546  0.3534214776475569
  0.3321609693001810  0.7391300257650285  0.3597599229782880
  0.4050311704278129  0.7480241419259372  0.3806907370794725
  0.3959373318719685  0.7223891602434680  0.3547306356252503
  0.4663954140742483  0.7245103251479935  0.3831770115857235
  0.1478796170814385  0.8014114360816424  0.3619057488924554
  0.2131935604460691  0.8029829404928898  0.3286698191118517
  0.2085926351230215  0.8297175808370406  0.3567796947395072
  0.1722741885209036  0.8298722595670142  0.3709779318410550
  0.2463408942813697  0.8008317580084622  0.3126901300794351
  0.2749377116522947  0.8229006593384995  0.3241984260927416
  0.3404614895976514  0.8181027897967450  0.3149320603339048
  0.3450061740960196  0.8433497129524310  0.3418369060349453
  0.4118128381659498  0.8279245337200803  0.3347265892669519
  0.4488731570399767  0.8291698417739998  0.3446592277516419
  0.4726852986233073  0.8014543840864923  0.3343949354886288
  0.2756107727757635  0.8467917080906784  0.3523027556085560
  0.2397094159226161  0.8531834928205153  0.3692426135973115
  0.3130609897363783  0.8571871240570272  0.3616524481867692
  0.3861125778185351  0.8719431882196828  0.3793266294021860
  0.3822671364125908  0.8497761273710019  0.3497287211032295
  0.4476721618607180  0.8820695751925950  0.3850923148053781
  0.4650970956101250  0.8558706487327030  0.3672374358075117
  0.4992953419463021  0.8541264511994541  0.3822846413955412
  0.1878181434670999  0.9424507433076509  0.3199024603274372
  0.0293979866445505  0.9906957530346522  0.3509835865412612
  0.0663937588490669  0.9865546573438781  0.3628661616339303
  0.0899550393747254  0.9708840819397586  0.3374721001169799
  0.1496782012351947  0.9492124146187108  0.3227247873438108
  0.1270156818353968  0.9687343458278418  0.3456265274232052
  0.2172400303801788  0.9583700678426941  0.3370467560011673
  0.2105750564850558  0.9899409336157213  0.3585062632167435
  0.2532558130591759  0.9500591902453638  0.3245102140323296
  0.2869060663212087  0.9591286910516117  0.3411072995206956
  0.3173472025420565  0.9642374470333855  0.3189492418973090
  0.2917331005716521  0.9702400877949116  0.3781901772942272
  0.3471721488283932  0.9814372344483692  0.3340839266015401
  0.3500960848516531  0.9851560089888760  0.3710344396456470
  0.0836381126718119  0.6644615666087151  0.4198314237337681
  0.1102751206609692  0.6863102340282330  0.4065208136116068
  0.0734636873520045  0.6785048199066686  0.4530147886693686
  0.1153061210055600  0.7148364936404666  0.4297214978637027
  0.0258846555011924  0.7260600415836821  0.4132544796948397
  0.0513295023794854  0.7475089781766908  0.3956487120080962
  0.1425739658230149  0.7394965979504035  0.4261523748311620
  0.1694291636335862  0.7303922622464232  0.3992036398561492
  0.2039683470021291  0.7471840091664588  0.3969277916697322
  0.2156683358486266  0.7750153703842799  0.4195556974454201
  0.3417578775764518  0.7648994378636930  0.3858854538459068
  0.3780253536139183  0.7697806605329035  0.3957704641345952
  0.4402542789787938  0.7497901918636141  0.3940624047788160
  0.5005285295517867  0.7236337166116993  0.4000396532825302
  0.0513086625839508  0.7797961323282121  0.4154700334575434
  0.0261286463894529  0.7779835614731160  0.4429520537169528
  0.1120911199698844  0.7941647496966078  0.3737268742318542
  0.0653513919030275  0.8142353602918859  0.4150969415057988
  0.0970235239618246  0.8206793542436941  0.3957629544924749
  0.2780270235129960  0.7718950935447086  0.3985587990235452
  0.2514390685823018  0.7858063284300422  0.4202153614742205
  0.3141524910462996  0.7824586434821468  0.4048143547582415
  0.3219785417991671  0.8086547357699810  0.4306860920502254
  0.3868100456927935  0.7964709411563387  0.4207125135617394
  0.3591399362633782  0.8191889871284381  0.4333203785818503
  0.4233327787185978  0.8022767969763038  0.4294567286572767
  0.4487399191815821  0.7765111107030376  0.4188807729970818
  0.4835769015283468  0.7779634091541929  0.4326727554188912
  0.4928975403744815  0.8079450339873321  0.4530648812151135
  0.1097091075159691  0.8813848755966011  0.4209207511150275
  0.1187487456892988  0.8512834040920054  0.4010219722383339
  0.1556452816354743  0.8555222698059478  0.3927211307593099
  0.1698480809265154  0.8857204190978761  0.4121404107721278
  0.2362779845012324  0.8807980716487409  0.3964194254659631
  0.3217865568107842  0.8753089474161487  0.3935571521352062
  0.3720697420010564  0.8544204234045792  0.4346171697635751
  0.3580515242235268  0.8738316772861919  0.4038115101539326
  0.4100582221072542  0.8618148588747273  0.4352457617869055
  0.4355742383514620  0.8352353628359320  0.4439495032502112
  0.4166242307200190  0.8778652640666965  0.4006111571866516
  0.4719275119073129  0.8394557993734192  0.4521001121392541
  0.4981592990581684  0.8678417658337365  0.4489609836889765
  0.0791373403530945  0.8926170904557388  0.4388973477914933
  0.1391254141477828  0.9035425575643561  0.4272011199368140
  0.2060654424480458  0.8932918162456344  0.4164950227616400
  0.2650209658345981  0.9034819975771401  0.4117032245283564
  0.2506892223287734  0.9338236806868767  0.4342285126608728
  0.3000833964338502  0.8925713733149959  0.4189257195565890
  0.0788803122750823  0.9956266480238681  0.3979914818641485
  0.1424113885981736  0.9893163311754894  0.3737435072677006
  0.2747319939714665  0.0020057032910362  0.4276741611444276
  0.3426133548603834  0.9575371204721369  0.4306540396045351
  0.3273296995384237  0.9659414234360836  0.3949069533347909
  0.3678051913158669  0.9833927119413882  0.4406782909533828
  0.0499874209629317  0.6606248552504738  0.4744306556957853
  0.0391637358099364  0.6756966479441454  0.5070146775246832
  0.0423034634162214  0.7108198978763801  0.5218610916054226
  0.0899366074441209  0.7119217548488075  0.4575005146645649
  0.0584388763006198  0.7410992997612917  0.5093251193518481
  0.0844077127069236  0.7395664045961984  0.4812072173635779
  0.1064669970162941  0.7686260060374688  0.4742429384913255
  0.1380210851057833  0.7679681930772236  0.4510670938247043
  0.0185850687801331  0.8117344420024221  0.4569053053058184
  0.0949592201464141  0.7995155754176398  0.4919893225043753
  0.1626890888173453  0.7964543649436568  0.4545089504169660
  0.1169699962694697  0.8278015271900487  0.4863890797637718
  0.1517548703001042  0.8265276342095468  0.4731371397143642
  0.1983505267717464  0.7984840270366418  0.4440263750631639
  0.2221882047660867  0.8256092337622679  0.4573616975785549
  0.2571196372824550  0.8132416162152996  0.4450088980565270
  0.2924350451626057  0.8231215155979986  0.4507838631939128
  0.0440605552844156  0.8358270606235380  0.4400389140876285
  0.0483482208366326  0.8725496836383554  0.4479989068489655
  0.1111385954737847  0.8596956382267552  0.5033499244729199
  0.1423219919075488  0.8806607847923411  0.4999343304293714
  0.1709047712810099  0.8572542063135224  0.4822335421862450
  0.2091106627372593  0.8566962002144418  0.4776934998028410
  0.2272943712136163  0.8915926487355283  0.4802997404444869
  0.2962733809972954  0.8438750932718648  0.4817322404517393
  0.3179917943173133  0.8737879738904685  0.4830521885715335
  0.0313464410482187  0.9283167279085570  0.4792367763058013
  0.0250582910749169  0.8923277277051099  0.4703683288349914
  0.0888752882119288  0.9258897822929640  0.4530478878012402
  0.1263666431769071  0.9345202221797643  0.4456405930406629
  0.2220294853930033  0.9128194020720974  0.4477861645703407
  0.3412091040104215  0.9287243586956717  0.4572045542099396
  0.3175316729622508  0.8997584587696166  0.4546958594207037
  0.3661187564228137  0.9273790184205697  0.4870011685933391
  0.0724709309404641  0.9818623960713118  0.4834186718262251
  0.0640494290536869  0.9458653165724423  0.4723334357680016
  0.1629684377547798  0.9679904083009231  0.4936982589566759
  0.1440170818063133  0.9667101854588148  0.4593589232032163
  0.2656946255023768  0.9676599967647719  0.4456570697360417
  0.2756807026963764  0.9651265187932407  0.4827279039938936
  0.3892942472982481  0.9832527888643180  0.4713383843385255
  0.3912288421908383  0.9540977334655676  0.4927960366671983
  0.3748437300870501  0.6682040102281436  0.5386951945423016
  0.4118058420775434  0.6718473532631497  0.5489994304698598
  0.4377520838450365  0.6728517373514383  0.5220112155520280
  0.4745686222050952  0.6649070739794426  0.5270625628100236
  0.0154355401900047  0.7152271445211459  0.5480888903375397
  0.0182794565322615  0.7783225437233482  0.5509184169649368
  0.0467115403952635  0.7737790507284062  0.5256743151046088
  0.0059280675453290  0.8116489603328034  0.5653825680031138
  0.0654806455098553  0.8036499977361526  0.5162740821579556
  0.2156991986948161  0.7885329312415887  0.5638340342207017
  0.1850632344150197  0.8113863101725908  0.5606096551683450
  0.2503198126201882  0.7914827588812600  0.5509297582734317
  0.2571427651762148  0.8110631274002262  0.5215572558309732
  0.2887249249095754  0.8261310370405581  0.5144689035737542
  0.3162901299778690  0.8220699248065099  0.5401382965531261
  0.0284843076608501  0.8421613764385161  0.5594062071952749
  0.0569894523172734  0.8367130626452413  0.5330591100870481
  0.0807552406636878  0.8643606428353200  0.5248153991246481
  0.2194807541400923  0.8659023955414242  0.5596188328810086
  0.2472441915594807  0.8872217194389953  0.5438063115560009
  0.3437024194197098  0.8723411701773544  0.5105064782717376
  0.3451901255718617  0.8449671090284799  0.5369892868553303
  0.0520285829869344  0.9028322074862359  0.5679653893726854
  0.0016256940402508  0.9394825775928906  0.5013289642454106
  0.0772762324291242  0.8973268724319320  0.5406725251800051
  0.1033483816549128  0.9222618052197373  0.5313111362149469
  0.1373487479275075  0.9129087678041354  0.5171287901944840
  0.1614007778050002  0.9426109790935576  0.5221733644654439
  0.2484386209681001  0.9047030547820022  0.5091706019731203
  0.2702927338929248  0.9361071033349980  0.5072640246714268
  0.2956446558835533  0.9419711387641010  0.5346843964396835
  0.3698998344029428  0.8984222899295541  0.5110091605720670
  0.3993497786811085  0.8942973731977983  0.5349371221304295
  0.4255526463947548  0.9205942266127000  0.5365560886184013
  0.9928658126373221  0.9709171335951405  0.5170215300343772
  0.0941360819391221  0.9577195303807425  0.5399741470116928
  0.1779471601527367  0.9998128857383807  0.5056328530276308
  0.3157888289736017  0.9729988979800159  0.5306412597088241
  0.3006305036773336  0.9890479768592042  0.4995107034088637
  0.3459281857729908  0.9799738538126099  0.5530606814962498
  0.4204646343299859  0.9514081052361003  0.5161671532276529
  0.4453761949367238  0.9792957874368811  0.5172745949044429
  0.4715330302689940  0.9773664442693141  0.5436529654058606
  0.1768705635356965  0.7757175795323940  0.6094753575165592
  0.2103507054449292  0.7673537518410708  0.5939380298623744
  0.2740818708491607  0.7628520239565604  0.6051213549898868
  0.2380654760018009  0.7540680030044941  0.6148092888447686
  0.1622811821984328  0.8021910013353385  0.5889088909002891
  0.1454648229719403  0.8310545602107774  0.6045151964987334
  0.2798824733538333  0.7815175856099562  0.5735317141813415
  0.3134092456702543  0.7979931799235963  0.5684472280438978
  0.3416273423687509  0.7952817370770335  0.5932352688612934
  0.3729442285135221  0.8157186694059821  0.5886450862350529
  0.4020987759130908  0.8117533453755467  0.6125694201646001
  0.0266987056083822  0.8764766714622245  0.5778891985957154
  0.1552935002220757  0.8615325212722708  0.5842367752696880
  0.1828139947207809  0.8505612872735672  0.5562564449433642
  0.2231624105157280  0.8536049781285244  0.5936635675469591
  0.2515491140755111  0.8540634511666262  0.6147482498164554
  0.2804868574312988  0.8731656926870940  0.6004789122500629
  0.3128479359517946  0.8741815396826975  0.6195341468595478
  0.3741627492990532  0.8410772934569285  0.5606862090006857
  0.4027748569889445  0.8648101872182721  0.5581955092642510
  0.4325971871353091  0.8334205004177088  0.6076466404175541
  0.4321865770381449  0.8607838358259430  0.5815929016226111
  0.0085138359466805  0.9193433235644001  0.6268856837198096
  0.0381529363896735  0.9407081151483995  0.6189457396360597
  0.0577179706106754  0.9340143193397317  0.5879716032988224
  0.1467934181513226  0.8947365699618367  0.5981477460365104
  0.1550890429080084  0.9317620152116651  0.5907301116063661
  0.2764549944960333  0.8922770688201311  0.5681941737731859
  0.3025820136244219  0.9181196850031683  0.5616161803982379
  0.3334310359896279  0.9226940323607520  0.5826213330668327
  0.3400311630378393  0.8982245995996820  0.6103354579742998
  0.4587112720425104  0.8872693561773767  0.5820612579158745
  0.4545013642818459  0.9173651585422585  0.5602392740013179
  0.4861010059335682  0.8863667123632137  0.6079001107129001
  0.5072106086328525  0.9170530684907175  0.6136116148696448
  0.0801606845640296  0.9604399237565839  0.5744884091994943
  0.0725453173891985  0.9953563640482717  0.6264432083985252
  0.0852877855552932  0.9928134585080044  0.5913671884123602
  0.1671318416697806  0.9509045800399462  0.5600499854426670
  0.1826166536076666  0.9836806848796712  0.5691934887927014
  0.3554433584410768  0.9530112702752206  0.5781760118080687
  0.3854474552985889  0.9566717746121551  0.6019011732816086
  0.4055767612463547  0.9885344291836320  0.6021909940605840
  0.4328285032250064  0.9934874842765713  0.6287155561483717
  0.4763713530048155  0.9470230714452113  0.5649918281274030
  0.5013857701798259  0.9474539578193715  0.5926829073900147
  0.1693388835745633  0.7730671943605937  0.6455984770587091
  0.2291234461342230  0.7433869668210605  0.6493706572104004
  0.1935988606354216  0.7513896878876380  0.6638529410929771
  0.2599158126067821  0.7326021637141003  0.6695428649655203
  0.2955975723481586  0.7438598867275223  0.6623018634656689
  0.3026930710133877  0.7602070085427750  0.6299350594925097
  0.1438907077398716  0.7982344506678583  0.6619436397573741
  0.1344749821059461  0.8291329249557805  0.6405813233158578
  0.2250263529971932  0.8156007595685010  0.6602977217626964
  0.2525337458975472  0.8357766978079475  0.6471004558296850
  0.3372495209567243  0.7745692290529588  0.6239097667681599
  0.3658593906001139  0.7712720662808699  0.6490181518534449
  0.3990051821028605  0.7889625972760242  0.6428471259647739
  0.4280554926615856  0.7849741614228608  0.6672963001436306
  0.4599916738948088  0.8053250586650363  0.6599517509073177
  0.1221971278634707  0.8630899231729940  0.6535239212265515
  0.2859906858775096  0.8369874950958480  0.6652054769258251
  0.3161825016824178  0.8534635182765955  0.6506643613303503
  0.3487975472093071  0.8521339930496113  0.6701185450150128
  0.3768788181881381  0.8745451620949409  0.6592786098002450
  0.4612844266194123  0.8308925884302796  0.6320644643579054
  0.4077848868385766  0.8759826034474014  0.6809708655746182
  0.4887527916902737  0.8572877260856961  0.6314053488456608
  0.5158117007650753  0.8579685231252405  0.6576838442866856
  0.1133415971313178  0.9346850236761918  0.6804494065191496
  0.1286794839028581  0.9281143051032148  0.6471329216501709
  0.1296459814480780  0.8936453470528360  0.6326994583908909
  0.3716700688474699  0.8993877621095228  0.6309317750205221
  0.3946118941829139  0.9290446830951520  0.6265172740325770
  0.4241889404065678  0.9324698159388531  0.6503794904495687
  0.4315476311408290  0.9045909405785852  0.6757292281190438
  0.0470042310980090  0.9707806936730425  0.6389939058042741
  0.0296002981821258  0.9764615215344462  0.6714994049708752
  0.9995547487911695  0.9554198589975780  0.6810183506793445
  0.1483427936547406  0.9504439361745620  0.6242590022244886
  0.1605450449812016  0.9845694289343944  0.6329007878153831
  0.3102087054378524  0.9990344011322938  0.6725357488326590
  0.4425546135961535  0.9654676864468738  0.6522861896438301
  0.4691746243411342  0.9705843187743649  0.6790011373233801
  0.1702105014356910  0.6935823110692640  0.7397659603554415
  0.2229578188047299  0.6929227866771448  0.7041398286108279
  0.1925770296428125  0.7115593335145217  0.7164438128092360
  0.2550999416391304  0.7127290630458164  0.6996984768100371
  0.2776963787026669  0.7205689435122001  0.7283857204342671
  0.1323161543624782  0.7462817943057181  0.7449064402288211
  0.1480931723259705  0.7608889766285831  0.7141721566672206
  0.1852706307033574  0.7482474723735049  0.7030820926033714
  0.2098157409092421  0.7773092369054766  0.7154855888343070
  0.3137126007340504  0.7299891898329599  0.7217086999472249
  0.3240214137386227  0.7406687669334868  0.6876238308283621
  0.3756977341617868  0.7372939904150443  0.7429176834877930
  0.3880790974254624  0.7504490659734154  0.7084637793198272
  0.3600290452166602  0.7531178373524343  0.6815774983868510
  0.4242565970659771  0.7636688131098459  0.6993581103629449
  0.4567754829619338  0.7597716861949717  0.7205301313072058
  0.1097919830762597  0.8134210074513120  0.7223085253245224
  0.1327884065841075  0.7917702302063698  0.6985393049873505
  0.2255135887446280  0.8045038861181791  0.6948838422691346
  0.2554992376294253  0.8146312070307119  0.7148806254202871
  0.2878137029235910  0.8240941446464125  0.6998020722435905
  0.3192544527818175  0.8227607726394276  0.7203463650118501
  0.4897202940723027  0.8037998979864701  0.6834646285242819
  0.4888839364859366  0.7791031405075381  0.7116916535090775
  0.0993733493278183  0.8484615023576257  0.7169329888830704
  0.1066658334108441  0.8702068439764892  0.6870269441218871
  0.0859811009169393  0.8711136290500427  0.7454793140994127
  0.3510848655289535  0.8340640152712333  0.7037158226634241
  0.3828590355089961  0.8331563389448132  0.7242787517453858
  0.4117971134230234  0.8533424552193226  0.7114958118999809
  0.4421869382914220  0.8551808599252123  0.7337353785535786
  0.4680263235184078  0.8818673419448504  0.7272668394049602
  0.0876650790883545  0.9062443437989440  0.7337848112895535
  0.1002483221872919  0.9052463233372040  0.6983232822087451
  0.4606878443831928  0.9076930509912959  0.6995064085708697
  0.4795170207063330  0.9399295694324457  0.6989826998025712
  0.0049131652200336  0.9821380875897240  0.7396972341458331
  0.0994656045212022  0.9677073008747274  0.7353050606965276
  0.1128299695066600  0.9662321175200119  0.7000578055009586
  0.1315137115590587  0.9975054881320108  0.6943478885974355
  0.2671776876037787  0.9899637610606593  0.7414410901690089
  0.2782804880949444  0.9540482652518467  0.7449660801424415
  0.3274099653746117  0.9725921498968882  0.6837099505664451
  0.3124860808740285  0.9387475922631590  0.7374684974369233
  0.3351429610964658  0.9633651897949776  0.7190748585884568
  0.0966684877491433  0.7142156397230992  0.8031276489007715
  0.1229294851140804  0.6948358376434535  0.7839024430548152
  0.1418978932818665  0.7118571729575639  0.7565880118271255
  0.0902766453749120  0.7500847559352114  0.7949384106670466
  0.1068365893091965  0.7656270554953832  0.7652129788934833
  0.2246894151026102  0.7778363917063684  0.7493002592277938
  0.2644448307180715  0.7284686676472715  0.7623299308294086
  0.2309490089291122  0.7476170867881614  0.7710955619191645
  0.3386551582788921  0.7323621430525907  0.7495460873890978
  0.2890551938637101  0.7365761345892685  0.7887629436491611
  0.3257975273592991  0.7294295726420045  0.7851744423481571
  0.3956981185893320  0.7286376126170597  0.7738846944094829
  0.3832239210675767  0.7203202165862522  0.8087345188872969
  0.4324357212761782  0.7301889526806602  0.7767082456512128
  0.4596775350518348  0.7446512205623028  0.7550790533817160
  0.4883995087103855  0.7491348498506472  0.7796273818649118
  0.0984492193071119  0.8008158804431008  0.7565360299465776
  0.0789347544486397  0.8222020142191870  0.7823033424055786
  0.2525139965010325  0.8047080069662851  0.7499698548510425
  0.2742818227266653  0.8361375408665540  0.8042588039817019
  0.2806426735364526  0.8163973804804796  0.7722706062740672
  0.3162648907666489  0.8193131715185646  0.7577382722431606
  0.3478935150560250  0.8227471219883985  0.7791091105650787
  0.3813970939740225  0.8206796126828113  0.7608733252419276
  0.4143353039792537  0.8161085879113250  0.7808565518196550
  0.4442146049866925  0.8337030133808681  0.7651855795640820
  0.4196357239540949  0.7980584025266131  0.8149698431055542
  0.4834840163780542  0.8160318052060377  0.8145613917097545
  0.4756286998014424  0.8369319133400248  0.7851089621906296
  0.0761312388843437  0.8596255516775964  0.7793158589091671
  0.2685275414915697  0.8739893979208444  0.8017066491923199
  0.3503045223629622  0.8395263497756754  0.8144156214476952
  0.5007969152844045  0.8640592812507888  0.7817921859219391
  0.4965462009347349  0.8868190597963933  0.7527668706107002
  0.0801094912062557  0.9430929988124479  0.7893232466862248
  0.0868422542105057  0.9380120288294661  0.7531825057184929
  0.2791006349037584  0.8989708775939873  0.7742462728132343
  0.2618116266678339  0.9316767894307109  0.7711851052595057
  0.3164777541852260  0.9073673654341543  0.7595991053839785
  0.3382618299663327  0.9052765459846213  0.7918773915042701
  0.9996056330628710  0.9821849610245907  0.7768157734450013
  0.0864721631758159  0.9764414667333239  0.8061885143729188
  0.2421098791914607  0.9454184971001607  0.7996761733949964
  0.2354100787255048  0.9819943948871933  0.7997595505613031
  0.3307367137176193  0.9716097862977608  0.8038121657642386
  0.0518771935881107  0.7170924669153322  0.8512146617774342
  0.0776743764933234  0.6980726291124489  0.8310973851730385
  0.3315051803960029  0.7069927512195734  0.8480216965597055
  0.4218443527933788  0.6732051558412461  0.8377452468379598
  0.4128005549179182  0.7127911720651027  0.8365128652790355
  0.4532878790526151  0.6592028604623958  0.8554041517348080
  0.0211308439125258  0.7723436755678393  0.8612213526469839
  0.0473148598570239  0.7531193157043632  0.8435281535411306
  0.0663128320831610  0.7699747294193651  0.8161846853838879
  0.1900909772463742  0.7670514228863943  0.8575286914968401
  0.2110485656496212  0.7689388720133559  0.8313890263910176
  0.2733204990637479  0.7586788712714870  0.8140776160066473
  0.2361913240094966  0.7602042646376418  0.8072981633651238
  0.3468530807668224  0.7212714954177568  0.8151551383576858
  0.3956259878776899  0.7670196200133578  0.8737702322635674
  0.4430567556075041  0.7269250299762885  0.8121763224827900
  0.4096577505150371  0.7306417066111087  0.8739876435575118
  0.4701128048333192  0.7526890083574276  0.8154823457071178
  0.0614340612273392  0.8067382714276599  0.8116569250016228
  0.0389113846606771  0.8278763878679831  0.8357329648313200
  0.2789296248376662  0.8186396509519344  0.8368239616107924
  0.2899267311700600  0.7815253598067976  0.8389882992962555
  0.3922885443834997  0.7919020139811770  0.8421356422456766
  0.3655318670675958  0.8210911480196609  0.8443629665907013
  0.4579256995923523  0.7889460286590669  0.8212018046788395
  0.0488573255229715  0.8646528917474039  0.8404107590656839
  0.0655226562526414  0.8810806193219920  0.8105105624979231
  0.2533389031684706  0.8715914474244036  0.8647644993133621
  0.2694653097992840  0.8372243331377587  0.8674743088901768
  0.3426465885513348  0.8765592073939793  0.8172761405854092
  0.0707865348394412  0.9180653189618079  0.8151273865997729
  0.0705508714809032  0.9363723436720502  0.8487740174890063
  0.2520600072872581  0.8897917030327518  0.8318996714558393
  0.2383896489370674  0.9249330650061424  0.8306096453116351
  0.3272694231521342  0.9276760807485374  0.8498009862224125
  0.3382781372692650  0.8912759245418310  0.8517827049925617
  0.3337779618850330  0.9368154529309055  0.8136471683020120
  0.0795041171089882  0.9733452869729533  0.8430520146723884
  0.2136055199862156  0.9779488949134570  0.8606354574703308
  0.2213269100198891  0.9987001628646837  0.8304387254330045
  0.2235756078660404  0.9415237894337923  0.8611326466555878
  0.3022466246653698  0.9856877985293011  0.8624963462577556
  0.3145348046434905  0.9945327230310204  0.8290506897146643
  0.0323711448581942  0.7018893655431345  0.8798837752071030
  0.3178914901491227  0.6788618533660242  0.9153373733214801
  0.3120316548965967  0.7146619737424563  0.9102549540580145
  0.4420691711446558  0.6827885526778817  0.9168261770957653
  0.4179431310820268  0.7133927667552967  0.9088638286280610
  0.4621604517276953  0.6611238756437936  0.8913255178783164
  0.1806634143838248  0.7530667857432707  0.9219892176935668
  0.1813284628367805  0.7634225729393876  0.8905743575782495
  0.3007676653132383  0.7657365933014758  0.8717870481327646
  0.3144445766798754  0.7290899560374967  0.8750466965346697
  0.3850046763367539  0.7623427306745807  0.9405872703784620
  0.4020017687322712  0.7287490218247488  0.9407398030282033
  0.2745566707008202  0.8203790904188643  0.9006771050910096
  0.2897246904531988  0.7852793110632789  0.9031408639200921
  0.3819359268390975  0.7812796213090707  0.9073869332276956
  0.3657680513224008  0.8154584079613326  0.9094172791829358
  0.0142733082201930  0.8770008750660029  0.8957484983492485
  0.0448300376062253  0.8834321999247340  0.8732442896814697
  0.2442370839949751  0.8722617579458153  0.9285312395117815
  0.2618723830525079  0.8387861548814192  0.9313709574177935
  0.3424924545942510  0.8706670929974698  0.8823219233477266
  0.3331395255780901  0.8837337154672721  0.9160361701642649
  0.3574005646649572  0.8354405001159930  0.8786561474583282
  0.0613567558480110  0.9182483756329950  0.8795205247553001
  0.0645484051503112  0.9337708924695779  0.9140234509342836
  0.2229225185057901  0.9227163493511125  0.8933277622969705
  0.2090065091537554  0.9397964794566100  0.9240067569796585
  0.2395153516996809  0.8886992695406613  0.8953554796124849
  0.3148712893780934  0.9148082504709044  0.9296562098698085
  0.0693504790861119  0.9701839333575841  0.9248674006542777
  0.0747219909577110  0.0015988964730198  0.9042963365683256
  0.1961153178357045  0.9753069201550250  0.9227947950757019
  0.1997174386637364  0.9949332841769931  0.8912593328637656
  0.2863494158132351  0.9727435567700666  0.9340109781997882
  0.3102519456213277  0.9510749139873756  0.8753055513017124
  0.3031484496568452  0.9453226961853929  0.9122647399168501
  0.3078650281966602  0.6790062724022876  0.9779397029666302
  0.2998608480946690  0.7155783133174526  0.9739487601033936
  0.4270412718593190  0.6846935776336673  0.9825019456964292
  0.4028753547242175  0.7119393534797177  0.9753918064676108
  0.4483597682784867  0.6727465462970991  0.9534172766541209
  0.1839292215344820  0.7418176560381112  0.9539359136316579
  0.1917095526844847  0.7323563356194884  0.9850252781931712
  0.3002894761133095  0.7332122692433828  0.9407167282351253
  0.2910738465512482  0.7692996033560940  0.9373262228618642
  0.3808696110729117  0.7231870971873103  0.0043136129738144
  0.2793966410851135  0.7878071466288336  0.9678864994830594
  0.2657450596550467  0.8226476113915351  0.9647486191066840
  0.3723199715922395  0.7770681186234190  0.9743260229008321
  0.3569491173245713  0.8301089425488992  0.9433538315450049
  0.3608379367712891  0.8124211439837914  0.9758292523955486
  0.0639564751643795  0.8618488340649759  0.9810886199200808
  0.2380110189000637  0.8749770523278245  0.9926946578738413
  0.2539935743828691  0.8411660968036555  0.9950802570684926
  0.3417891962546767  0.8634591382007587  0.9457925679497610
  0.3297824013522292  0.8798888273971809  0.9776460160733809
  0.0676054405131927  0.9359130043152436  0.9761315380145145
  0.0636926542165427  0.9138028886094441  0.9461586881765871
  0.2127134401835901  0.9227954885987619  0.9569595833217157
  0.2002992867789901  0.9401018350509425  0.9879998278281893
  0.2314446184741146  0.8901501788052548  0.9592272991539806
  0.2946402486824217  0.9372034615465982  0.9885089041886586
  0.3116711834892917  0.9113590462222082  0.9673338306305225
  0.0617499813909125  0.0020731452840958  0.9848265509100206
  0.0673889266889923  0.9714395029148253  0.9637539307050732
  0.1841691138971258  0.9739625079833988  0.9862196557692837
  0.1838474035416432  0.9927832148522530  0.9538676988408670
  0.2646371667989244  0.9951523428300594  0.9933147518653158
  0.2804964322310038  0.9680123285352940  0.9716069786370769
  0.4928187041874771  0.9803072912453535  0.9961358626058484
  0.5039629219526731  0.9499881671307181  0.9784489144688596
  0.5479189519623012  0.0271444383728187  0.0417010297094205
  0.5667875566398108  0.0253458354898602  0.0094614690964475
  0.7404267727069495  0.0363441191776576  0.0255659338270091
  0.7298198685206928  0.0265456827423099  0.0604419635375310
  0.9250886920429382  0.0543869325955584  0.0608989856768632
  0.9532956311610915  0.0314012753253611  0.0488543509703332
  0.9674684316156518  0.0365933094891850  0.0149672805517389
  0.5337185253337505  0.0601963029792779  0.0542303055562900
  0.5432566944272006  0.0941068831190856  0.0399440527462579
  0.5672523344392524  0.0911153797440862  0.0097995167759201
  0.7319857667835475  0.1006677468930360  0.0395472791884342
  0.7199821735423215  0.0898826949226699  0.0730513893124791
  0.7382175669811354  0.0725004213901589  0.0150593694593710
  0.8782594797137026  0.1022191020633008  0.0621343440642836
  0.9123770869689095  0.0889368326004411  0.0486360077282118
  0.0118847743364036  0.1077738422193857  0.0639463014651653
  0.5288211673932768  0.1267667444880416  0.0567902418612154
  0.5406941736318779  0.1637021612888796  0.0519477654678933
  0.7428522462398072  0.1387604978239925  0.0429912964589546
  0.8680981585842782  0.1378324276994154  0.0597186607239305
  0.8905411848948126  0.1611409559556126  0.0429476154622832
  0.9296638385490699  0.1119791510678335  0.0231820665932564
  0.9191746071037347  0.1486807923221045  0.0219844843290408
  0.5696115401505134  0.1766559383972620  0.0288445292891692
  0.5822118451104730  0.2129856076894241  0.0291046602184014
  0.7493843355345096  0.1673649386740728  0.0197178890074558
  0.7583335984546131  0.2035846728897520  0.0326258715222279
  0.7687493252659839  0.2175364236185559  0.0659405619206196
  0.8810105430594942  0.1965655646855236  0.0448941422581661
  0.8541835386257075  0.2124957400816665  0.0658239973828216
  0.9327505159656994  0.1734346350687988  0.9971283171936599
  0.9212838308347969  0.2092459157756225  0.9980268032109466
  0.9870960886350028  0.1756495877771798  0.0641956544415534
  0.5663009823166549  0.2364981262400018  0.0537904493353132
  0.6088955761763946  0.2280494015323872  0.0045877602499383
  0.6185025920224420  0.2770095071005760  0.0468805099048628
  0.6274957899843483  0.2595684466825857  0.0131015655605784
  0.7641038392258004  0.2784503222959648  0.0389263793810920
  0.8912538304937625  0.2555647162387881  0.0394887053048156
  0.8615338342414540  0.2507474052832080  0.0663487947047485
  0.8992990616630436  0.2216828432883454  0.0257254718281183
  0.9862551238255131  0.2521485947715379  0.0476950641446586
  0.5098234768120579  0.2862320383255885  0.0212064912350296
  0.6860953496132717  0.2796130478321091  0.0048832322598453
  0.6946481847144207  0.2853277736951641  0.0378204772604318
  0.7652547158306873  0.3151996948598023  0.0442993616432781
  0.9110184936272452  0.2852189043695671  0.0276957912053141
  0.9208026643850533  0.3074077390289000  0.0553608941017634
  0.0003292204296409  0.2852455754383045  0.0352351300648656
  0.5106975371565500  0.0260449970394608  0.1047348251271320
  0.5105476720084979  0.0566673204481894  0.0834111984466139
  0.7126125493865302  0.0463329747717721  0.1181841378622829
  0.7159959380932572  0.0539443320393268  0.0822806504436686
  0.8065932740444585  0.0354045432433461  0.1123198392517598
  0.8434899532716363  0.0267371782845957  0.1046202723466726
  0.8673358532159595  0.0484916554228591  0.0892086956901667
  0.8563087915798064  0.9978959461336048  0.1229263088614506
  0.9032892345848820  0.0364436455189460  0.0851848707168261
  0.7304264219553763  0.1086057523044431  0.1340731722121194
  0.8161756255000987  0.0932527603946005  0.0871434677917569
  0.7932436501303430  0.0681493971114596  0.1024442894162464
  0.8527747544653318  0.0811726836440775  0.0786820940657452
  0.9629688833923913  0.0941107756444693  0.1182788470626500
  0.9935417875794464  0.0718166624062586  0.1165195369167468
  0.0141751355134208  0.0763295681094608  0.0849951094269987
  0.7271292808975998  0.1168219734537424  0.0983533496000487
  0.7458366382156818  0.1442332366349135  0.0814917938070321
  0.7780827584338229  0.1566290758851060  0.0998427151400817
  0.8359891262077631  0.1519473886637827  0.0737019612156469
  0.8092613616633059  0.1300592602554559  0.0850293257307537
  0.9356995325835565  0.1530702877204602  0.1117718166259320
  0.9048815630171719  0.1417443449602809  0.1305683196858614
  0.9623615333987674  0.1279825301908953  0.1011266111480542
  0.9887335557191630  0.1380131717880160  0.0756772369036452
  0.5231095254305059  0.1909443572083324  0.0731601755145397
  0.7908197062499798  0.1967806058953802  0.0931839525698132
  0.8291467522249892  0.1887302659512542  0.0781823991932655
  0.7917313439858157  0.2188292104072138  0.1275555339421849
  0.9405403191706602  0.1897249009381626  0.1067405106259757
  0.9188465939339837  0.2128458189643992  0.1261912553503193
  0.9654899717480944  0.2024143589686804  0.0824025578506998
  0.5349724227390115  0.2266492399875250  0.0729505695846847
  0.5162397910318957  0.2531686972957487  0.0933784597202747
  0.5835304317797173  0.2691296231723713  0.0612902094130720
  0.7629689533858161  0.2547527892720693  0.0700793710681164
  0.7551270635511850  0.2667649848425123  0.1061270054577658
  0.8427869539481497  0.2731464025488187  0.0873991772005791
  0.9202066198681987  0.2506118359004417  0.1265134635145628
  0.9447741172445069  0.2650627757128234  0.1011810647978927
  0.9662536521069256  0.2404547281608800  0.0775392802256755
  0.5312121680173848  0.2863933537559910  0.0985040196783551
  0.5667408914150869  0.2921593030820665  0.0864830724075489
  0.5871502540522483  0.3188204070448058  0.1030370863620832
  0.6406019122195543  0.2981807092546184  0.0701610155050715
  0.6245353290264672  0.3187512820736840  0.0986642562033738
  0.6795561630045948  0.2959897535831196  0.0689422154280536
  0.7303123788039955  0.2932539070786530  0.1154942640799378
  0.6979048877589423  0.3061425706391790  0.1003565492854581
  0.7783792596195194  0.3334633680986367  0.0752747415496922
  0.8342736704271421  0.3027494927484762  0.1065935744350058
  0.8051517525984973  0.3283781239780181  0.1006542035168101
  0.9413158397923517  0.3004253443599973  0.0888522426039131
  0.5177310213548821  0.0146806177233548  0.1671914769895841
  0.7225954090984645  0.0131741688101932  0.1335869978752623
  0.7323542913907419  0.0215050733743410  0.1690509875960399
  0.7990148409356896  0.0080297671319533  0.1358043124556049
  0.8885413537852508  0.0585792396021970  0.1702879790788868
  0.9260053903948445  0.0557507479925285  0.1598414974393696
  0.9507315128432166  0.0435918834597896  0.1847948577018668
  0.0055908708980197  0.0485036237401504  0.1441956832798511
  0.9883054653877170  0.0434972319599849  0.1782387037653191
  0.7281966282296931  0.0583428831680571  0.1731896838604195
  0.7171364953774095  0.0748549719477082  0.1424632528300324
  0.7565763785309798  0.0723768082789241  0.1911030061048698
  0.7760138554768194  0.1019711501339596  0.1798772477896044
  0.8133077540517011  0.0935313444395540  0.1837310079871768
  0.8436207648565011  0.1109676139949136  0.1681111956322698
  0.8746170312255358  0.0914941116118427  0.1589315688897600
  0.9023569311973049  0.1063613986469302  0.1379723811135822
  0.9323364569250625  0.0841665319052142  0.1361748284994083
  0.7597965516977601  0.1234705377248542  0.1537293252572557
  0.7798653236533327  0.1505374925536316  0.1386490107329524
  0.8449030765932640  0.1477303695893537  0.1582647974643136
  0.8779671220548129  0.1641889277418931  0.1449330230825848
  0.8123071392519542  0.1660078406947038  0.1533840624387063
  0.8135544473620255  0.2028946482598010  0.1534737512551775
  0.8886274067235839  0.1998196335627505  0.1439872705722426
  0.7740767209203644  0.2507414780256437  0.1355726498005981
  0.7738386741520987  0.2666121641549917  0.1716420017360798
  0.8384894528131087  0.2245044058493831  0.1729596572156614
  0.8721857827790463  0.2295595652557557  0.1582335693833599
  0.8906586403073368  0.2617697291785029  0.1507265529880351
  0.5119351390241313  0.3124912955024295  0.1184237439379616
  0.6809433935620174  0.3289735925578100  0.1260784313244539
  0.7323541034155723  0.3085452835448659  0.1502724321568036
  0.7532978141942314  0.2972372271372368  0.1788034664804661
  0.8302742555142761  0.3417313006018234  0.1549593813179709
  0.8722643846586392  0.2935433778294750  0.1647121188266282
  0.8496041741008682  0.3126087891899464  0.1413126381305987
  0.5125229750888330  0.0319419137801432  0.2002095942907046
  0.5421102848834961  0.0358302233730971  0.2231801869770008
  0.5746177586121261  0.0173132236264739  0.2168395693087220
  0.6046989395940781  0.0232157736216631  0.2401019176860174
  0.7611044141735681  0.0103101353076265  0.1911360167321376
  0.7781204343136298  0.0441153841112358  0.2004207562056877
  0.8333865309338615  0.0145684014963095  0.2406109020970930
  0.8403340874038296  0.0355865511940674  0.2088199183498796
  0.8764545355139425  0.0389251234707366  0.1994274332658216
  0.9000421369937337  0.0345512798139832  0.2279842685363423
  0.9370935969822315  0.0381099607602371  0.2202114004755915
  0.9588000334360203  0.0446207775929491  0.2492234716293564
  0.9961081679562779  0.0451043161082917  0.2431486041376916
  0.8133686504376554  0.0579400639514075  0.1988420881956272
  0.8287428325413642  0.2456545318037770  0.2006843843916842
  0.7935091398685297  0.2580634162938822  0.2030767202705846
  0.8265876048241843  0.2752383654646621  0.2526527489086072
  0.8503991062962103  0.2696279956987569  0.2225487792353510
  0.7656947077933947  0.3016983545803413  0.2461825347971150
  0.7493989062617217  0.3143177050191319  0.2137899577004012
  0.7913303865059077  0.2754090991218271  0.2372280059998772
  0.8631212248736398  0.2999608933609393  0.2033549276026578
  0.5390832135109808  0.0582910763558960  0.2527465606086968
  0.6034409049589465  0.0509957978733292  0.2653293372235042
  0.6658586938321888  0.0053847337951521  0.2639301422405695
  0.6673478309484304  0.0391591192497247  0.2836872959974652
  0.7334553436161941  0.0384071017454950  0.3054029657442357
  0.7834176397486042  0.0004241397904648  0.2996733896893753
  0.7449690116759682  0.0028271377557385  0.2985056906866100
  0.8322311463058621  0.0465193310175851  0.3022584554721000
  0.7961864979918911  0.0354724466283176  0.3079681259406487
  0.8493389133258480  0.0324977813642462  0.2707296072568934
  0.8853947773481330  0.0395221328885649  0.2628864821748712
  0.9058965011697568  0.0557298595327761  0.2890021007918623
  0.9432452631262542  0.0557629196544130  0.2819918896202055
  0.5696694009559843  0.0673216475464482  0.2723921185398410
  0.5650837828464764  0.0921121050507387  0.2998079246364769
  0.6345147739115135  0.0601340909009316  0.2852263645569933
  0.6305300388461927  0.0902209753943520  0.3082003630806279
  0.6983663591287094  0.0539013432802442  0.3027646726568995
  0.0026880264825090  0.0681060401101083  0.3035106684218598
  0.9652243021056087  0.0706122568141992  0.3075550320279137
  0.7613097366059565  0.3191182300433518  0.2810063299119977
  0.7773533902459041  0.3097995020161921  0.3157951816074593
  0.8335638118219104  0.2924561698304791  0.2845213352942133
  0.8502084170927127  0.3268411813778539  0.2844834505541311
  0.5356327427120735  0.0344048286438748  0.3512422849678362
  0.5351112512577112  0.0118292185642231  0.3215575679618019
  0.6006845153610049  0.0303277715137284  0.3529223249320207
  0.5686421306020236  0.0458468854194541  0.3647804711641724
  0.5983442115223523  0.0018827671247145  0.3282629841174964
  0.6639263381774294  0.0177112777519460  0.3668884573855110
  0.6336086424511825  0.0396868859541179  0.3697946517883013
  0.6980929626830762  0.0258984293516447  0.3843354308542951
  0.7270766811725781  0.0000218456341503  0.3816560626214029
  0.8803837497933332  0.0093579469899717  0.3773848277981974
  0.9649914520950292  0.0075817967603579  0.3657936103907949
  0.0036489009720943  0.0059397983509506  0.3738345795648178
  0.5301865673322926  0.1025478554939784  0.3113158364232105
  0.5957903247058377  0.1046837023215823  0.3166766397629729
  0.6606756562132048  0.1046444601408889  0.3253532362813669
  0.6951978215429511  0.0878440746238642  0.3215506836815520
  0.7649439771194160  0.0570721888898723  0.3166349419053850
  0.7630348785418448  0.0902127762160582  0.3341452836104652
  0.8330481103504497  0.0990712404782807  0.3472611571061567
  0.8499218438481160  0.0733775678657768  0.3229297470469567
  0.8887515237204386  0.0732508040043337  0.3181951137781966
  0.9116071120624557  0.0912662459299780  0.3418180259361074
  0.9493263372122184  0.0872328877511764  0.3370377147524326
  0.9729022198830953  0.0996706154840664  0.3627006712742498
  0.5244825934314727  0.1236239224103942  0.3415353676704176
  0.5550842025957395  0.1393318365779832  0.3561319019868884
  0.5900008203716043  0.1311009300669288  0.3428388390948330
  0.6198748296208442  0.1471629517074782  0.3577888035618724
  0.6548678216775842  0.1348041594498175  0.3477960110949060
  0.7261571706566594  0.1045904421476919  0.3378868263301898
  0.7194649182381254  0.1364087180990742  0.3579002663657346
  0.6843561176906613  0.1513710408126021  0.3630815007542197
  0.7487195559095997  0.1534828798660556  0.3740356519549819
  0.7940301695974571  0.1079911646268875  0.3498044084384024
  0.7840284071189637  0.1388286143853833  0.3705385965783142
  0.8587156373224303  0.1185010692453627  0.3707160456588446
  0.8967709668266567  0.1119616466095324  0.3701619723919379
  0.8119018464309530  0.2936726083711887  0.3170578587691926
  0.8340094600216809  0.3117013773532596  0.3424647614031913
  0.7660081731366707  0.0054332113545940  0.3852199177751381
  0.7852719574817602  0.0351582060194912  0.4014734967578683
  0.8244618988503445  0.0354705705706297  0.4047873052075134
  0.8428807252145328  0.0101980047796277  0.3850860611866754
  0.9035189998632328  0.0302790628751958  0.3967894250562559
  0.9422360516440921  0.0275485187566772  0.3912025878482869
  0.9973221282176363  0.0403049613391319  0.4255909244140568
  0.9613795498363765  0.0454170004273273  0.4169193254909482
  0.5362030525274482  0.0742007840512602  0.4128044019870899
  0.5685029617535794  0.0692652452522913  0.3937241555526322
  0.6014152880166714  0.0830769471779985  0.4061085702970090
  0.6006139913367471  0.1074098829161133  0.4345774354362664
  0.6342772135635009  0.0686747334032812  0.3938275522483031
  0.6674632731049357  0.0797914591687117  0.4086678187038771
  0.6658967265015945  0.1101099117866781  0.4319583059804806
  0.7002517079822611  0.0598333320022332  0.4024289119040579
  0.7319419039647164  0.0757808408082504  0.4158975292421638
  0.7690079204983286  0.0652690555470842  0.4167463148897936
  0.7891856991957518  0.0910763756694587  0.4371799875028130
  0.8265524963972202  0.0867308915093471  0.4452054233239394
  0.8856087371635446  0.0525977971711345  0.4248149642760917
  0.8463877686970973  0.0588643061259311  0.4258308699340387
  0.5167884793118411  0.1618005734107473  0.4043503494996857
  0.5501506792879962  0.1612548711621402  0.3860468051579544
  0.7302215148716719  0.1077906619888299  0.4357518146817222
  0.8102412907384824  0.1567522825444688  0.3897697778099377
  0.8459269296253075  0.1452344225258601  0.3937130421302426
  0.9217620797312046  0.1236961163019781  0.3959774297654352
  0.9207606978553285  0.1464378981632194  0.4267665013864846
  0.9584190637894610  0.1154337779996423  0.3921386671234280
  0.9795500361141993  0.1281421931870847  0.4201356675833363
  0.9557210121108433  0.1475642090570661  0.4419739109065201
  0.5797081760286728  0.1799373980096896  0.3994419875235558
  0.6138011730585582  0.1739565147068442  0.3837847573300985
  0.5754282966747715  0.2020594386406231  0.4298772951143938
  0.6428647803026170  0.1930436433207497  0.3965004071783260
  0.6365249438388549  0.2207054911994341  0.4219884637641856
  0.6779519562870152  0.1819059206401425  0.3848532278330487
  0.7075198929644435  0.2000829183159475  0.3979146921961873
  0.7425158437650137  0.1856069527874775  0.3934655339713717
  0.7714955153314836  0.2045304721256832  0.4089111533672153
  0.8048595568850518  0.1887136704896315  0.4084018411711255
  0.8615231360621223  0.1694302593724136  0.4199151586282633
  0.8372726256569796  0.1975645334034167  0.4264464141529231
  0.8945939172888931  0.1709354390607217  0.4369141424619831
  0.6663440123598493  0.2410992581532160  0.4308409618574650
  0.7007443843733819  0.2306542794090510  0.4187220741733061
  0.7650342065284792  0.2364112129936596  0.4268136155138302
  0.8225242713192600  0.3137076745050025  0.3783043376336145
  0.8468677496347593  0.2926501473136346  0.4357494642750319
  0.8437078776242269  0.3193644493287748  0.4100250553501059
  0.9588321488909809  0.0553762887337510  0.5093011383140259
  0.0036477125989164  0.0475548474052707  0.4621037954421818
  0.5118878117535882  0.0802937755632655  0.4713265713587894
  0.5372949344279061  0.0912078298700505  0.4458526410616181
  0.5685133975712306  0.1111780662404233  0.4543411944454250
  0.8728266834908042  0.0980650965468768  0.4924568043509556
  0.9458130017564638  0.0610320331004140  0.4468944276915440
  0.9021559210868662  0.0775335894672801  0.4862064158012045
  0.9095247340957349  0.0651596526079058  0.4513081178289286
  0.9709022664335851  0.0625442025128055  0.4749141240176343
  0.5153726415235697  0.1776097442862782  0.4381334735666230
  0.6001084028399336  0.1507843371754576  0.4957679841608748
  0.5696131195094547  0.1289849957545171  0.4871028720422511
  0.6330536984272992  0.1228188479047714  0.4466217990643246
  0.6326910688028172  0.1477053234681699  0.4756039988544138
  0.6657847309059464  0.1644697447186949  0.4854220556754056
  0.6983636539693528  0.1250101119684081  0.4446717882608694
  0.6986799794232897  0.1536010280653753  0.4692722629145960
  0.7640298120222164  0.1177961184017963  0.4497105540859834
  0.7647652757336005  0.1476573451832673  0.4731193672479914
  0.8252472316217192  0.1354661254331716  0.4952227931523968
  0.8409449770907856  0.1071249882387166  0.4734767536073413
  0.5437553546931497  0.2000373026842675  0.4503623613438288
  0.5429934940031688  0.2163495650430022  0.4848390382232911
  0.6036714766628783  0.2236739443630311  0.4420070471361296
  0.7326369696358496  0.1672683627214830  0.4803562402995636
  0.7944058406920741  0.1563015984850229  0.4950722346322885
  0.9367502628197858  0.1975862885737249  0.4785881382547222
  0.9035983697627117  0.2005110563031056  0.4608290403168691
  0.9944265434335792  0.1739328640722598  0.4897283982080152
  0.9627559312416072  0.1710394960281830  0.4689170600221153
  0.6014873127947226  0.2428866228673933  0.4757869701982394
  0.5707971908790616  0.2393606357641393  0.4994671612637263
  0.6637950450864988  0.2634311386986753  0.4612409100042478
  0.6353050360719046  0.2577500169360622  0.4857488443503651
  0.6964433032368303  0.2720234007542692  0.4800449399302473
  0.7279267281924714  0.2734036402509041  0.4596876648091011
  0.7297271706961284  0.2481125374073735  0.4329767528334851
  0.8258824353716225  0.2608447317524352  0.4385344047209487
  0.7885019298436776  0.2608558886718031  0.4410007577418574
  0.8477390472449907  0.2295252415842613  0.4430960432875848
  0.8808955727258370  0.2315342387555186  0.4620646467291669
  0.8892545895996513  0.2656613145994576  0.4788523165471776
  0.9516939008697041  0.2170900582396476  0.5075082337814480
  0.7673264410625784  0.2864045740830705  0.4655931901359386
  0.7732327049086013  0.3249885697778802  0.4532865004524901
  0.8725640231573659  0.2958405769719866  0.4628413223235089
  0.9753748663880059  0.0274546727174034  0.5277016163954891
  0.9559970608589123  0.0044413193750972  0.5515820451520336
  0.0028237551501499  0.0073156082651295  0.5105555453300086
  0.5214554665371107  0.0725446981406144  0.5683409642230420
  0.5193199754733473  0.0902488174798667  0.5062055917564623
  0.5088705364742094  0.0676244474692676  0.5337647832605674
  0.8872910196709536  0.0998285468914639  0.5564838381786871
  0.9244145171918730  0.0685633431722519  0.5163532937782449
  0.9109915550731360  0.0709795836442460  0.5517610841356241
  0.5443267905261007  0.1173331210576468  0.5124455717408472
  0.5485517718413256  0.1266870476926221  0.5480340201330995
  0.5724796660467369  0.1535112765436299  0.5540434191265260
  0.8355994537693813  0.1542494437361817  0.5587737861554083
  0.8452118055612986  0.1381249160813918  0.5270645236904644
  0.8726399170593766  0.1140239066555560  0.5261374432666431
  0.5151937497665808  0.2035346864639964  0.5065339411862591
  0.5146490778850283  0.2167264427881433  0.5415142914056249
  0.5964003694766091  0.1674702588997363  0.5290721022338849
  0.6152167324795810  0.1950235021749502  0.5467704632250063
  0.6442157756223684  0.2120012227475825  0.5311718951547875
  0.6696787404489729  0.1931315023107985  0.5094605817424015
  0.7013694538267089  0.2141447200878708  0.5096254811881114
  0.7675413546948872  0.2118045167323404  0.5149323550160773
  0.7345786477100673  0.1994743917308230  0.5003205205324922
  0.8103271897621264  0.1818345878013479  0.5555803095188618
  0.7923876269796762  0.1843219312548247  0.5217094334023644
  0.9991823960695330  0.2075948565914497  0.5515457476651729
  0.9849990603895716  0.1999852557332062  0.5174947567306812
  0.5373545379348221  0.2428746134138500  0.5571301152237220
  0.5673588780524482  0.2537613223395807  0.5368484505924341
  0.6522660170990293  0.2484990145912347  0.5190614286571699
  0.6902192046433590  0.2503392550042387  0.5117372487288944
  0.7750796378124681  0.2475158568292007  0.5268106320708075
  0.9558492475432675  0.2572487454764874  0.5574219975769984
  0.9389969445446599  0.2483927143776311  0.5243131778962060
  0.5895148930102638  0.2760771963784079  0.5619662399543193
  0.5836321814915884  0.3141663668643153  0.5617124993754531
  0.7745602217681458  0.2792197054575523  0.5057213258332449
  0.7806389321631126  0.3074779443415647  0.5286421818470979
  0.9126796549026231  0.2724725126174395  0.5087866377342836
  0.9092288281667903  0.3064086002700270  0.5255374377003320
  0.9233183576416903  0.3127727587274187  0.5600256996734251
  0.5109771361988277  0.0104175774317212  0.5810493588136387
  0.5236062507637773  0.0437588821559217  0.5914968052593296
  0.5425574195774689  0.0474971462063725  0.6230451377365367
  0.9297517182529133  0.0112298722758102  0.5767794939569033
  0.9143333555024914  0.0463360697805446  0.5800402711899809
  0.5380308046134616  0.1048605444131929  0.5761647950364791
  0.5518215807008283  0.1113373456411056  0.6101160619513687
  0.5538394627574512  0.0819002420185534  0.6333268314885421
  0.8722094555752540  0.1101683397218189  0.5891982718060843
  0.8773874005260899  0.0872537518108537  0.6178366656587948
  0.8956602642243685  0.0541503160635375  0.6116529576433815
  0.5691221824984817  0.1445659633192734  0.6170738513692978
  0.8342587756143318  0.1513707553078709  0.6243434525753607
  0.8484928951236316  0.1395736009452043  0.5912181085020977
  0.4965208469752419  0.1979427466598931  0.5987916170282478
  0.5163420608694911  0.2233994676341845  0.6149382485318063
  0.5785832391981220  0.1666055863245385  0.5882309323869445
  0.5999310308761049  0.1972006392675821  0.5817576182294691
  0.8137093137916360  0.1837420018193205  0.6213580492021195
  0.8041375077982658  0.2000001365126455  0.5879806922446489
  0.5287739326168550  0.2528407523114378  0.5946898711709188
  0.6037308770536572  0.2247125551127777  0.6058693354838336
  0.6052093438197673  0.2613024419319419  0.5950174071003165
  0.7893514517634048  0.2350126154687418  0.5939048379861578
  0.7828008927236842  0.2576944863423650  0.5642097150645955
  0.9951865648301366  0.2413944135686005  0.6074785346673398
  0.9828144296366246  0.2349894069782086  0.5721980319489470
  0.5305824750650832  0.2854544790105363  0.6164756582924752
  0.5192325115895359  0.3215938189360101  0.6057623085095090
  0.6192920534165240  0.3202573657353477  0.6172932712407747
  0.7839987935204018  0.2960054725479857  0.5649418495247108
  0.7870222874949229  0.3220966704566694  0.5911497930174464
  0.9457532986153274  0.2879193976441675  0.5767726149763301
  0.9583874609130393  0.2943094402310409  0.6119668601540393
  0.5528751668547344  0.0163632553735283  0.6410134536678983
  0.5742279727506425  0.0193905369758239  0.6712722740695573
  0.5820495773283757  0.0538415945254200  0.6837272301628693
  0.8814241462234821  0.0339906591844432  0.6709935640631333
  0.8953650170150016  0.0274619316549917  0.6371278869296422
  0.4941776831458480  0.0859056203313031  0.7030103190795646
  0.5725581787370396  0.0851993833789571  0.6651402087553723
  0.8668109223796526  0.0687609147785881  0.6775703703104631
  0.8618114334781398  0.0959591249461551  0.6506974074654531
  0.4945945694626733  0.1221129397919420  0.6965420873122045
  0.4887304259019607  0.1611073191685661  0.6485152284178181
  0.5840382214096684  0.1196207281098557  0.6751499840368584
  0.5822449717305656  0.1495647076324493  0.6516911763731276
  0.8306626375204421  0.1385768235856333  0.6917262868423912
  0.8421490880765047  0.1297985718993296  0.6556136977581758
  0.5081663351449717  0.1870764986829569  0.6675637165386515
  0.5197151167014420  0.2183642463569216  0.6514495084581639
  0.5978043998548164  0.1820430202481360  0.6613919513450576
  0.6056010161351484  0.2139953011864723  0.6422101684015092
  0.7925928242972902  0.1950743313278520  0.6845295959408231
  0.7985662010954239  0.2056443044961933  0.6484562589133214
  0.5355083876618583  0.2452222600909084  0.6705596079724122
  0.6201054470661056  0.2369083821153440  0.6677070304004831
  0.6268941925329882  0.2712753349776809  0.6580762509107710
  0.7727393602230563  0.2669258722843104  0.6578762252067881
  0.7863427024979404  0.2394660149965495  0.6332123690675734
  0.9827575677672205  0.2708867262277014  0.6275732743958595
  0.5392186182191853  0.2787673763513793  0.6533411618698005
  0.5482331629837383  0.3076308602059142  0.6749050568206217
  0.6187603309778019  0.2836081683159642  0.6224146351796959
  0.6357245528339510  0.3284705939825080  0.6812302158614478
  0.7720530935644088  0.3063920649471866  0.6590139810352561
  0.9951892690198950  0.2780130077452019  0.6625279556303211
  0.9848764356568587  0.3083122716098969  0.6827407191626640
  0.9466572082650180  0.3237643672321042  0.6323019190297600
  0.5067759210166105  0.0087065440255322  0.7187681291904381
  0.5198951209904347  0.0386135466920459  0.7393350913264953
  0.6088185198622216  0.0271084524133142  0.7366584550770280
  0.8855935912584784  0.0014321975129618  0.6912658138184672
  0.8499492726469484  0.0217103087091882  0.7465544462961844
  0.5141715519418197  0.0748094726473263  0.7320646766200334
  0.5303157753816002  0.1018632186563613  0.7546051191785504
  0.5996945883770223  0.0570280784004521  0.7160899719337099
  0.6076341441598474  0.0911955103494129  0.7277247447354421
  0.8513643709168880  0.0582871038854502  0.7414621086874625
  0.8564388858521400  0.0795426133375749  0.7107253104291886
  0.5299143531588832  0.1377473757081723  0.7480098992039469
  0.5133268081106563  0.1470631301959574  0.7162950323307163
  0.6015534392867457  0.1223245619626389  0.7076709821084565
  0.6145992828594903  0.1562847927490776  0.7180988568474782
  0.6332050786311541  0.1576557629076804  0.7495354323887572
  0.8316270775268807  0.1153978098918766  0.7525586383570892
  0.8420632195415571  0.1140975936524572  0.7168921151252353
  0.5193029629848414  0.1802375710170128  0.7021622647873423
  0.5386385509031464  0.2047340002060457  0.7221526671275472
  0.6117786822541857  0.1859217845410459  0.6963584429094167
  0.6238590567053951  0.2213089858719036  0.7025213390937742
  0.7690597866019616  0.2176282568156358  0.7018789626109132
  0.7604551946001036  0.2157867474595323  0.7382115757297685
  0.8071927457512439  0.1664917598386250  0.7058309078019258
  0.7972331397141974  0.1664458365046431  0.7439151568695973
  0.5440529801123640  0.2379752759605718  0.7063847319840197
  0.5569314752564478  0.2651674979621554  0.7272705862765050
  0.6372230242169991  0.2399157482295029  0.7331404341786754
  0.7487740336578678  0.2718363357345270  0.7192727882702389
  0.7609237362826206  0.2523013361363770  0.6895965109996148
  0.7481638817237954  0.2490180289611812  0.7486584021132658
  0.5571736445660089  0.2988401676620912  0.7113798178723977
  0.5633304296956902  0.3256354458354964  0.7355519408436897
  0.6408123556411007  0.2772039558026170  0.7241446301730797
  0.6361494908390820  0.2918777304917408  0.6879578694612752
  0.6480582506185524  0.3026548589065556  0.7502678318327156
  0.7505387977089498  0.3082160138796314  0.7223383492560902
  0.0003740048217329  0.3187439253673155  0.7160077315480913
  0.5388254334244902  0.0331363930781711  0.7718535906004508
  0.5435879124152302  0.0000765847073046  0.7873102942704612
  0.6199346738911828  0.0319360995428237  0.7722832036059796
  0.6233769062707013  0.0033366190555428  0.7951248824474427
  0.8127653226921563  0.0363881733988133  0.8018143253770608
  0.8281109923539376  0.0118739009655079  0.7768546942719109
  0.5493234942032997  0.0601875858949648  0.7949043443441469
  0.5465128667119133  0.0954389411796854  0.7868310895386517
  0.6260389534068878  0.0659371727288033  0.7856084726343543
  0.6239247243066331  0.0934699993537364  0.7606540643607567
  0.8165476112367501  0.0727244059737705  0.7957577698588737
  0.7979329405977440  0.0993789884187164  0.8149293085270386
  0.8363865870705391  0.0818027867657670  0.7666896437579050
  0.5524691098310758  0.1176723918617715  0.8175558760793070
  0.5467573819382535  0.1624214590660655  0.7719670381332995
  0.5557521659563806  0.1542823428111763  0.8093834007235118
  0.6374370830840528  0.1258820561738602  0.7682988296922191
  0.6481559538468485  0.1323430934883184  0.8023520915382483
  0.7946150275034164  0.1350863957644237  0.8025358419345734
  0.8091170563399079  0.1404045685571587  0.7673369356910599
  0.5500201662636752  0.1968645065421745  0.7576450880248120
  0.5681030786522465  0.2187423781927346  0.8171218908403631
  0.6526818333900465  0.1689859692033762  0.8040685243834770
  0.6446122804780233  0.1861635312672465  0.7716548898156845
  0.7693543389408379  0.1960139541573200  0.8000975931000891
  0.7744264322514338  0.1915070560944688  0.7616131230347921
  0.5621790432777167  0.2246113983192414  0.7797036256661558
  0.5648070588143097  0.2589076484030010  0.7641138550595357
  0.6506285132222820  0.2393854095910711  0.8054551503877705
  0.6439800403431143  0.2235218790216914  0.7690613366004578
  0.6582507512388641  0.2743177598215221  0.8125809183636691
  0.7601289336535930  0.2333140300867315  0.8103800579550786
  0.7510923600646983  0.2602724022068915  0.7830593386607864
  0.5743027166743330  0.2878247946136599  0.7857424458157081
  0.5727162376460260  0.3216340010069849  0.7714637702186763
  0.6568437157746519  0.3007814693952580  0.7867581315370651
  0.7499284428011807  0.2985920673890853  0.7863479656957990
  0.7470813448095311  0.3235087272785790  0.7571903360020658
  0.5494353836891128  0.0257289098030837  0.8467158614794076
  0.6283584667557204  0.0449025598472642  0.8477598077276567
  0.6273896211903648  0.0099409455590772  0.8324318623569631
  0.7825559335481540  0.0519237420062727  0.8576253284546674
  0.7947966479211293  0.0258022682141161  0.8333108137653187
  0.5524738639512168  0.0588294368252617  0.8316098798250869
  0.5507249255675032  0.0933872345423876  0.8485995441770365
  0.6321584084466759  0.0729798445169628  0.8223404190549598
  0.6416454388276746  0.1088430927779494  0.8301158399700574
  0.7819909168810001  0.0880950471147462  0.8465666994241536
  0.6427682314995286  0.1260579971863770  0.8627033595856873
  0.7687560009029313  0.1147008564258483  0.8681722842830473
  0.7677209107646200  0.1521241104316704  0.8591836348412220
  0.7764075905058277  0.1631103609061123  0.8223429867484019
  0.5626500067772008  0.1833386967732621  0.8341156836405920
  0.5598524390425205  0.1826982612439950  0.8727702070873519
  0.6494247844130543  0.1628074644596892  0.8649919985422224
  0.6534836484211687  0.1847388310470008  0.8365260853229797
  0.5753304248109085  0.2489666767454426  0.8745408556269276
  0.5757558684315336  0.2503937332681649  0.8374731614276193
  0.6515776284161893  0.2208005271432648  0.8393211878992887
  0.6526697495879984  0.2346647922354128  0.8752986113748552
  0.7641610730039775  0.2371297623524578  0.8805105096936916
  0.7626874331147453  0.2495025223032164  0.8442592148166803
  0.5790661086942563  0.2844526870061629  0.8223934396721736
  0.5856764646856951  0.3152060486814869  0.8433429245349598
  0.6673296688879601  0.2897057606285370  0.8468956424177594
  0.6726633552696836  0.3276611754990281  0.8383926288656215
  0.7622124953861078  0.2876905568849601  0.8468143480244614
  0.7554275342480109  0.3125125510115907  0.8200371264918883
  0.5403496881732831  0.0258370260048440  0.8825329379316929
  0.5160978818916534  0.0541670519774558  0.9347986585731440
  0.6159228561152543  0.0179195395638491  0.9068615365123152
  0.6225180749149095  0.0491379131216371  0.8861907113090227
  0.7725239539654690  0.0422855791312857  0.8928041595222096
  0.7760396846603076  0.0053864629075366  0.9036734946943956
  0.9916816815727436  0.0177107365027262  0.9064736876103351
  0.0005964582605475  0.0473428074601435  0.8858650090678210
  0.5334367612169416  0.0585959642787161  0.9011616942945159
  0.5403515729319205  0.0941668262150155  0.8857616309210191
  0.6210387576214145  0.0816188677347094  0.9070816479916233
  0.7614467728700556  0.0695799526567482  0.9171001226926860
  0.7593126447797710  0.1066934057759224  0.9040070139589760
  0.9940065158193048  0.0843590195321885  0.9365954769170881
  0.0024979393919978  0.0799925546364868  0.9013966819667889
  0.5337702196987831  0.1247826352900135  0.9094710523542647
  0.5439350731986126  0.1609317772025914  0.9027804116976748
  0.6326260367479078  0.1150198059784880  0.8966786552354910
  0.6326535577027207  0.1463771493721621  0.9185286770905111
  0.7532746662630351  0.1412011171543628  0.9194737684661641
  0.5551356178363948  0.2177696979407889  0.9245402754498373
  0.5668172009825405  0.2165580366169744  0.8895039314945357
  0.5384601367640005  0.1857680993712743  0.9324499265806168
  0.6432872712752989  0.1763773106436850  0.8989093554746798
  0.6439339373441918  0.2126498930778214  0.9061748891787476
  0.7593811866976359  0.1694857772115861  0.8935028795196795
  0.7597623395160445  0.2063016684450590  0.9024154679991130
  0.5783666197078702  0.2798777316471427  0.8963175670518496
  0.5706231442291371  0.2793549119605072  0.9330960234366382
  0.6627836769071863  0.2702777492985530  0.8802947015519995
  0.7581704833367410  0.2210882198013015  0.9388371209890071
  0.7661823732940083  0.2676890686184682  0.9027213282501255
  0.7632388445101782  0.2590164606596272  0.9388506272155018
  0.9899482056214437  0.2381357221414954  0.8908403775084160
  0.9657697533882199  0.2424636317126901  0.9191976367525360
  0.5868190812089226  0.3124874217650975  0.8803008915745799
  0.6666956535966712  0.2813555733227535  0.9172026369921585
  0.6810683347836782  0.3157373130579142  0.9212910117647528
  0.7648439179576979  0.2989769578090593  0.8823527727667684
  0.9753551369689503  0.3041054731912089  0.9309621986407355
  0.9987064598545108  0.3045151286657486  0.9011296259497950
  0.6015922547595368  0.0201256897890397  0.9424238177500378
  0.5941230431692858  0.0528808127895550  0.9595829949164099
  0.7535689415857431  0.0105112626567623  0.0008994051720436
  0.7604738902168681  0.0201295474601140  0.9643110194881169
  0.7547455671181292  0.0561346227281817  0.9524857100538319
  0.9774257276254608  0.0029546717928755  0.0028938883411186
  0.9853506602151363  0.0239563972861322  0.9430911080138495
  0.5757415628698989  0.0569467956467664  0.9928441935563144
  0.6062844197763542  0.0826933098100662  0.9423152485697450
  0.7425078852904464  0.0802166630643901  0.9786429806862058
  0.9824507368185398  0.0576801384133896  0.9579789125709185
  0.9675161826621639  0.0654856608900123  0.9918932221891776
  0.9554909942491168  0.1011731936037403  0.9974173377214282
  0.5144936366876133  0.1191807975006489  0.9442063693638565
  0.5846879902866606  0.1196038169206853  0.9941438359641934
  0.6040580652528764  0.1138072165881214  0.9624034219986267
  0.5872339115372031  0.1567919069897496  0.0024252473810121
  0.6182060859109935  0.1459783871119080  0.9513934572509420
  0.7339897701529600  0.1130662009129695  0.9702525879173256
  0.7443048824330555  0.1432876203923628  0.9561328151816288
  0.9889784998431200  0.1198146917871292  0.9433673086232771
  0.9678313239390670  0.1273023449865187  0.9726235441047938
  0.9563581166343217  0.1620264256653998  0.9704782905557280
  0.5170718150864549  0.1841497069031854  0.9633366473977749
  0.5112569588588353  0.2176038680178411  0.9847029756946795
  0.6091713577421769  0.1734939730571434  0.9751903472010354
  0.6192402684392035  0.2092940146594075  0.9723521423527691
  0.7477247454356108  0.1705531539869574  0.9816131501382936
  0.7536080809433667  0.2059773253685546  0.9718356437948479
  0.9656661477216824  0.1828997442334691  0.9401336551364037
  0.9519110356708743  0.2160261862607819  0.9410720689192045
  0.5344187652478043  0.2487388691394996  0.9771450190702949
  0.5374487113899293  0.2825192595897935  0.9967995782376136
  0.5541177281435282  0.2481159359018693  0.9457824296679147
  0.6381728646843294  0.2269555729006058  0.9420305525782999
  0.6538390722933474  0.2607251776254185  0.9482015440190714
  0.7571374323010881  0.2275277936836328  0.0029571504248871
  0.7608222166599004  0.2649608247059442  0.0034252864635798
  0.9329070319411582  0.2302187323469401  0.9701202231879008
  0.9354865222024988  0.2670467581142030  0.9677394466991983
  0.9570256252507801  0.2737260134776728  0.9372973131245560
  0.5637344363934763  0.3108850004910040  0.9905051467232610
  0.5791404278919720  0.3091367415470470  0.9549724880293853
  0.6558089458585498  0.2695775784803930  0.9867168979513095
  0.7607517913150255  0.2830257876633059  0.9685528941014805
  0.7547170065457842  0.3216743420618053  0.9616929208194817
  0.9285529419483859  0.2924754788769356  0.9935890684396173
  0.9473349459902592  0.3245469145513691  0.9869231905231873
  0.9700319582078492  0.3305652505155413  0.9565375992010366
  0.5156446746364188  0.3498072930061764  0.0488290015559441
  0.5519658751292748  0.3588701059021279  0.0435098613608861
  0.5728076234898604  0.3396595716710136  0.0170217005806287
  0.6076536741693288  0.3533058131723890  0.0178611625597436
  0.6252761222608946  0.3742454926353340  0.0443486852059095
  0.6637547533556386  0.3720069805151102  0.0381257505722314
  0.6679710268438849  0.3572741063873530  0.0046264176299109
  0.7279024610284039  0.3617148601261979  0.0533789153824639
  0.7415771417394813  0.3389458819027101  0.0260377779171136
  0.9394698590522048  0.3385841021607167  0.0493102342091068
  0.9505336113173646  0.3479531327021446  0.0153203098612478
  0.9729251982170093  0.3769154385375277  0.0110236759126841
  0.7799344765601269  0.4424737243066408  0.0055936473987363
  0.8152861256539545  0.4342906723860975  0.0182000675679430
  0.8404221932430032  0.4196150344335761  0.9948935097048992
  0.8768567259205461  0.4307190478496750  0.9970796264124464
  0.9758571743777396  0.3992260069361068  0.0381698385840861
  0.9989164850933626  0.4261750820604179  0.0393950099326332
  0.7228682601896415  0.4737731615040008  0.0077124711942836
  0.7542216945777619  0.4628031945522360  0.0247503314701193
  0.7539448263148998  0.4828712591431163  0.0574760036187786
  0.8122600938748004  0.4887719600889602  0.0490996327349523
  0.8281680654996599  0.4552020523020176  0.0459031927840859
  0.8872490735661068  0.4507232973116748  0.0273598213701506
  0.9111933632107871  0.4794115632001805  0.0253276565923081
  0.9236481876263957  0.4981343007552698  0.9956260442906179
  0.6544582315823544  0.5396172422230331  0.0353752082089860
  0.7231128149824704  0.5048000896912475  0.0598560935343429
  0.7032854543539179  0.4979173166469539  0.0285115855694967
  0.6741883784100008  0.5154634188198781  0.0142893646477964
  0.8175363098618221  0.5154284538509929  0.0223398213033462
  0.8000375110649914  0.5493124968298465  0.0259152740844478
  0.9063732747216611  0.5388821002204751  0.0406290033882766
  0.9193447262886812  0.5346336031958077  0.0056821047557923
  0.5729145430212432  0.5908019957157458  0.0348045209850697
  0.6050886813259270  0.5746328839994227  0.0443092831683404
  0.6234367046162890  0.5522587183410320  0.0201028725596426
  0.7570550414187288  0.5960257395466120  0.0396620092430847
  0.7771835010652043  0.5662206652187278  0.0511099732049720
  0.8743993774315486  0.5945499755444313  0.0286636595322051
  0.8846426157250682  0.5668360997370464  0.0533428150435828
  0.5136589274519970  0.6242798641537934  0.0106678251347064
  0.5190794923017602  0.6276950124484998  0.0482931671269744
  0.5532260109239173  0.6127679743036745  0.0606465037712529
  0.7054722858922466  0.6350906894867764  0.0500565837274979
  0.6999485637636796  0.6356857226841574  0.0126835803110793
  0.7560336006471047  0.6054439130240249  0.0029193976732573
  0.7335646333930291  0.6142139601478254  0.0637697623391529
  0.8288223621819759  0.6458252557143672  0.0160691851791352
  0.8480281825451135  0.6211485711840546  0.0385063275225987
  0.9656648264654640  0.6554370030044764  0.0536963967649099
  0.9926890369894735  0.6359280562731968  0.0376386424323103
  0.5666864267061676  0.3900614040361280  0.0648352907264904
  0.6049165740572721  0.3940679020254893  0.0684179205154937
  0.6937631958844218  0.3780412418250750  0.0590069138557380
  0.6895228122581879  0.3971275878927319  0.0900617115398716
  0.7533810782612734  0.3610273407525679  0.0811628791666975
  0.7504689033493284  0.3814657205424438  0.1121983812573269
  0.9972399219266148  0.3417872300211859  0.0768090592138931
  0.9607674654822078  0.3329941006929736  0.0821464427516134
  0.5067372525221666  0.4115333829479016  0.0771311444256333
  0.5446259196389769  0.4163765360544070  0.0834124155174063
  0.5998748199588394  0.4415916525402973  0.1133375899922079
  0.5610599490686329  0.4454428049888323  0.1059122079644521
  0.6586071721017309  0.4161005286802288  0.1027912052040105
  0.6215127469161057  0.4172140502006210  0.0937036457729496
  0.7183622921205598  0.4004463909864259  0.1142622481987172
  0.0084293089238174  0.4081304385614253  0.0990867480330966
  0.5053784640049425  0.4892507531337364  0.1184321423358924
  0.7848452098208750  0.4928763004485482  0.0741497749014392
  0.8633305768535733  0.4609705809697409  0.0551393988768254
  0.8739965568234833  0.4939298141822927  0.0737737948907861
  0.0053660741456359  0.4368913290113176  0.0741746099821884
  0.7233041524232793  0.5358689310680118  0.0806347674268582
  0.7879243118264733  0.5208194156078928  0.0973569578822929
  0.8228633059921762  0.5253652219115850  0.1121213859619033
  0.8573334159364060  0.5223021110931856  0.0932867514619335
  0.9028468186642692  0.5041111343172773  0.0529795855255035
  0.6066530111054294  0.6028068956146030  0.0974615941723829
  0.6595393054633657  0.5561445793361952  0.0704494029864381
  0.6250779654290929  0.5781585554258371  0.0758282204578383
  0.6926975637304587  0.5556175275884681  0.0858583019812071
  0.7629082322879224  0.5505652878929633  0.0871095368756012
  0.7552882606658164  0.5787550492673800  0.1123317995625128
  0.8691993684677485  0.5587228401545179  0.0876059793363877
  0.8599677138161754  0.5843557712223392  0.1149018124080488
  0.5759326502453118  0.6152344736750006  0.0904897765097875
  0.6818236071844751  0.6531415013026801  0.0739164754412320
  0.6887005584348913  0.6516277900405814  0.1113301407609029
  0.7357156668065704  0.6081528015661843  0.1008754305780985
  0.7158365056042650  0.6288568118471110  0.1256561864596731
  0.8347197872698024  0.6301276391831934  0.0741484574017701
  0.8068113406031486  0.6566602705034381  0.0725101767714251
  0.8447614372739823  0.6180285185308819  0.1079987010812736
  0.9644833534849853  0.6575257460072288  0.0913304377527807
  0.9945044076528572  0.6455803090972063  0.1106328392219462
  0.5322878367733334  0.3409811110565150  0.1308692077800375
  0.5151852041599460  0.3687808622127493  0.1489607650470976
  0.5697275036118356  0.3418736441822505  0.1276745220222140
  0.5887214641355027  0.3654481793735606  0.1496483106758942
  0.6445130536974510  0.3382864465584378  0.1248511085720827
  0.6266236620590065  0.3612444459640373  0.1503665191751065
  0.6423375596529888  0.3810467537212371  0.1776259646654003
  0.7036394302871706  0.3525859610016220  0.1865264619320620
  0.7049654900896439  0.3332713551973847  0.1549547981574165
  0.7777846375772992  0.3775198995024931  0.1386006742351374
  0.8042911225327147  0.3521960952590355  0.1302002245344508
  0.5330451985546064  0.3951547122492223  0.1680072694988799
  0.5140443903316884  0.4244714873168793  0.1826915113476251
  0.5700650435801085  0.3911946924739070  0.1718599215340195
  0.7075667783835605  0.4247923042832711  0.1399954124548110
  0.6720690400337060  0.4344132806433496  0.1325298249584730
  0.7559971042290059  0.4221678631525338  0.1839794208008888
  0.7250376935910106  0.4378772699162185  0.1688240254894300
  0.7794559436108814  0.3945540010332089  0.1727805466864333
  0.5427408913589503  0.4767333205447722  0.1228854210594718
  0.5991934150107261  0.4890562815967329  0.1576423973184505
  0.5634502473192730  0.4977749040655913  0.1483822149575979
  0.6177561333889646  0.4622919504186357  0.1405192420557419
  0.6539205197406512  0.4581161323411533  0.1528272126710892
  0.6734221547430608  0.4753114962012725  0.1821837832249508
  0.5149708006738717  0.5391700109054118  0.1585850410383426
  0.5492552702326262  0.5273387710477255  0.1673392942518332
  0.6176661189990066  0.5058046335093723  0.1854161849281483
  0.8236237202280574  0.5455725740071123  0.1435611821168142
  0.7621225589194034  0.5745099161717117  0.1479764732865802
  0.7916337135878189  0.5543071114502987  0.1614859776317134
  0.8511627815994747  0.5718663521881254  0.1502580374394819
  0.8536926245141978  0.5952741855936828  0.1800800351552026
  0.7050544202132736  0.6514431227511990  0.1853938091624491
  0.7484035549988249  0.5987036693423538  0.1737045840357976
  0.7229488253048209  0.6256318439088018  0.1635688012522724
  0.8343381423077081  0.6394111873392320  0.1380456438465886
  0.8511887473807220  0.6322460857564042  0.1715530596440792
  0.9661612879462929  0.6599239071570493  0.1659585418794111
  0.9978039602314227  0.6518341419245268  0.1469218140065288
  0.6768507149565024  0.3772631682637746  0.1921898725811760
  0.7272135037298066  0.3443748624955333  0.2156423389165519
  0.7254464974434919  0.3633245187320452  0.2485994723059987
  0.8295274234409797  0.3540604134020999  0.1902526082955370
  0.8049667779774171  0.3821131741334394  0.1985816861879233
  0.8489560483143989  0.3345898046044887  0.2163371321184476
  0.5872436888374770  0.4135746849661444  0.1971585599841290
  0.5678877012799929  0.4409922571581154  0.2160724225333864
  0.6232760160455961  0.4057046345831116  0.2003803519992231
  0.6467535777666843  0.4176668019821921  0.2269776139943340
  0.6786020702151975  0.3984782740340510  0.2227091265236162
  0.7819711137546367  0.4253701925397294  0.2419817398340328
  0.7585370531271719  0.4389328574782433  0.2171259230390910
  0.8048698327081556  0.3962105228428622  0.2336482647997501
  0.5130702000757148  0.4781575807417436  0.2194127383768161
  0.5316727466683202  0.4474843384531036  0.2066190014997304
  0.5808261774078060  0.4646852158827254  0.2422829824765913
  0.6427735243013096  0.4403720857868194  0.2559084683950670
  0.7087754236889559  0.4637944046382311  0.1914980461383904
  0.7317113878783560  0.4661433577431620  0.2225186685912648
  0.5688314851079337  0.5461162353221053  0.1948250150106149
  0.6012438907625176  0.5326340245276471  0.2043614830407087
  0.6528152163933647  0.5010763587181234  0.1988739448182573
  0.6566218842860960  0.5259909324609695  0.2282829670690209
  0.6241698878873870  0.5460219926121551  0.2302278146622886
  0.6808696589209619  0.5339146906087729  0.2546064999590111
  0.9767038450126349  0.5402873737079645  0.2208955797496422
  0.9978016621698593  0.5160314179224549  0.1987739547548763
  0.9982061223883792  0.4948673785205293  0.2552545767743100
  0.9723463685046706  0.5219054853483998  0.2530340415803354
  0.5273141359774838  0.5899932144112983  0.1987173833541619
  0.5595370703763218  0.5782128355211354  0.2132409085271643
  0.5827114786064073  0.5940196353296077  0.2416502450460156
  0.6153595298608332  0.5758919167382835  0.2507398782406344
  0.7945929393944595  0.5629790124637695  0.1972296572691676
  0.7701622742984583  0.5920641926331526  0.2037991369782130
  0.8231722751373409  0.5528384895408750  0.2187413167499029
  0.8394632154447963  0.5864074733283722  0.2159283274991848
  0.9730008509368649  0.5784059634054486  0.2228179689022516
  0.5162461726799692  0.6443421091594647  0.2316162425567169
  0.7830939855961994  0.6127784812137896  0.2309566943258561
  0.8515363454031666  0.6603044233873068  0.1965467260690190
  0.9690628735279823  0.6004115170380767  0.1944152816229812
  0.9723701751224638  0.6362897580286330  0.1957381480098420
  0.7414461780697790  0.3511941899616384  0.2809085402744519
  0.7358159334362534  0.3715476742888181  0.3128401798305643
  0.8258590734909282  0.3796387543339690  0.2604989973551908
  0.8455730658370825  0.3475390414628889  0.2525863113644537
  0.6972063775685345  0.4130451757195794  0.2812029585231091
  0.7024402645896780  0.3928661621143397  0.2501940292772735
  0.7163158152499907  0.4036796343938088  0.3117922349761192
  0.7804511593353389  0.4412180189300375  0.2753836112418022
  0.8227757285539508  0.3935240369009288  0.2962129630293723
  0.8019471748091238  0.4249970298983184  0.3014577935402588
  0.5600903266592738  0.4930716024614305  0.2582374079493839
  0.6137800790711646  0.4633387693724533  0.2608181552904136
  0.6682120877888457  0.4623341669724622  0.3117178884591936
  0.6697751920354322  0.4390977797669213  0.2824649520265266
  0.7582913517224138  0.4721315560382590  0.2814226619272983
  0.7326186674617433  0.4852791356739702  0.2553165753091198
  0.9388224943839576  0.4921885673061189  0.2937630310572353
  0.5258615187019539  0.5027049893498197  0.2458300222855958
  0.5808500222145696  0.5079798979386139  0.2866364628301298
  0.5714584447261709  0.5358438086758807  0.3086227314278797
  0.6137304226345457  0.4887619852171918  0.2884374175718683
  0.6414293213298891  0.4895981879342470  0.3137094301804153
  0.7124193133613300  0.5154300894693999  0.2669577980825827
  0.7215092948552242  0.5332501923003646  0.2990810951529054
  0.9494234053470675  0.5253543834590523  0.2826257442226646
  0.5403959615174880  0.5581685662339509  0.3061753035530623
  0.5115201522993633  0.5597180419403764  0.2826023090515598
  0.6408944849463361  0.5862806368427130  0.2779884474690784
  0.6987963692702207  0.5628240563240196  0.3054121580337611
  0.6718111068480636  0.5634177336446222  0.2791026144358124
  0.9464765860227315  0.5571646414043738  0.3030915222781429
  0.9655166278270073  0.5885189821819651  0.2916939789119984
  0.9781993774351776  0.5986661567688273  0.2576041694343605
  0.5458311446565287  0.6482933368095783  0.2555187964042448
  0.5763267840150536  0.6263674198510837  0.2618227191098980
  0.6014946657733355  0.6378745306315435  0.2905228218700776
  0.6334511246356850  0.6174967859025344  0.3001952435707703
  0.7663610924348869  0.6386757128893461  0.2505817541668149
  0.8207517931350941  0.6123252195136958  0.2391741069667239
  0.7919328823962454  0.6524367675165913  0.2739967255533421
  0.8273567482781312  0.6415263098932639  0.2636740470152714
  0.0004467774291477  0.6300536098035528  0.2545923251782793
  0.7483109169647936  0.3603186999487253  0.3466122620207496
  0.7677989606290577  0.3285247979949689  0.3485360288243605
  0.8381724576377066  0.3757628038414957  0.3270506644853513
  0.8485668514163660  0.3401038724336607  0.3203224279210684
  0.7136921119697671  0.4261468288091962  0.3416314958592657
  0.7311886922157256  0.4174928296673420  0.3736037733375926
  0.8192045907881149  0.4253279590909637  0.3625366648240920
  0.8009229307849656  0.4408641984141607  0.3349450869946539
  0.8357229031357125  0.3917056968133204  0.3614427956197578
  0.6923976873379792  0.4806676612304226  0.3689864113185408
  0.6920691003942173  0.4568804126767762  0.3400451780306318
  0.7828835934601811  0.4730303791034890  0.3409474056197863
  0.7626817507775123  0.4896221496930097  0.3146486150662003
  0.7873468170669851  0.4901309576764346  0.3732016179579107
  0.9162555601306897  0.4925503847235501  0.3510697513375998
  0.9297807969722455  0.4769333727927174  0.3226634992306849
  0.0116759782900372  0.4957596239511464  0.3216312202210580
  0.6446160043914082  0.5133344460734267  0.3422299910176697
  0.6243826315417410  0.5430921335145281  0.3527380525175243
  0.6692922247073628  0.5092850494839486  0.3693139128000388
  0.7465950490597605  0.5223260952731894  0.3239270031420094
  0.7512355744546992  0.5413520251091097  0.3574870903080082
  0.9169468189781689  0.5274411974433399  0.3587878747962521
  0.0104475633844613  0.5375151643278684  0.3710717096232127
  0.5445238064995217  0.5846784521191878  0.3324693667948831
  0.5924015191242415  0.5505293483568175  0.3375219250290429
  0.5748929543511897  0.5794876943160513  0.3524443868229822
  0.5879885757488573  0.6020777324389658  0.3784541038520313
  0.7046993110730772  0.5829272393253573  0.3357351681216305
  0.7284496632434532  0.5710760157998714  0.3628354023093955
  0.9330372756283694  0.5557715372606794  0.3381870450751776
  0.9383926659762651  0.5838551146347231  0.3626242764322151
  0.5263293160978919  0.6157067330912759  0.3358621669282276
  0.5376122383529131  0.6404264979440309  0.3623443501499502
  0.5679093775115277  0.6337597335155390  0.3844882417370719
  0.6443521681307717  0.6607412636031053  0.3509967774369826
  0.6543354324975431  0.6292305300854706  0.3317285329151912
  0.6846346149279884  0.6129110854656177  0.3481818832174147
  0.9750122832176096  0.6125982871390698  0.3185722705820980
  0.9613398300887515  0.6107142215362495  0.3533543174924626
  0.0024546036710328  0.6564145598685371  0.3516127403303395
  0.0008145061769900  0.6400351472108049  0.3169093035269399
  0.7713876462880808  0.3367595420947332  0.4164344580544064
  0.7591673241401782  0.3724348714622422  0.4109259580200437
  0.7858021755647953  0.3220564596800923  0.3820972580707241
  0.8533683809764285  0.3545544908759163  0.4188657113154264
  0.7463182273795159  0.3831605722613199  0.3770591838534412
  0.7594484257733813  0.3983438891275429  0.4389918436798664
  0.7473940665645044  0.4334921559333322  0.4339022910513381
  0.8456136750556519  0.3852407353138245  0.3986806465442278
  0.8402512662613885  0.4184049361623730  0.4180793585111257
  0.7128627092381136  0.4750662659375373  0.3990711452846413
  0.7315938110033222  0.4426311865602020  0.4016542740354711
  0.8211487250373199  0.4417619495908542  0.3960273686205508
  0.8078937477597133  0.4754154946215988  0.4006250608889116
  0.9969135421617765  0.4454143750637908  0.4072336122006736
  0.0002598458125024  0.4761084619534848  0.3849872328124636
  0.6677378422219457  0.5375773028404854  0.3947121001154300
  0.7122988052729312  0.5020657529316953  0.4257603603831647
  0.6962859398605297  0.5366303137103082  0.4195861785369194
  0.7759023407400930  0.5251926569464691  0.3819454938741285
  0.7929779710973289  0.5310351728295271  0.4147732001450378
  0.8147292654219487  0.5022285076446551  0.4265318131459545
  0.8870085597742704  0.5284889540633135  0.4188749248036593
  0.9072371449073583  0.5421995562174665  0.3926495294750013
  0.9892281507635188  0.5287800780152468  0.4306978096357779
  0.9980280391340941  0.5129202643074001  0.3964425055587180
  0.6380960321047695  0.5600797118992717  0.3847988266500111
  0.6199451156853106  0.5915743732139860  0.3977551719224972
  0.7131687730749310  0.5708615959794860  0.4271537381757866
  0.7189975013998493  0.5902943526065197  0.3947842631654865
  0.9214598529689219  0.5767621675619635  0.3957085559592759
  0.9174811056478637  0.5966887852993292  0.4269847182313127
  0.0004442983526114  0.5651597424722229  0.4373273662168013
  0.6098206427535470  0.6472930711593700  0.4291673636505121
  0.6259332682234300  0.6160481790162136  0.4254554010772195
  0.6979205715399075  0.6201979116938946  0.3841093015919049
  0.6904415917654955  0.6518266889167672  0.4028523110384603
  0.9367248947772923  0.6296431598564977  0.4318897838084315
  0.9755497669764844  0.6387314650390652  0.3738906103984919
  0.9649045651049019  0.6471649479635715  0.4093531702664507
  0.5131892646317792  0.3728891983456011  0.4903584423428071
  0.7751357404380872  0.3514710788179068  0.4802157299667946
  0.8648217012845764  0.3607084919745523  0.4548229403722923
  0.8774975417511212  0.3311155836684366  0.4746261236776628
  0.5023823872896389  0.4278996282322951  0.4516889950059904
  0.5528778295968653  0.4243649881036197  0.4948280387714594
  0.5317020020060396  0.4438767394722213  0.4693686083901956
  0.7703666695801421  0.3880300989382293  0.4731366812923152
  0.8491613496383463  0.4256134148731155  0.4535824079103468
  0.8617873042664377  0.3945542651385203  0.4719454941216764
  0.9732241916642779  0.4201448823548328  0.4977826854700043
  0.9866377233841239  0.4128708404026736  0.4634367436693302
  0.5387951395639095  0.4800887000340469  0.4630769857045825
  0.5128215164327640  0.5005991054721112  0.4430745954953050
  0.5685815153058779  0.4961061360932181  0.4815381927832622
  0.7465655982122749  0.4590329149764829  0.4616705018110691
  0.7593728407457448  0.4492316384253361  0.4953550704371533
  0.8462715988908666  0.4604459140013306  0.4711817258903434
  0.8379260363275917  0.4954891788489251  0.4561337518491681
  0.9617512111229636  0.4570080529503959  0.4986974785930099
  0.9841621675349354  0.4446859995881279  0.4424580549371696
  0.9704780034097801  0.4728338977816357  0.4647298621749863
  0.5170860532847181  0.5377592428324984  0.4441380127563626
  0.5484222125908623  0.5522243056871997  0.4596552016384536
  0.5745442716877354  0.5326898874997767  0.4784593349081520
  0.7308603847915072  0.4933787416187356  0.4571723745720045
  0.7347229048290069  0.5178939926282083  0.4849464308753195
  0.8551805447501581  0.5258126115685879  0.4729161166906352
  0.8770407940774553  0.5467370235088299  0.4491621726720317
  0.9570077728883867  0.5312796809955991  0.4887283624324458
  0.9713735001344719  0.5105827634200157  0.4597450311613456
  0.5501416673730488  0.5885520645525807  0.4633640612509407
  0.5758028974321848  0.6067330325203986  0.4830919970943183
  0.6032380306913803  0.5882719692270456  0.4997269805719586
  0.7233696674675112  0.5814204304809292  0.4608104543500973
  0.7316995490476403  0.5549171366637378  0.4862985612828872
  0.8796238633277599  0.6032867547487494  0.4832411406007033
  0.8921291239629500  0.5823287772191086  0.4543456779720543
  0.9628061256016116  0.5686708392483099  0.4918907432149763
  0.9888642533425480  0.5830250874412923  0.4687097022151872
  0.5201651578179561  0.6106183202531407  0.4610466980457878
  0.5240593068782534  0.6419742110662393  0.4824728066977496
  0.5937881024050309  0.6618447063719802  0.4996297262017763
  0.5637202028285854  0.6420699344479712  0.4898573817435989
  0.6236395567163898  0.6447447884988391  0.5177835334733136
  0.7347505891932983  0.6144937744104003  0.4756749164804066
  0.7299404742291521  0.6507426059643862  0.4641018557659496
  0.8941583452723226  0.6381791794183259  0.4837845986148457
  0.9251960844045337  0.6481624683659463  0.4626067347768393
  0.0048928348779539  0.6151551800832341  0.4792307426236885
  0.5186988518281621  0.3305937278930269  0.5395047546316021
  0.5574936666759970  0.3349827989864145  0.5410108009045732
  0.5661758147407172  0.3699008870231812  0.5296455405200627
  0.7809374975675686  0.3423181054879411  0.5165164867280037
  0.7851455461060095  0.3683355010370790  0.5427104894207413
  0.8864382296504549  0.3682767179460084  0.5261965373135461
  0.8955551849411095  0.3712417779155306  0.5621546752649945
  0.8915925173985201  0.3354400161508295  0.5087495187975086
  0.5444416120176608  0.3886859852792481  0.5044151144758895
  0.5972636119751913  0.4245111598841680  0.5431670565828145
  0.5917358942080556  0.3883306944363041  0.5498269379148696
  0.7713313844348701  0.4142207979646942  0.5008851481058790
  0.7789774188864359  0.4045740282725484  0.5361080300875377
  0.8638649980972616  0.4299808529479219  0.5265966947150492
  0.8694250765968319  0.3971296326576991  0.5084326988147356
  0.9651394672570356  0.4055574564720764  0.5598188082380613
  0.9764999111892882  0.3962059055042914  0.5254988878508031
  0.5136451999083325  0.4895479561032679  0.5541199279116132
  0.5809301275859627  0.4416512222284750  0.5138438623339245
  0.5885101602088052  0.4778041535701884  0.5078674167312558
  0.6233078988841004  0.4803515228251778  0.5634964898515411
  0.7574622101552833  0.4733246749597829  0.5243350549623121
  0.7643690462186759  0.4640784602339931  0.5595279036751668
  0.8531964919617665  0.4945476179462451  0.5279777640081481
  0.8543246183537657  0.4616740943354341  0.5083192115343104
  0.9479589739284116  0.4780681623848725  0.5267017396102257
  0.9438185233484481  0.4682792880186473  0.5631294156828788
  0.5282032463405525  0.5218087543187673  0.5671775076116086
  0.6004571290189127  0.5509000821380080  0.4999351730779932
  0.6118782546841059  0.4966648503265682  0.5317068418878819
  0.6189667206096064  0.5332542738231536  0.5272804378256938
  0.7494129088099545  0.5374143646287071  0.5436125500700745
  0.7476831225481796  0.5081452687332916  0.5187587720608233
  0.8536358904238366  0.5279594188880535  0.5106262801171495
  0.9280682590747036  0.5355085438796676  0.5458678779076633
  0.9423270655751951  0.5142408391797247  0.5189150754306553
  0.5164265654708392  0.5545319465697686  0.5542638936336994
  0.5169669591039088  0.5883442397178688  0.5724618631125675
  0.6410582790505385  0.5526151515544124  0.5519427385097482
  0.6490452214356423  0.5898584921020252  0.5479478738856300
  0.7471380045066394  0.5683081913996011  0.5181372206582103
  0.8500158137767037  0.5602385370782605  0.5302160083373568
  0.8521197682657269  0.5940202586898665  0.5113243509042035
  0.9262020776106863  0.5723705323067356  0.5458791317714899
  0.9474684504669703  0.5897737181024524  0.5210445809899115
  0.6271660409984112  0.6077313815265047  0.5219875975420711
  0.6773014097472955  0.6050806850445551  0.5698403938494450
  0.6928917854367793  0.6407055094194429  0.5687512917044525
  0.7567671943113867  0.6045120457495589  0.5076437571182854
  0.8261005612301635  0.6224005439608555  0.5169322410785258
  0.7869929701517361  0.6258379570541439  0.5132268050572947
  0.9436858400937468  0.6499546733649811  0.5547658737268439
  0.9593696265893153  0.6244688919527116  0.5292464854513479
  0.9915704977133325  0.6323400939088025  0.5109523718846010
  0.5301026521422063  0.3530229563962935  0.6265882499550153
  0.6048687887217844  0.3348663342094854  0.5853903241352190
  0.6063535818498338  0.3718413417113258  0.5805741473883483
  0.7892902953638390  0.3571403748647896  0.5775142199590063
  0.9139546588726670  0.3435178592918769  0.5790636334877785
  0.9234260871702914  0.3472427765618870  0.6151837852108828
  0.5232202796843660  0.3911336193293632  0.6154697186768763
  0.5388158404984473  0.4257694282610839  0.6284289178253549
  0.6195356738347281  0.3931440089284139  0.6082882060498545
  0.6231573070533805  0.4297456209347736  0.6024446471947819
  0.7756955551436802  0.4289909199734154  0.5646012684407055
  0.7795112198033943  0.4172857348428217  0.5995715015769326
  0.7874904831203376  0.3819632463945297  0.6048078950022473
  0.8709732255396531  0.4312976833026921  0.5634625851687858
  0.8859990189011302  0.4018894785760797  0.5811334408369687
  0.8914884618094688  0.4027490897300954  0.6179639930453577
  0.9816261025601456  0.3844553860323039  0.5855372152789355
  0.9836740635904293  0.4019726740382634  0.6183702159270348
  0.9635272405442821  0.4323833285852406  0.6124396045797483
  0.5186764260141724  0.4575532349107235  0.5739569708524856
  0.5378550591999038  0.4575610976419108  0.6068812319362309
  0.6155388146792781  0.4444969801184063  0.5691081586954693
  0.5509696698770599  0.4914797859036826  0.6200187705109538
  0.6456883665830672  0.4862748967822260  0.6249990650011965
  0.7581596637385830  0.4743814476354397  0.6237153348731098
  0.7581508378477827  0.4889297775718355  0.5876398912240537
  0.8623686772998456  0.4621021229351419  0.5832143563088718
  0.8641592235867541  0.4613596907959268  0.6207274327022260
  0.8526066819205568  0.4936404271498841  0.5657484603438347
  0.9416267440473691  0.4883116056972617  0.6270437836800994
  0.9536998815693799  0.4361715638980532  0.5765616957865477
  0.5464949141314974  0.5229701068749205  0.5997552864211573
  0.6405235286914338  0.5000644959585642  0.5903810245409896
  0.6522679545917454  0.5346398262640232  0.5831177643982978
  0.7512888594947691  0.5258724931637863  0.5798642477225276
  0.8416980145665091  0.5239936890254164  0.5858545519802031
  0.9343128932926578  0.4925068816776055  0.5905733392151314
  0.9223972371307568  0.5250440398890894  0.5804650482403687
  0.5496182360918275  0.5569693880027016  0.6157858205534338
  0.5312424778389261  0.5890673250392940  0.6060684310945265
  0.6777201198991648  0.5492765404551987  0.6060462651960311
  0.6942690880026068  0.5805085597672772  0.5939330190178970
  0.7491579523975875  0.5500350985196889  0.6145693088768870
  0.7297115704711443  0.5838058542861277  0.6047042306728946
  0.7863019757401836  0.5603129532731272  0.6271919573456177
  0.8034982269491091  0.5885301771817265  0.6109986409885396
  0.8420672042709466  0.5569845230020974  0.5678622311624735
  0.8363569377496411  0.5867565918923937  0.5915236030754064
  0.9126983504128057  0.5536069708422402  0.6032368905899199
  0.9108986623314382  0.5836587007899171  0.5793681290719976
  0.7459373199705392  0.6167029934869317  0.5998167600229736
  0.7268411300885527  0.6458754102950718  0.5852821842287523
  0.7830957354317035  0.6193431488812513  0.6038680264581464
  0.8008377658026592  0.6509802722308974  0.5973824064509865
  0.8560837452767210  0.6184611020510578  0.5894310998600342
  0.8381494748015340  0.6508525110299276  0.5940981913969655
  0.9103623423494862  0.6490764256765502  0.5733975078142055
  0.8929228158437597  0.6171646493503635  0.5815255321302806
  0.5451965825587382  0.3436462137523643  0.6609332431135302
  0.5508245981351825  0.3690875956281995  0.6875429524596981
  0.6279765840472652  0.3419952123566370  0.6467239747345841
  0.6266319775200435  0.3788456079656146  0.6423299649472444
  0.7830112743054978  0.3641800133874850  0.6366266381919051
  0.7823455066847946  0.3271390888063251  0.6303656688372894
  0.9105664484009341  0.3757422970873835  0.6348194589796866
  0.9187283337980909  0.3784455016546538  0.6713524502310363
  0.9584333471327575  0.3300132259708180  0.6682137060073315
  0.5503692148272679  0.4066676318734955  0.6893556565850503
  0.5511216597698235  0.4327465718687492  0.6637759659363256
  0.6333035705287746  0.4017460687160250  0.6713348977012535
  0.6360374714534281  0.4379499268335512  0.6651667044898678
  0.7679397981016609  0.4206074280810160  0.6621868392789523
  0.7723548552482477  0.3834434117537917  0.6663661247085191
  0.8816516580094362  0.4309981877574843  0.6749248113661427
  0.8786562595286075  0.4315876327473417  0.6378549787472185
  0.0044994270102458  0.3979471191261820  0.6485351870008984
  0.9982231847748031  0.4223447228526691  0.6776748931874682
  0.5611096642111549  0.4962472880624131  0.6560515305625249
  0.5610232943769449  0.4671005397806240  0.6782275699895205
  0.6340904557906528  0.4516423120496978  0.6307039366123424
  0.6667317364674041  0.4910716096674999  0.6870075738029391
  0.7438553104772330  0.4747344261881090  0.6868009976983488
  0.7694037221307090  0.4384890078443107  0.6287552242297196
  0.8502040679721671  0.4896303370585864  0.6409996374103066
  0.8503038294165559  0.4871264471154206  0.6787560723155449
  0.9597851635342924  0.4578678215644814  0.6378485979362709
  0.9747230149280663  0.4518803237603922  0.6714242396538738
  0.5655022271283797  0.5306595156568417  0.6714800399516041
  0.6669123818779922  0.5042039490703445  0.6516769175925174
  0.6912115477640124  0.5296769923876011  0.6365203558221803
  0.7284709886315677  0.5276168000642399  0.6430238039423202
  0.7445115256100838  0.4934900113992541  0.6535398017082827
  0.8116048184803826  0.5395828031539012  0.6460157232682692
  0.8153811471680296  0.5406252195311038  0.6837485772612887
  0.8351457507507301  0.5195047344699940  0.6238458367661159
  0.9326538735414550  0.5147705372069373  0.6516979308112942
  0.9147540919942867  0.5466663226332233  0.6401578923833943
  0.5585719742038877  0.5601569262979522  0.6513666109126137
  0.5238646063007844  0.6095057200814127  0.6389083292720678
  0.5433073842389288  0.5915562193991903  0.6656219414330474
  0.8637703010919444  0.5815883238259114  0.6671632120083136
  0.8967874605555785  0.5654632114240604  0.6680163248421053
  0.5554421163240478  0.3583022158160886  0.7232332261934304
  0.5577765584460633  0.3864971266022150  0.7461333869691187
  0.6500699232618002  0.3392692282136824  0.7429814094522775
  0.6421537877441150  0.3521153391088624  0.7096058596846185
  0.7615497360078053  0.3266530018458843  0.6918796250430163
  0.7622001770197921  0.3646007944083668  0.6971879801306665
  0.9449460337232979  0.3583135924736348  0.6891641236132464
  0.9604474516303970  0.3692967368510863  0.7240992092924931
  0.9964671959367418  0.3552384270301998  0.7274116504255065
  0.5549837766959356  0.4159705488001580  0.7253902927222323
  0.6518959953134795  0.4101978451013514  0.7342342662852714
  0.6416071463855566  0.3886218632744610  0.7052525249172312
  0.7512161530314110  0.3837162155703010  0.7300546522757387
  0.7482239731896819  0.4225696521115025  0.7255029638524201
  0.8890403851700710  0.4293929747692829  0.7483024175184473
  0.9020068974844696  0.4045085905550726  0.6913733045145177
  0.9090353062421993  0.4060352679455894  0.7274376453405380
  0.9943482418327574  0.4393287575577260  0.7381808402537795
  0.0104025936281052  0.4169614476246244  0.7139883002773582
  0.5699909490725601  0.4735625965661844  0.7145396521601938
  0.5694575122565904  0.4460014363991261  0.7387512100270516
  0.6515223176020385  0.4465349863236541  0.7276976236390764
  0.6465879369543391  0.4600090133370627  0.6927366357891435
  0.6733288384901661  0.4708409270898005  0.7472522520993951
  0.6891547981694137  0.4932351237404299  0.7192466820619930
  0.7558702960306144  0.4391402591757365  0.6915223261283348
  0.7295507062488661  0.4513564825805423  0.7433709886987546
  0.7246646792044392  0.4807035994843203  0.7188158686796541
  0.8670853334139870  0.4583379756778927  0.6953765717763083
  0.8696769330006041  0.4566091504480786  0.7325803537280401
  0.9628404531734879  0.4761615006049086  0.6972869118485772
  0.9730677759038693  0.4689721483721241  0.7330780702311455
  0.5678492791926341  0.5364260090676837  0.7084063573209757
  0.5755283548579679  0.5069178977502500  0.7294060804706206
  0.8389118771268462  0.5123362981476500  0.7382341788516052
  0.8346960650268451  0.5133375914571390  0.7005463032161541
  0.9412183038777474  0.5062655489383988  0.6877656316324481
  0.9292217718676699  0.5293742684262058  0.7146715531678925
  0.5543379078129241  0.5681230163178475  0.7239136119587800
  0.5380064358184151  0.5942508415059109  0.7022451994306306
  0.8129754699781542  0.5724866686283615  0.7052817897328897
  0.8063331358731343  0.5688461700803991  0.7432299881458755
  0.8440733814348383  0.5929048801432213  0.6963602924966433
  0.8960009585016224  0.5834947433007329  0.7297330890821699
  0.9085386770034584  0.5593398853212157  0.7040909549907625
  0.5094029578111952  0.6153106637069227  0.7154356049319380
  0.8653908276661082  0.6058163410359240  0.7251347635024237
  0.5789036843289127  0.3513858445869739  0.7926820970895606
  0.5740031630835161  0.3849313264860097  0.7785711933631004
  0.6663482552721736  0.3341047098230694  0.8010817669427963
  0.6618158626367873  0.3599368683080263  0.7728376319512362
  0.7446334926069296  0.3620355897937456  0.7626738560095168
  0.7374876723779292  0.3730043827293180  0.8000250060758832
  0.9401318620148672  0.3939957140111550  0.7455489757019882
  0.5885339969183964  0.4153470746462014  0.7935693954889814
  0.6917771069507797  0.4186540959703935  0.7860097986146066
  0.7153602241778497  0.4025730310940243  0.8121011359670810
  0.6680101613379722  0.3965040441518804  0.7663693339379152
  0.9011400121246866  0.4279831157865051  0.7833379082257735
  0.9384440205348439  0.4134018541341448  0.7799165375344402
  0.9606175958958890  0.4362665027934022  0.8012414912540456
  0.5841095748131098  0.4468823144982758  0.7731912290416263
  0.5939633684299410  0.4800815120449408  0.7861574052147002
  0.7003320855148799  0.4513318890925594  0.7683401883704875
  0.8826489528749464  0.4506739402352326  0.8078793338798503
  0.8577966273457344  0.4840267256168405  0.7545902721338081
  0.8656093430632508  0.4820127374673707  0.7915584516507504
  0.9599887645751509  0.4749961884671393  0.7952816574885159
  0.9570750095453348  0.4895707435847785  0.7609117743975962
  0.5725138251479858  0.5443294278648629  0.7809103382401759
  0.5828846163436755  0.5110104026314803  0.7661200238889097
  0.5781940243243799  0.5520299913188552  0.8163325013212177
  0.8330131346612978  0.5395509531776574  0.7964547542121699
  0.8252446066227402  0.5401269707119385  0.7594924758854188
  0.9280759565070077  0.5482113409967114  0.7751873178855997
  0.9383298347386320  0.5216593806962019  0.7512133551320334
  0.5271468121976925  0.5962288751266211  0.7766316361722649
  0.5286289511294872  0.5989483380106169  0.8150127148415680
  0.5515162293551218  0.5704059234182624  0.7610610238975184
  0.7901732671056994  0.5876006015744625  0.8041939518358830
  0.7894193168929350  0.5932236506196779  0.7659366789178649
  0.8987272822006345  0.6004095840566369  0.7914881646863048
  0.9098049530205540  0.5789046667940912  0.7632183421609714
  0.7251524328820020  0.6363205916195748  0.7837187271063898
  0.7534631991731572  0.6495388440478647  0.7610368785697134
  0.8197882218164527  0.6454340086399170  0.7598183583156340
  0.7843822113067787  0.6306017813306031  0.7542783570019753
  0.8726846992043833  0.6260499932497554  0.7856672857983834
  0.8531124396939245  0.6267394488652952  0.7532353991434618
  0.5898779283979713  0.3489860369929152  0.8278901373261539
  0.6055859663729303  0.3787119754078175  0.8455555687750637
  0.6801006707989921  0.3529572322913633  0.8636105715209351
  0.7506816584339886  0.3492097374125198  0.8273577980340779
  0.7535886242697831  0.3599854097478876  0.8633822640913525
  0.6092542733815279  0.4118550923190933  0.8254071088719839
  0.7156670140961516  0.4135145426240220  0.8488005079238249
  0.7397755395906087  0.3941703001750331  0.8716837786293387
  0.8879267707086498  0.4213992100133284  0.8739518495399536
  0.8780966123048781  0.4465354582068710  0.8451374719673663
  0.9508426078504771  0.4071810239879505  0.8616703412711376
  0.9605172364645113  0.4333240910715539  0.8390725933066601
  0.6137736356184804  0.4770201377481003  0.8175498953939628
  0.6284743012854340  0.4437879593986614  0.8311699774969213
  0.6445966572098004  0.4886276160530591  0.8682587458612904
  0.6573848360336875  0.4545217170492338  0.8543340330323523
  0.6907912584211345  0.4391315403875988  0.8660459903279725
  0.8615232003753263  0.4749400732241995  0.8636368976657709
  0.9590892560344075  0.4672464965141767  0.8557058278909343
  0.9564107941282338  0.4927720100262993  0.8287742082223628
  0.5998268152386901  0.5353701240501693  0.8442114461792417
  0.5903355263931547  0.5536397080954656  0.8763807099968683
  0.6201284455754821  0.5041217147156851  0.8425321508196569
  0.8540775609397936  0.5079691818344898  0.8490415902244948
  0.8527015013785659  0.5110662515971047  0.8117696756269634
  0.8406837729593735  0.5340234119666037  0.8723911026522019
  0.9292554959851984  0.5509369605748576  0.8128711737161474
  0.9419280215386491  0.5264770545646471  0.8376763748872376
  0.5565750025140677  0.5793103309748112  0.8309268415714656
  0.5631686588101574  0.5787373012312126  0.8672878000120429
  0.8216862173869851  0.5628254730856214  0.8573156206382497
  0.7726157078830100  0.6046041983337179  0.8662231055288603
  0.8161596183136348  0.5644213113043053  0.8193813073786548
  0.9114877743562846  0.5832429273227544  0.8226448934404718
  0.9041621820351605  0.5925731183444839  0.8575331617742772
  0.5054991422232807  0.6191071957766343  0.8394510644304244
  0.5121321286102470  0.6175679647841362  0.8768224221646839
  0.6821137768859655  0.6551991125618355  0.8251645824093677
  0.7088211740978634  0.6343001781450749  0.8415048932538614
  0.7339760263134415  0.6209101442748949  0.8169163958698538
  0.7660274222522985  0.6046699989802951  0.8283650095721249
  0.8541600140762470  0.6474129587481101  0.8111627115849264
  0.8829727162942539  0.6233301236160408  0.8680383905968466
  0.8587862121429261  0.6467782386016663  0.8483115358875498
  0.6019712685258364  0.3400744435297242  0.9001167782054000
  0.6188182223270808  0.3690117198497451  0.8801344234245174
  0.6562953621313908  0.3728359075041161  0.8856571636906210
  0.6812501341684241  0.3468039870870107  0.9014797411524834
  0.7616833649953956  0.3346831875635085  0.8921558209028734
  0.7630306777643512  0.3445078819598691  0.9294803586418535
  0.7699522745973655  0.3833811791201449  0.9300473790193455
  0.7466849169910872  0.4044627345309508  0.9065355533882394
  0.7286911807319700  0.4343046228658769  0.9201069950569147
  0.8649668981955406  0.4301129825485395  0.9036758742493087
  0.9239169500243624  0.4168130642594088  0.8857131070796268
  0.9336836940725266  0.4451006192974979  0.9114104982518858
  0.6989574722411659  0.4504942620800532  0.9019326356384880
  0.6781303620554063  0.4778460156784539  0.9206229715966645
  0.8553655600354514  0.4664203748718139  0.8994815456869556
  0.8465767022535360  0.4927525060062150  0.9251805744593665
  0.9476614729168003  0.4736185388816803  0.8909976321702455
  0.5992335652741426  0.5473456965439100  0.9121251225796333
  0.6501613816264393  0.4987171878023078  0.9038796468248366
  0.6282514434059812  0.5240002345588959  0.9246850069752307
  0.8404685924878237  0.5271515281480982  0.9097202060628028
  0.8259031914366949  0.5529941706181551  0.9325807994510035
  0.9343034021800157  0.5350392745813535  0.8738972310701646
  0.9390272534448538  0.5092184940304699  0.9006296146866063
  0.5405620006307287  0.5961301045169565  0.8901659909772798
  0.5473755804883005  0.5895911392341717  0.9260264081869816
  0.5764913658927512  0.5670274745657981  0.9367755917350825
  0.8015447734637127  0.5850199694385583  0.8806208781142808
  0.8048751206438184  0.5808100247504784  0.9183455361570259
  0.8988772468877425  0.6067731714506398  0.9295969170850229
  0.9181435388899456  0.5680077861518917  0.8830329915922965
  0.9143146703063886  0.5751484824571690  0.9193286209161368
  0.6278641927359029  0.6623811177301494  0.9092053557043871
  0.6554765054062172  0.6563863082067739  0.8842094960081760
  0.6861250856176272  0.6419273926117506  0.9002858670456733
  0.7469775291262970  0.6188179976992757  0.8906604349299198
  0.7143502441973382  0.6319900441063021  0.8779570882815385
  0.7509722672114639  0.6163481107644878  0.9280445622355898
  0.8843238985844243  0.6297335498969525  0.9042139133438550
  0.8607477823454266  0.6521045185381347  0.9220729366890313
  0.6050507772872231  0.3327711293967322  0.9373349567293406
  0.6339801569596569  0.3490941077289180  0.9923435595810940
  0.6355155555616733  0.3417200157136137  0.9570580115703240
  0.6735766575497710  0.3377483864904651  0.9508563005525943
  0.6950044843671793  0.3467778272692733  0.9810028287509615
  0.7314770312578361  0.3374725821254259  0.9894750935779183
  0.9926949359374730  0.3597567849715567  0.9523662261890319
  0.7703076353407755  0.4313782459072439  0.9709055902523044
  0.7928751271561183  0.4059489565068257  0.9521607603667452
  0.8308926747231623  0.4091181957490737  0.9598920773709574
  0.8628213328183494  0.4164893938795859  0.9388377410512003
  0.8908612334259945  0.4303538991127245  0.9616020393107317
  0.9941865219711659  0.3837871949027944  0.9804199199422226
  0.7153906479914960  0.4671340741003456  0.9726377578381503
  0.6857864010993063  0.4844114486119308  0.9568041729474358
  0.7385844282504839  0.4440792086437147  0.9547010968767142
  0.8449774048759053  0.4882293132202907  0.9622082481488154
  0.9272616395167961  0.4866501364755870  0.9602136909114565
  0.9189919901181896  0.4518221967064024  0.9458956864123962
  0.6649001858836986  0.5083618201896055  0.9776051608644147
  0.6356103731345875  0.5261106785725334  0.9616648166330573
  0.8335308952222857  0.5124100470026822  0.9866031801349405
  0.8242038105069175  0.5452035031369964  0.9689855279228233
  0.9113494827981344  0.5607305479665793  0.9814870734754713
  0.9304522926083083  0.5156582931051213  0.9363592703191357
  0.9199837317920956  0.5504977470224911  0.9461448772186722
  0.5630795476454677  0.5857251583240389  0.9982929529831963
  0.5836282463006272  0.5657063316194840  0.9734133310997042
  0.6138997528171751  0.5469946003944467  0.9849123341296248
  0.8046093009952150  0.5664629928429235  0.9923655002433224
  0.7809304606915610  0.5985783729783776  0.9419012828601655
  0.7820296651142064  0.5923400657920589  0.9791060055045413
  0.8842505888029170  0.6141075900260838  0.9638119648166028
  0.8898986596861118  0.5910291637330032  0.9925636498616945
  0.5334963115884542  0.6050924319483895  0.9864488084973266
  0.5253185483510054  0.6077947969278727  0.9500487675896954
  0.6319378593341420  0.6629018618836270  0.9468523257839421
  0.6626974527266197  0.6486223204007423  0.9618517945325942
  0.6898566579082658  0.6382676085317822  0.9377157517614110
  0.6683902023625574  0.6501383915183609  0.9990988059485284
  0.7261841401908445  0.6227291650794681  0.9888477893760663
  0.7225289492795107  0.6261203502782413  0.9513987595776473
  0.8322330297871142  0.6547665887305361  0.9799136391613005
  0.8598060401968894  0.6426173608760035  0.9583660036191067
  0.0021957845628295  0.6741851514767759  0.9443211736139830
  0.9887711080327344  0.6634445900120527  0.9791719917812095
  0.5961846324691044  0.7096734591457495  0.0288641683017345
  0.6451637861627827  0.6691359460298030  0.0224015014335699
  0.6520941984227276  0.6726956951630036  0.0601753542832969
  0.6159006044045334  0.6865432374007689  0.0065538614288271
  0.7188432902966915  0.7143862003087533  0.0194905859991315
  0.7477545552762613  0.7002270824137531  0.0382367552190284
  0.8026804166676105  0.6644162867331654  0.0361463376914870
  0.7759974762840172  0.6843777582021395  0.0199244487890413
  0.9471323003600146  0.6788968183051636  0.0317158295595333
  0.9218517786320408  0.7022214692066542  0.0477561320562107
  0.5713588202561959  0.7299468801134521  0.0102403433147345
  0.5557228452835880  0.7603189654327323  0.0248405011262726
  0.5624283370024190  0.7677142452218529  0.0607653023878340
  0.6948437993667075  0.7337091460724001  0.0408944528082284
  0.6675544032797978  0.7545060976283290  0.0254138537431739
  0.8576168068514055  0.7795556333443294  0.0276960901070894
  0.8777701374262248  0.7528934464424314  0.0445299871515221
  0.9039208927183829  0.7291417698624962  0.0274962954690178
  0.5233371587126637  0.8311569671966161  0.0279513864060998
  0.6473448595151178  0.7824898822373998  0.0418903723247753
  0.6260034646801300  0.8068959321640078  0.0214212511271360
  0.8202316619986473  0.8280598110165592  0.0210527323990517
  0.8338159846891234  0.8035717094207662  0.0467230202023642
  0.5085883045053452  0.8648607028691596  0.0255278932499287
  0.5052580306411502  0.8791278587029743  0.0597061132089807
  0.5990398581881449  0.8655779429191296  0.0123522608098745
  0.6124090428650807  0.8395190013634701  0.0359831561360335
  0.8021807598492741  0.8594502442679213  0.0235741717982201
  0.7899175224773960  0.8758297855903127  0.0551640429042237
  0.5876535110440209  0.8990562051413262  0.0260385246415841
  0.5845644442402632  0.9278985352721515  0.0024147815420378
  0.7632111905405174  0.9344528556055235  0.0665843592468485
  0.7769101053973552  0.9094375611061285  0.0436745119867671
  0.9885751251602631  0.9429973974713639  0.0118225594584573
  0.5624517031311399  0.9643373436662938  0.0509839312550332
  0.5741607097936110  0.9613014051441209  0.0157036783634079
  0.5780157992821731  0.9921623433923523  0.9954404681556122
  0.7533006592809264  0.9675365249804770  0.0511162021801774
  0.7600864186983803  0.9753344220277813  0.0136260509435249
  0.9782263302948678  0.9753638824427878  0.0287257751898738
  0.9646137248625525  0.9958959592009439  0.0620225950778707
  0.6036614767409371  0.7163613934081781  0.0663148802175911
  0.6311686568843002  0.6955497991779127  0.0835901637646959
  0.6400275805507547  0.6964520102157310  0.1215750828437402
  0.7405905189752185  0.7072582604995736  0.0741405418044019
  0.7599127003644067  0.6966328209460627  0.1038317768830146
  0.7898619890746494  0.6721846342817299  0.1029757097443536
  0.9387549004851894  0.6789066068586886  0.1083630618153801
  0.9172019161823002  0.7006865119709255  0.0852720286726095
  0.5843755153179352  0.7452966557199415  0.0815747324250780
  0.5856615240792827  0.7618695696187230  0.1164191597119707
  0.7090277168559274  0.7291398869484381  0.0754243477178676
  0.6981472034433358  0.7466478715654642  0.1056070923180393
  0.6719374237722441  0.7735024152000349  0.1048152302346517
  0.8732035427845840  0.7515702641326161  0.0819137678583250
  0.8938119294432958  0.7257033622123136  0.1007529619352872
  0.5518578110687121  0.7979225801962567  0.0814683416769612
  0.5327777759624294  0.8250103458598219  0.0651266142288412
  0.5664249956616093  0.7945640728308950  0.1177880466378558
  0.6508002009449654  0.7906370715675730  0.0779293963294192
  0.6357444270843450  0.8226421107707015  0.0926710824356588
  0.8518657760477498  0.7778568073436026  0.1008552568281375
  0.8314291303194601  0.8055081324781196  0.0839571216054510
  0.5215634033078186  0.8556450260975591  0.0838224652957490
  0.5292297087334927  0.8662935568678402  0.1180745659831269
  0.6023504382230256  0.8809666345148733  0.0870083520000707
  0.6165549580071602  0.8480878976003526  0.0730779470531939
  0.7940118160427776  0.8658302118491217  0.0912613667991921
  0.8137797659009860  0.8339310292782016  0.1052501243681782
  0.4935988482280952  0.9134890596552537  0.0661408796367979
  0.5856438760867478  0.9052769870499688  0.0633179065898142
  0.5701819705168300  0.9378018773166945  0.0759845418465716
  0.5690279127460787  0.9473833937849143  0.1128113702370100
  0.7627936802184316  0.9257643496203257  0.1037606835727337
  0.7795410637594302  0.8924748147078253  0.1152601376051556
  0.5469398556518669  0.9963291884162727  0.0626887636650735
  0.5346065456346616  0.9982640556456049  0.0979077864220379
  0.7376974316142465  0.9923467617053550  0.0748021055023751
  0.7342870051045981  0.9840942011824406  0.1126736901966718
  0.7509211091786067  0.9527421451768683  0.1283168987700588
  0.8921835114128706  0.9894185256190899  0.1260910654891205
  0.9528292043566196  0.9892420616973048  0.0987350535267017
  0.9167538247466089  0.0048740936049898  0.1025304637520033
  0.6280623620049242  0.7213906719896722  0.1480769845731810
  0.6671997025965329  0.6726043355724957  0.1341448415972758
  0.6775186253844636  0.6723146856785150  0.1701168779513074
  0.7480141800089992  0.7138220278443245  0.1361119873159767
  0.7679925837125546  0.7088301970860255  0.1674475844041390
  0.8061497576318212  0.6642692784715495  0.1360037928228383
  0.7964161742246711  0.6835313910413400  0.1669436805282918
  0.9386029461559836  0.6802493998889797  0.1474734367028522
  0.9143237632159033  0.7054224071448807  0.1616739150377470
  0.6048689037684174  0.7510796842869044  0.1453691342869037
  0.6059034578197067  0.7721994447338346  0.1772252523877292
  0.6423442487698731  0.7238959613945330  0.1832363724512181
  0.7195620473831051  0.7398749789287398  0.1364506024848481
  0.7159268505474023  0.7630465030590509  0.1660271422216939
  0.8774917805226754  0.7544371966780234  0.1545118776632753
  0.8949847180286614  0.7270058345640119  0.1372813157043946
  0.5892384396019930  0.8054629834621254  0.1812771070870343
  0.5671187363926075  0.8178016808911481  0.1495522312440732
  0.6488601062514994  0.8253428822664383  0.1278238904998819
  0.6700118251125212  0.7954399057198659  0.1347649748063592
  0.6920075948644854  0.7920098006777798  0.1642149693889476
  0.8548057125527803  0.7782222736410397  0.1382506568114870
  0.8399447931354397  0.8046773134002935  0.1601274017571403
  0.5476410652400789  0.8509708750158134  0.1487600458803967
  0.5432589070166147  0.8779982230515766  0.1764087187186236
  0.5131495577531557  0.8990190449635322  0.1262635779206495
  0.6058969257592821  0.8944604877627886  0.1218369679660152
  0.6275963617204150  0.8822993717744309  0.1497021959353887
  0.6492987750857420  0.8528020216310306  0.1523888771923892
  0.8077832192398527  0.8605393720385356  0.1654818364752118
  0.8193446197665025  0.8322703318611241  0.1432361887073934
  0.5189020660134595  0.9051002478447631  0.1626575271147062
  0.5902596506988076  0.9269698075297805  0.1344569075049155
  0.6046900068165565  0.9364868023372050  0.1682701406260360
  0.6279023057243499  0.9086449499417658  0.1762526911969725
  0.7813572722413763  0.9174873082164580  0.1748655527139260
  0.7865154871665614  0.8885941046618178  0.1520237276013812
  0.5499836124108917  0.9776002563193341  0.1253584845312293
  0.5483397212474311  0.9924748322775576  0.1610586906543615
  0.7644817213305518  0.9495733771121637  0.1642692751778015
  0.8394616586645310  0.9675280280381090  0.1761480670961393
  0.8291207397693902  0.9869832442141295  0.1460123605729503
  0.8764615509571410  0.9617642691419280  0.1820745001781840
  0.9030133903134991  0.9704729084797672  0.1561336084627007
  0.9409577501643874  0.9675891410231832  0.1616985336266963
  0.0044779336591158  0.9623318834309046  0.1414667193459204
  0.9674146883944621  0.9734581956534119  0.1329552975914495
  0.7108399030019500  0.6668881179658189  0.2208732726147584
  0.6878499741449599  0.6974294444768084  0.2256337539975008
  0.6664215952708246  0.6989518406117756  0.1945108122732625
  0.7358859966536422  0.6604215247709486  0.2473775133565844
  0.8205870338774756  0.6835744216651758  0.1953347835088829
  0.8137215756601409  0.7078825865590612  0.2208147623272623
  0.8725196694126385  0.6696994536248861  0.2284916389308281
  0.8902276423838470  0.7037941023360179  0.2278417851338758
  0.6426522001060547  0.7716680071004274  0.2335059486020888
  0.6301453988090430  0.7556360027582802  0.2014383394763469
  0.7640724641353875  0.7333597032698723  0.1960859827615748
  0.7392126289541040  0.7613378554567759  0.1951045276531004
  0.7896257399633928  0.7340593088043371  0.2242017028728789
  0.8851912805383665  0.7522672606645160  0.1904549822863396
  0.9034763630536046  0.7191365461572611  0.1966776471664652
  0.5998893567627887  0.8234301704116144  0.2146956830762878
  0.6273896452109148  0.8071108059113643  0.2393224070295355
  0.6936062090471823  0.8205545532055282  0.1884185016901422
  0.7180277522063719  0.8194060807641377  0.2168114669771844
  0.7407336084576194  0.7893675914902121  0.2200288390617715
  0.8693372287736487  0.7754658027847228  0.2143091206708672
  0.8499499523466810  0.8047622983645059  0.1974209647397208
  0.5602932625456281  0.8810547626711405  0.2094497179045841
  0.5874317966478633  0.8578863392970411  0.2251483796468667
  0.6741262430851069  0.8791262377311778  0.2065726563554981
  0.6719602858982046  0.8506150842852960  0.1825983724415137
  0.7226681857842837  0.8498083467187617  0.2384969359853618
  0.7000051635125529  0.8796128677222069  0.2330886549604207
  0.8202107505226544  0.8623518962932427  0.2007384514300953
  0.8412244972859004  0.8353716096721457  0.2159878815580399
  0.5559761243870701  0.9113847125071475  0.2333720164932307
  0.5284608194124040  0.9377280185976211  0.2362613483841663
  0.6519986386098711  0.9094717306981031  0.2035209140120931
  0.6547957419216027  0.9409077750748140  0.2238678812617334
  0.6830201830663041  0.9433166651319068  0.2481931304465758
  0.8154654689862780  0.8915453951747607  0.2251251691820609
  0.8018768073399535  0.9219830256181502  0.2073526302037382
  0.6033883112422970  0.9664152772905047  0.1906944354663406
  0.5755058229697542  0.9918195999608553  0.1885308482151219
  0.6347699469305341  0.9998774077716973  0.2405706762247549
  0.6309083177478660  0.9694495035994585  0.2180127558618990
  0.7750747654531792  0.9758248942975920  0.1897374728145060
  0.8298163964844550  0.9769752711153489  0.2355377797917709
  0.8105551502491242  0.9617033987299869  0.2055398362488632
  0.8621145365313163  0.9578130390552667  0.2444129999846328
  0.8882568414205844  0.9555652237421368  0.2171593764543610
  0.9248441868266952  0.9578949918036002  0.2258900694243726
  0.9509581477102134  0.9619480252746471  0.1980052623287826
  0.9876725834596020  0.9618195810145860  0.2069125922038448
  0.9969113684356697  0.9651139687558117  0.2440133868599438
  0.5376771493089756  0.6794553542493368  0.2750729176854872
  0.5933759692400142  0.6701895223515842  0.3095228497456413
  0.5617080538557701  0.6911452279797264  0.3005993465817008
  0.7412101711444248  0.6858179194764270  0.2744964479841415
  0.7764981697414924  0.6821739117230541  0.2898356180704390
  0.8545736090711479  0.6680341399300445  0.2622778362803804
  0.8539290524813258  0.7035644236653317  0.2778671007678597
  0.5540063800568129  0.7227116229236976  0.3182916659411941
  0.5226809751566870  0.7455501495973781  0.3178047952267967
  0.6908062355479281  0.7233248870196881  0.2531093335596140
  0.6711310744493848  0.7568403588680328  0.2569141931087691
  0.7192565730505319  0.7153457074249359  0.2780683877949369
  0.7308505051284017  0.7372332231212638  0.3055753006365897
  0.8299412142386505  0.7227166315092545  0.2999301457843786
  0.8369987122586535  0.7599972572383729  0.3052381033962638
  0.7885408032344919  0.7604897224877725  0.2492981952182911
  0.8752663176795981  0.7260176344321767  0.2549557393900974
  0.8693334863575111  0.7636900233824834  0.2509396259765657
  0.6422220626022909  0.8274821048842248  0.2683692292244513
  0.6828097462865916  0.7783404581327419  0.2863568280300925
  0.7098031584993854  0.7673573923652187  0.3113256302260604
  0.6702374686987213  0.8134947029055944  0.2902388492845249
  0.7677891142772507  0.7897212271979368  0.2470965398581706
  0.7674934299905778  0.8190472890863055  0.2679562757531533
  0.8547895689473397  0.7828119521874738  0.2803159304072084
  0.8480110797129100  0.8205156190622035  0.2820065061290041
  0.6017821157355412  0.8766826716223258  0.2553162247354951
  0.6297318190353806  0.8631702537776990  0.2761709418364849
  0.7507396889227671  0.8507067251097412  0.2636827474947837
  0.7561855848036232  0.8842263010960614  0.2796606598105306
  0.8283983799822364  0.8391691104839407  0.3094078441077937
  0.8149732308708707  0.8734374915363310  0.2964971158039384
  0.8277584627932305  0.8761509932776783  0.2602347377126957
  0.8455185044444682  0.8437988585930907  0.2524196026090615
  0.5843155539648837  0.9105348675197926  0.2590792308815462
  0.6474482361677846  0.8833964469930367  0.3027893559019065
  0.6437049699997379  0.9187100028582232  0.3160356650446432
  0.7041551166014232  0.9119706097174924  0.2517032153438045
  0.7329131381235412  0.9120757856659604  0.2743208140429380
  0.7829537278695519  0.8947377057946942  0.3084437295420273
  0.7785238166083708  0.9375484266097968  0.3115588425065831
  0.5313944771963359  0.9618125713094868  0.2655278604690954
  0.5905854507454444  0.9395058042133054  0.2832741490879616
  0.5633195094085220  0.9652824298354094  0.2856698918641357
  0.5659433435414970  0.9937797209381157  0.3103827806137220
  0.6201107042121654  0.9451987107565154  0.3072756622117198
  0.6908506832590665  0.9755166076534769  0.2671311478630567
  0.7248646666578498  0.9744710298518446  0.2858551977156212
  0.7437980480859822  0.9427287233506465  0.2905656644578686
  0.8032329639531648  0.9664942829065292  0.2978585974913376
  0.8419217785088625  0.9649136685329623  0.3041866766541173
  0.8712986009119585  0.9606530608462547  0.2804070927988324
  0.9074678233900266  0.9660968494130149  0.2901988526232113
  0.9340789287509884  0.9635151135821678  0.2625924237742733
  0.9703762735767696  0.9699161852517350  0.2713102716524791
  0.9800861132401569  0.9808124872689342  0.3069750247922595
  0.5155911474304453  0.6701312801488297  0.3681413619431019
  0.6081399036937962  0.7164187074595413  0.3546308559590410
  0.6153605467549806  0.6821968640287511  0.3384890153633699
  0.6639410521132121  0.6719187294392795  0.3827654095320266
  0.7934206800316075  0.7106776983588566  0.3060249358213211
  0.5310031196394464  0.7736865796151648  0.3405895025419420
  0.5786392735306974  0.7362940126090274  0.3432273849043210
  0.5655633968553317  0.7696533341183622  0.3556996788905027
  0.6302739253769661  0.7289812402065309  0.3819675299305406
  0.7671856548139983  0.7340084203382568  0.3189265115832274
  0.7817965555236069  0.7621304561948179  0.3371393625547375
  0.5075215537421955  0.8007795589610417  0.3486187117329976
  0.5214918140819529  0.8271826430359281  0.3704578824996331
  0.5573785601087544  0.8264570355868885  0.3808585063002058
  0.5799662891109630  0.7960639125590410  0.3771028770393694
  0.7238165919422788  0.7908738685868832  0.3367712019523175
  0.7590261951726570  0.7880854847378450  0.3488962001639038
  0.8148441821007755  0.7782804069119028  0.3287736636302179
  0.8118409329836586  0.8159238465863778  0.3338244941697190
  0.6878967291340704  0.8360855114686611  0.3152931352683538
  0.7175515024871216  0.8270163583124794  0.3355156237077472
  0.6781783373472571  0.8705073108174921  0.3197563667850891
  0.7502518357935115  0.8465196746006211  0.3445866354277592
  0.7768797377343557  0.8206806837925127  0.3487755795184158
  0.6952961778517605  0.8973177958302863  0.3407774794305683
  0.6726337655409064  0.9262619376843506  0.3394427213637699
  0.7578528193060833  0.8821340824537500  0.3382410726309961
  0.7306484924893503  0.9042725845347650  0.3508143254614899
  0.6262039802428723  0.9778617672454809  0.3268167870953818
  0.6572716050974501  0.9855114693862327  0.3482621415238852
  0.7156288837255295  0.9654873531727819  0.3701298934478633
  0.6819405116388747  0.9587821707867334  0.3541972443473163
  0.7400196668903976  0.9379721579961918  0.3632426241801621
  0.7732092615808416  0.9490632353232479  0.3509661347053389
  0.8250558332426423  0.9856789642827576  0.3641286798053576
  0.7882504316639241  0.9791883910031804  0.3674907550620669
  0.8509374946563293  0.9746573388927302  0.3383169878522743
  0.8858141464843262  0.9870967953406351  0.3469979062571531
  0.9162342139778250  0.9809241265831178  0.3247847187451598
  0.9531079593924424  0.9898756666067317  0.3334608091444131
  0.5575237148592831  0.6913048412507540  0.4169961443071322
  0.5255398501997693  0.6954583735827672  0.3947743554195841
  0.5785573449148067  0.6587822760521381  0.4119709403551203
  0.6557608851136070  0.7052270246859369  0.3953865396433350
  0.7070889641141495  0.6669638265919795  0.4359808799650967
  0.7013452183944746  0.7047543613259375  0.4416785519652191
  0.9834784857945549  0.6786747053571398  0.4208163342315597
  0.0117882695116807  0.6949413357246992  0.3992939754981819
  0.5422313823420725  0.7499457224489272  0.4409295539333138
  0.5085882779682778  0.7508272577654310  0.4241276677321080
  0.5659903612337142  0.7201485322355200  0.4410400177480866
  0.6347993990430911  0.7627148367296906  0.4001253437577891
  0.6651855192408920  0.7582065882229069  0.4244409236821882
  0.6756376995207563  0.7222082467370767  0.4217892065133484
  0.0115045261459362  0.7440029115939765  0.4433446246310211
  0.6144625161894099  0.7940995367945171  0.3950202577763643
  0.6258476172828653  0.8266618166745535  0.4091465517644456
  0.6862006063328966  0.7810895260169569  0.4460469643132924
  0.6822522533243004  0.8187372249917912  0.4483170835490164
  0.5093378138682370  0.8746322082208873  0.4128242201287332
  0.5686206798752765  0.8576259662082107  0.3969390322843666
  0.6033177752972577  0.8566792594313706  0.4076434892095503
  0.6151357221105951  0.8837864664206174  0.4297939020490566
  0.6502507622937029  0.8739551932000332  0.4374894859819945
  0.6557447069650905  0.8374828317012175  0.4301306170187876
  0.5460360574878564  0.8824415348728479  0.4144174195877786
  0.5560642739925657  0.8928091401491252  0.4499855119211857
  0.5922390224264807  0.9010233998225660  0.4552420865160090
  0.6062000568453696  0.6965786056813862  0.4908857495916981
  0.6368285369596245  0.7026335112274943  0.5117712223074489
  0.7508515663875064  0.6753622407104142  0.4861930632653386
  0.7492576870920968  0.7132697663332752  0.4844691764245969
  0.9416491160991992  0.6810042050129838  0.4711480437940165
  0.9240010970657768  0.7027127008471524  0.4955662811091636
  0.9711823992728829  0.6959828666091876  0.4525335594609959
  0.5939468882315737  0.7236970176611838  0.4683726242175910
  0.6050902121132068  0.7588281385715824  0.4806944656772016
  0.6333970183418620  0.7653644120043670  0.5045817787139960
  0.7211528560437044  0.7279381933689093  0.4647684676711223
  0.7151318551544703  0.7654752643471513  0.4656092958539368
  0.7765211463289151  0.7357178758317944  0.4995512088391565
  0.9330012223483315  0.7383666378713276  0.5014606108686199
  0.9829822873258838  0.7310320814820378  0.4627849311118080
  0.9631818002542752  0.7536860814068170  0.4865716615813477
  0.5498045358232636  0.7800853757644174  0.4604888169610524
  0.5271302898140028  0.8084762156095395  0.4672493656551920
  0.5824004041699657  0.7874411591004704  0.4762474140739406
  0.5828822344107245  0.8219863478159942  0.4916194633555195
  0.6394239144997401  0.7996866815930931  0.5189553079275895
  0.7720556469937461  0.7733590519073053  0.4993589418621066
  0.7403443526984347  0.7876275041607798  0.4844147063457601
  0.8005630316929742  0.7968706854450027  0.5108917091333455
  0.9640644103879447  0.7907341291003201  0.4922225957311820
  0.9898064104190427  0.8161818971791071  0.4803217923999295
  0.5466620544129434  0.8374671738777519  0.4833252464725790
  0.5316024475206932  0.8704774744212935  0.4709450476211499
  0.6140505832611479  0.8290420496090078  0.5127236563854008
  0.7053581743917954  0.8401535231377897  0.4698262222384500
  0.6992325363265873  0.8768270841211410  0.4749310034884550
  0.7353431518212936  0.8248806173821732  0.4866367469129486
  0.7613303874630373  0.8476266172677603  0.5027184494253739
  0.7951809911568996  0.8342776631371269  0.5128196096849124
  0.9944347485886526  0.8809777700888017  0.4904133363957932
  0.9777779360886421  0.8490755097150797  0.4943652736372905
  0.6125702346286407  0.9121140912502889  0.4849164214550614
  0.6696426229439205  0.8942743914115445  0.4603410858185525
  0.6504796544219631  0.9217721397368950  0.4780993835051987
  0.7201407503951062  0.8977141985859736  0.4972181214927399
  0.7536512029667901  0.8839659393709678  0.5071890448431156
  0.7791141799765761  0.9072619853637907  0.5207348599243015
  0.7054787903365406  0.9293103575077967  0.5124387457570426
  0.6670795524628035  0.9333080060426959  0.5098240017838641
  0.6481285349244458  0.6713810501310884  0.5289478301110357
  0.6783149747967708  0.6718116067892618  0.5512808115189257
  0.6947644264800019  0.7063508669888048  0.5560207974613212
  0.7270913730975326  0.7105708455821055  0.5744700458191510
  0.7801715089233635  0.6624824632773321  0.5058303057384950
  0.8109442506030116  0.6833867300547528  0.5131187896932343
  0.8395041916024233  0.6579828029998730  0.5145927146247159
  0.8747017381946309  0.6643693464881012  0.5035510445601757
  0.8886851904871305  0.6980261310542768  0.5070078170929792
  0.9616998736998824  0.6822993073576396  0.5614550119250421
  0.9962125942757112  0.6839129541380637  0.5495580879572562
  0.6516215300084399  0.7355811953168254  0.5178581767721437
  0.6801683874315286  0.7378455792496783  0.5416653560448740
  0.7434819635241039  0.7446323547185113  0.5788237330150497
  0.8096739670537145  0.7210520965760899  0.5109231388670038
  0.8740541148917436  0.7318707136573613  0.5165416575432824
  0.8391864197723127  0.7450698384424679  0.5165525112815056
  0.9028264166372758  0.7563063871928224  0.5143043883546171
  0.0006724781342130  0.7470742554707891  0.5599807451644025
  0.6919933229576891  0.7720946540542930  0.5512570981147853
  0.6703532750560673  0.8019245814468486  0.5419256523240245
  0.7244705535289641  0.7762238783425658  0.5708958642450409
  0.7383409764402714  0.8104078368814951  0.5808355115523873
  0.8354757925408642  0.7837353621151638  0.5171931229719700
  0.8659950693052688  0.8087169761282794  0.5208029607720396
  0.9009724467796528  0.7933408224280620  0.5168956229612147
  0.9345485913611156  0.8094575460749981  0.5094442825861977
  0.6238699779783389  0.8612346785375785  0.5297273463321783
  0.6536076511075122  0.8615708905960939  0.5538320627134019
  0.6788950685904026  0.8341627160678644  0.5588575104505497
  0.7124733506308893  0.8395386349235273  0.5776604618923068
  0.7178929835360633  0.8748185401016051  0.5896216576912945
  0.8236038430932827  0.8582566339088266  0.5222311547918378
  0.8604496054748438  0.8464779965580014  0.5256452357776408
  0.8874641146421663  0.8740359030135770  0.5349928402831685
  0.9257092457692273  0.8753141153227365  0.5278424632577391
  0.9442336581233266  0.8459943153036659  0.5123263422605366
  0.6448942044717544  0.9182327905817910  0.5368732795785550
  0.6625004884960338  0.8968131047746505  0.5626892669197389
  0.6164874302189547  0.8980524664788098  0.5203254042397356
  0.6946925662072168  0.9029590264476305  0.5785616560444722
  0.7454045337527438  0.9291953417605616  0.5997229875404927
  0.8142419605761426  0.8943982928156476  0.5273009581745220
  0.8385095166659078  0.9167864511776977  0.5459347121326303
  0.8732245705619748  0.9049485492717110  0.5525849904502028
  0.9482235791460737  0.9078798992532344  0.5317973047221595
  0.9796318137237019  0.9097185394130426  0.5097172000458063
  0.9425390837050694  0.9400592865434098  0.5522801053397338
  0.7170323976482859  0.9343071663782512  0.5748917252084100
  0.7660100539988548  0.9410088685346446  0.5336209420808877
  0.7276847226834049  0.9427993298980911  0.5396585592037914
  0.8225966119979523  0.9437766331029759  0.5669640604759605
  0.7872215027248515  0.9569796290067007  0.5597872539619965
  0.9645444232373430  0.9692952036180945  0.5428079981754133
  0.7443593439426472  0.6794892900834200  0.5857758888764695
  0.7810034840687358  0.6822340338645663  0.5935144054917052
  0.8563098524831333  0.6830048449296223  0.5917152897378395
  0.8932115760642952  0.6818863775096843  0.5842758418377115
  0.7797983050448617  0.7468747834332023  0.5895808024823286
  0.7991121210660478  0.7149132104068443  0.5938357196004612
  0.8369107325992412  0.7153767852134950  0.5951534312566177
  0.8550838228650204  0.7481575398414846  0.5965921000877430
  0.9466581592615722  0.7144823307647772  0.5751308042312243
  0.9107899452075467  0.7148337357582371  0.5850836397844538
  0.8929060909070475  0.7475517835975505  0.5925354809789347
  0.9656009969033669  0.7467463804641223  0.5738742985432023
  0.7970362557494901  0.7799716293675050  0.5946893279540399
  0.7757232770643538  0.8119303958552669  0.5940298202657072
  0.8354454323584408  0.7804589421502066  0.6001864442824927
  0.8550964085056255  0.8126242065390384  0.6061209349932456
  0.9124358073744856  0.7795261463637223  0.5936246944171413
  0.8942669358891965  0.8115829776640755  0.6040639290135270
  0.9496660003431941  0.7792436296240098  0.5834557698393458
  0.9713770037584339  0.8110103436562052  0.5836063495581616
  0.7951150323023163  0.8422365123050174  0.6062036788481667
  0.8335823418287902  0.8432220340056985  0.6113400567716514
  0.9175838638584435  0.8400737724862671  0.6109656981971358
  0.9089082194239905  0.8752682315651317  0.6240028449929712
  0.9548551587963281  0.8394435218198478  0.6020711471679185
  0.9691153124937367  0.8725769936094083  0.6142078497158651
  0.7486381825655966  0.8914742364203649  0.6050479412160897
  0.7822497498347226  0.8771989715099889  0.6119757980590752
  0.8126418018234016  0.9003616423141745  0.6158075836764872
  0.8442073310887586  0.8799870899585581  0.6155611884497584
  0.8788856727074438  0.8952643342053064  0.6141120209587599
  0.8899176715534763  0.9196475385361960  0.5849971702566953
  0.0019979159744523  0.8879384496922014  0.6058725921352682
  0.5178332367047955  0.9798540394198672  0.6011635377569058
  0.7756676893428457  0.9502206184014906  0.5965812569488735
  0.8104342617325103  0.9353882348446649  0.6042114561184676
  0.9173021022588177  0.9458055855138552  0.5810194156393415
  0.9191354968742429  0.9810592285463264  0.5985911488012465
  0.5173448397560557  0.8299343860644869  0.6822727550454888
  0.5376672839317891  0.8886784049478379  0.6630153404133746
  0.5323561165508660  0.9188295549936477  0.6415049510002003
  0.9417992718116668  0.8921802590090815  0.6328389458860246
  0.9485223296637912  0.9219904234511741  0.6545087442796748
  0.9852330675034161  0.9311736615779771  0.6552318348412167
  0.5409677277582088  0.9824472234383480  0.6301342610967400
  0.5491513519290102  0.9517396975474668  0.6497452728192441
  0.5721528156294992  0.9549246607087314  0.6791003658231952
  0.9048560465672907  0.9747840720148182  0.6680398898552934
  0.9234625297670280  0.9430042978063624  0.6780371578993738
  0.9072390638262221  0.9914420149446509  0.6328846926967386
  0.5185234779375236  0.7792842384354396  0.7350411553374310
  0.5450764410368526  0.8051286695814198  0.7342410498716609
  0.5437660413686113  0.8319962099551783  0.7091690444182278
  0.5644696717976210  0.8627086030582783  0.7154616899414762
  0.5840453909076537  0.8654908176728754  0.7475649727821115
  0.5054782448187634  0.9433750940526204  0.7247974496692068
  0.5615921945067958  0.8915926695349425  0.6919513879674694
  0.5783156557026197  0.9246467651804078  0.6998616114633504
  0.5972120591127746  0.9287718605782159  0.7317896525388702
  0.8949837926338202  0.9327741130600629  0.7374584174515227
  0.9263369643105996  0.9342533833676823  0.7158194313791761
  0.9603336530727586  0.9365031492340979  0.7333782121308187
  0.5180256718145572  0.9765764913952010  0.7339608533058758
  0.5845946217993708  0.9886786592826511  0.6900325816614058
  0.6024601246812530  0.9928191626337250  0.7228433104174723
  0.6088658639930282  0.9628848649345897  0.7439466237009938
  0.8682579017531367  0.9604188887453992  0.7388477489408568
  0.8684759885736630  0.9950212721874715  0.7246114230616675
  0.9881026682005374  0.9571546537548328  0.7171941569590654
  0.6967275249388274  0.6616985090464562  0.7895249258893901
  0.7097250035265577  0.6950042371771908  0.7765618023301915
  0.7684882289155608  0.7020438398402343  0.7958506148979029
  0.7477916651105408  0.6871446687236163  0.7678672664056033
  0.8247045422579532  0.6635622678783982  0.7932098309624394
  0.5202460545401849  0.7638647068989928  0.7693525299957414
  0.5501716389191615  0.7781772942673566  0.7893590380539446
  0.7084457805274619  0.7251206627249791  0.8012692748100199
  0.5642816606789472  0.8058430960623846  0.7667250985961438
  0.5866113213356039  0.8357561855983779  0.7722066789218617
  0.6083655843260812  0.8414663650525297  0.8022932465761580
  0.9126911755525315  0.8900705392897141  0.7867252576414604
  0.5332925090311804  0.9362611712706358  0.7794988302529927
  0.5147303052531546  0.9184732510615712  0.7517191589420374
  0.6151392164502762  0.9056786671082750  0.7877309826201464
  0.5997880584235741  0.8993135797811166  0.7545020616621989
  0.6223643848781371  0.9396692464946877  0.8019010333902782
  0.8334640460219720  0.9072432766405538  0.8089417203537573
  0.8521559696252724  0.9179272681617886  0.7794514617411574
  0.8875320389220139  0.9087550213032688  0.7665026049120842
  0.9489768390074514  0.9015293002808769  0.7890683534276400
  0.9659022278178200  0.9286731581999446  0.7706510170740636
  0.5356826525555324  0.9714585095007843  0.7665231809075195
  0.6195483598550041  0.9689423175367630  0.7797648157352596
  0.8222149321084989  0.9761556075545108  0.7838783745723247
  0.8037100930518655  0.9655301566775505  0.8151792068401763
  0.8431636377510032  0.9514502367516305  0.7652849591046879
  0.9863961784091534  0.9514446390076826  0.7935963310966568
  0.5962222541958788  0.6863036263598993  0.8590848886120017
  0.5725658126316931  0.7146017955383045  0.8566071916327597
  0.6247756205258915  0.6898057484691967  0.8356720158975136
  0.6538812662040502  0.6675721802471581  0.8465512058188336
  0.7464089041683263  0.7170105195897296  0.8544287806553769
  0.8335909433322332  0.6690498150430773  0.8667331305314886
  0.8002009747899966  0.6861595356243921  0.8110177654226199
  0.8049293055124753  0.6872030393937101  0.8487665873420389
  0.5466334288049940  0.7801983924652485  0.8595744621616010
  0.5811967910102186  0.7350708596487631  0.8276471577411657
  0.5589141316085283  0.7658621055906163  0.8251203963534910
  0.6180594964237608  0.7250576931493855  0.8184637186761019
  0.6431629379921129  0.7538657540237357  0.8150620892810974
  0.6841433567320114  0.7371650140734167  0.8579533625536906
  0.6802766238047340  0.7411527583170775  0.8207985734647536
  0.7437468919407479  0.7213001078393970  0.8175708847641937
  0.5318839194362441  0.8148024287285662  0.8612107002964816
  0.5144523516887061  0.8307001470360490  0.8311451803088616
  0.6310553780716586  0.7870294489196837  0.8384219201796642
  0.6179042493101639  0.8214616584450404  0.8341239564361811
  0.9755590379822263  0.8120695962967581  0.8682488752131261
  0.0120662238280519  0.8084325752813575  0.8542898416767988
  0.5213960872221072  0.8647118145794577  0.8143494496823366
  0.6179726125822137  0.8766959625830882  0.8094732249467268
  0.6223240431505135  0.8818617617540004  0.8454449168217620
  0.6178747405045555  0.8492246637166989  0.8624907524488227
  0.8767129574052283  0.8649483733570710  0.8397663501567445
  0.8441639300198156  0.8831040463563994  0.8356206355302902
  0.9072004233746548  0.8675873488231836  0.8175400962914361
  0.9415527901538095  0.8594708541721275  0.8326472518241828
  0.9453333906062359  0.8338169278639704  0.8598548839636531
  0.9639112687696088  0.8889190310293412  0.8216585573296029
  0.5388060760275520  0.9295996529978878  0.8159113677986759
  0.5343551705192192  0.8952607560108807  0.8324440198156955
  0.5363231203750973  0.8950556728670823  0.8701884986499222
  0.6230137669942541  0.9155085604058467  0.8605372571078277
  0.8008657679458862  0.9208927256795257  0.8602106300730126
  0.8226644300178794  0.8914910232460953  0.8659526948164096
  0.8069765918326000  0.9305231227380236  0.8246150085681211
  0.9799790569878074  0.9126729789331531  0.8462722652764658
  0.9865590100678457  0.9481844715402560  0.8321184527162538
  0.5445764882306421  0.9609719973060834  0.8374940474541512
  0.5406089057927368  0.9606867691459396  0.8744926921635623
  0.5481384963176109  0.9954464370406259  0.8239481846758736
  0.6261215095988905  0.9454032075763408  0.8387321473644149
  0.6264661810294062  0.9797789425940808  0.8543403396478240
  0.7843631159637809  0.9794985373157794  0.8776579665696622
  0.7920870597568995  0.9897794073176297  0.8417893163119478
  0.9926121090863228  0.9803328570585756  0.8524765439876376
  0.5969165850620379  0.6769965680878272  0.8952655414462172
  0.5767647940051979  0.7020109554771151  0.9150661941558840
  0.5619811061266413  0.7268236140386691  0.8902894151518301
  0.7771138781800061  0.7015429960951939  0.8700611474148137
  0.7459346425249284  0.7045968263994219  0.9271140688198664
  0.7769785063340747  0.6973607913404952  0.9074076576140832
  0.8060974163135816  0.6825971558406181  0.9253816680482380
  0.8344308699006819  0.6703595064653439  0.9041828386885468
  0.9871784469255173  0.7055366519937659  0.9283803736104149
  0.0045770410804511  0.7213808656793345  0.8978773599977653
  0.5426849082436968  0.7772824982114777  0.9279910169503662
  0.5494901150904461  0.7616279123140594  0.8932027879669365
  0.6541875465888368  0.7461899045194892  0.8793072578086655
  0.6533064792505414  0.7376341535813771  0.9154676261296735
  0.6328568978583105  0.7766439015019773  0.8740202657184653
  0.7149862628922896  0.7232762160096390  0.8741757131904833
  0.7143995379721853  0.7160188119317232  0.9106400868756004
  0.6837572956813248  0.7239576678074886  0.9312400792477299
  0.9357169876866079  0.7526820357740140  0.9375901229212841
  0.9392181491036172  0.7787356323222223  0.9117383521618957
  0.9975355828650643  0.7560612559467103  0.8854215983535695
  0.9692375334106028  0.7815068829797926  0.8897632022862121
  0.5324633215778666  0.8134204305681685  0.9287814213576316
  0.5313672000973596  0.8320497374490680  0.8954584682330371
  0.6123910032568449  0.8226229682707002  0.9224890752661263
  0.6208999790148256  0.7890814410708249  0.9087134237985818
  0.8844112792285095  0.8072050684273971  0.9345918863805098
  0.8589310435872987  0.8347327491639571  0.9319792013317939
  0.9120973670911819  0.8050608241707822  0.9091760431916369
  0.5298130723008190  0.8688864946410368  0.8973189939925966
  0.5228032327742024  0.8864184396487245  0.9302507461695930
  0.6125358798103947  0.8522527475469854  0.8995866117808395
  0.6094756849845029  0.8870103214309599  0.9154854012458847
  0.8292896468448182  0.8807589191588628  0.8998259875855583
  0.8819116596721241  0.8490394446522307  0.8736341233124364
  0.8567715315939586  0.8545863767966914  0.9013732229471382
  0.9131461729142054  0.8287803302011753  0.8805089886864310
  0.5260733615330851  0.9233977112624768  0.9243296954393743
  0.5363639370752590  0.9275589006742111  0.8891586628463416
  0.6158419541491659  0.9186733140904131  0.8967709411586107
  0.7905276758041350  0.9435855601299298  0.8881343095034691
  0.8107001430547205  0.8968388422812510  0.9294221231426028
  0.7929448466799849  0.9317155815081118  0.9246178945172283
  0.9856034901820198  0.9007117009306459  0.8824480556571562
  0.9792524219657700  0.9208512510139933  0.9131858502546810
  0.5344684739402364  0.9915629910281074  0.8959746249618004
  0.5200559943830972  0.9879767142219552  0.9298843185615084
  0.6132012798619859  0.9528577670896202  0.9118330600373433
  0.6197647836985950  0.9836592139696908  0.8913655436878528
  0.7721211491644369  0.9934524678054222  0.9399540119896505
  0.9794690379810735  0.9573601914870045  0.9159237984658202
  0.9873899542424824  0.9837790279988067  0.8906509935555816
  0.5822041471767757  0.7041574508292747  0.9520352163214481
  0.6090738184055386  0.6834107519234814  0.9689421023705769
  0.7165613731701693  0.7126536360474410  0.9832868198908841
  0.7465279599326724  0.7011446021274861  0.9640901846029167
  0.8056212856874946  0.6757955972481375  0.9624948202258712
  0.7762908983897772  0.6875489280764736  0.9821851495622022
  0.9442153913234694  0.7099997300700540  0.9780531584489943
  0.9573655278780928  0.7221586419013499  0.9451043466121637
  0.9594848935119258  0.6824432346731927  0.9959054353055192
  0.5657815268769734  0.7295071433326775  0.9729560193330312
  0.5486329470881240  0.7615049764991265  0.9623468267493662
  0.6317356296281916  0.7629734447102521  0.9335767571252238
  0.6357023438702678  0.7685993564273145  0.9702765133085407
  0.6855897965737262  0.7266883506962997  0.9683510161604327
  0.6616352283018088  0.7482696288505888  0.9885532651338720
  0.8841652669781744  0.7840644259886058  0.9642441163673509
  0.9096614325379069  0.7570367007746237  0.9650508808771039
  0.9161964122586366  0.7319033954361400  0.9921746986269262
  0.5290776651560051  0.8138708294643912  0.9953379141085632
  0.5249077677254926  0.8314519779202504  0.9617454856644849
  0.5417792678383021  0.7796376235093753  0.9948786812090261
  0.6216543034459490  0.8004020137420637  0.9845073619716881
  0.6101100429789710  0.8271600399464858  0.9605200546317714
  0.8363744432469553  0.8206894895737348  0.9881843837753981
  0.8348469526639037  0.8433565150835344  0.9594969652618314
  0.8596522709694088  0.7914304927409493  0.9915506802247316
  0.5166163041265807  0.8681467767155948  0.9618861708865905
  0.5068681641066078  0.8848509563940344  0.9945423769642523
  0.6016184013416719  0.8608617525998900  0.9747788855887753
  0.8137462121441613  0.8755287632472853  0.9606787640549008
  0.7983760614955121  0.8832774079717179  0.9937628130460178
  0.0497543494747747  0.8783036606691119  0.9528175572703605
  0.0159408585858257  0.8790125237223105  0.9346181886767996
  0.4993730780487469  0.9205274331390024  0.0013306639524758
  0.6006617916869471  0.8905541059722589  0.9519813292070667
  0.5944958815751291  0.9245133378863041  0.9664772306093524
  0.7819824513633876  0.9152387580837906  0.0062514515059403
  0.9909066239889920  0.9055131974667719  0.9460800966184912
  0.9874750077688406  0.9325860398327751  0.9751810118202346
  0.5169056422271064  0.9531778644467406  0.9443516547054824
  0.6007717911377958  0.9555997424176961  0.9468027897042681
  0.5941767723901366  0.9892322624569454  0.9616419352781849
  0.7799830003246911  0.9570276449446661  0.9515856208842931
  0.7745072474285624  0.9484903733511911  0.9896525691568329
  0.9812794781381068  0.9627870544931137  0.9529938748698801
  0.9820035293516707  0.9964976984114301  0.9667681669703082
