generated by phonopy
   1.0
    30.5164859656000012    0.0000000000000000    0.0000000000000000
     0.0581029816000000   30.7769543222000017    0.0000000000000000
     0.0718728779000000   -0.3328859868000000   30.5366183607000004
C
4096
Direct
  0.1121607388552077  0.9918890051696451  0.9948310170158480
  0.0670063836018640  0.9987529189644485  0.0027266576808373
  0.2460162285211667  0.0611919972830945  0.0306069214986441
  0.2843641352682375  0.0529556228100574  0.0030255834391573
  0.3182569999470165  0.0457061092503961  0.0341416193399386
  0.3598320454886154  0.0314258136745811  0.0209244494414067
  0.3924225251785717  0.0224463624160269  0.0533513799974888
  0.4327350284839528  0.0022090756721256  0.0416279777604969
  0.0353129220022248  0.1138940867161651  0.0658091818243470
  0.0784545751112051  0.0994775440152411  0.0572183540220905
  0.0917123950079707  0.1045294427915992  0.0141302617370141
  0.1356449763126256  0.0970400194836781  0.0068765798661665
  0.2065370093062252  0.0743865603647651  0.0126935668652446
  0.1666888910979901  0.0820730970539005  0.0370677036543366
  0.0034808644058082  0.1286212218020421  0.0360586469331229
  0.0190572812648767  0.1292041601582666  0.9915569249464828
  0.2589164156134220  0.1648280746503413  0.0696271559897525
  0.2086294119694012  0.1840863477411356  0.0038123135844611
  0.2168738365396292  0.1739074239085389  0.0493524286873739
  0.2954617701279873  0.1602392667342657  0.0430491924309416
  0.2861062058460970  0.1619499068251119  0.9979021887773125
  0.3425342440637181  0.1520552885444015  0.0485785843238339
  0.3583679327028619  0.1427402493110649  0.0055789761651950
  0.4202859853912000  0.1563555878404156  0.0675845961600016
  0.4681352351436366  0.1166993335198799  0.0153978460367156
  0.4282757860709702  0.1354655934398773  0.0245131421940082
  0.9960412348409138  0.2393666211092020  0.9960088357112635
  0.0585179979203028  0.2420986679422373  0.0493315891172394
  0.0125443252791877  0.2410084581736190  0.0395724331923798
  0.0889358770740696  0.2255249324201675  0.0170107899920092
  0.1306202939969991  0.2044560107318477  0.0250262357793858
  0.1391993177632489  0.1873359199121949  0.0671678620655553
  0.3665041086051436  0.2527978163106921  0.0271035000085395
  0.3844045018717256  0.2447566294197998  0.0719829751295884
  0.4213833034948426  0.2081392290222699  0.0722222779860371
  0.4401118419527428  0.2346602830963028  0.9968306785133565
  0.4573148462423840  0.2334000154108124  0.0445199368162401
  0.1156253565988737  0.3275799671516141  0.0286626240555320
  0.1566983555229948  0.3061189403386393  0.0357368421450509
  0.1869914179000519  0.3045957411151857  0.9997085315539898
  0.2454762262174723  0.2766063910231406  0.0470276381961202
  0.2306121503978903  0.2891946853941072  0.0055628133080583
  0.2900469291331387  0.2652634912846916  0.0548743574094164
  0.3214142537164190  0.2639497182200269  0.0199992227949500
  0.4589955509994328  0.2794070579191442  0.0656774383564725
  0.0650393227420292  0.0502292650145271  0.1571709746412792
  0.0790640723207823  0.0023406446086215  0.1579282552846971
  0.1275476200218683  0.0064197905214533  0.1456374781735345
  0.1423917236332604  0.0530766368808309  0.1546969259726411
  0.2565368063008521  0.0589591936510124  0.0784087973238538
  0.2275439028492705  0.0614221674861275  0.1168205771137727
  0.3043523344859749  0.0504673114085410  0.0790355828367066
  0.3381272747444197  0.0455556337182806  0.1108046283983633
  0.3814151345393380  0.0338789094491131  0.0971845613337249
  0.4131265800370004  0.9946825916342837  0.1366049927574357
  0.4125760111946527  0.0421865218597097  0.1331848982739414
  0.4866915563888587  0.0356106157599917  0.0945665058877791
  0.9941699464650257  0.1238312116988330  0.1353475601384585
  0.1081313765515136  0.0831472594625912  0.0895714979861739
  0.1000789001655920  0.0793151599261423  0.1378824760576234
  0.1531997592527670  0.0752286155172509  0.0804816800920868
  0.1789281480334859  0.0652358014088066  0.1188759566341447
  0.4592698738176426  0.0606249055667392  0.1295711778974239
  0.4710809347155599  0.1090849021580656  0.1275391955322823
  0.0341331256186915  0.1275948681021516  0.1084667686800168
  0.0869414701884088  0.1256217081900358  0.1565174471365544
  0.0689566838525114  0.1613520360099857  0.1237676973709725
  0.1116140160399299  0.1910687845025366  0.1082231588633655
  0.1824128950571218  0.1753634306061941  0.0790242443186064
  0.1876619638662412  0.1660124335253302  0.1242558568594896
  0.1475089223864580  0.1801238631987397  0.1459911859702663
  0.2306785817378923  0.1604747150193673  0.1471485312133624
  0.2659247821010023  0.1599866068939219  0.1145567072515822
  0.3064183833442726  0.1686762228309550  0.1387713125253487
  0.3715214414558325  0.1565888914301705  0.0839602447040972
  0.3507435505153040  0.1837881035890546  0.1211308998366513
  0.4229464851826536  0.1763297038221029  0.1519939023756920
  0.4666821718018573  0.1396083655818488  0.0891113825328504
  0.4844942885105419  0.1854152225918115  0.1056736172251795
  0.9897835045869691  0.2417221379054125  0.0801734468788075
  0.1035710696389666  0.2397443564055806  0.1208478809411759
  0.2213095641018828  0.2522007100518130  0.1204599018316342
  0.2681440931976601  0.2482623498143145  0.1339409345097582
  0.3006600884064857  0.2499873475825030  0.0964382069165203
  0.3467963828339159  0.2390621319167987  0.1080202699931305
  0.4400198028170059  0.2061997213544930  0.1194726631779004
  0.4327942161631229  0.2518480127809927  0.1359101833404471
  0.0175791171136137  0.2603785011506692  0.1150017961556467
  0.0031298015320122  0.3087409128600642  0.1177220551253467
  0.0658640186232518  0.2613086932137195  0.0956698277946789
  0.1209760658040689  0.3160731557030685  0.1217104869340484
  0.0781248256959786  0.3135581871550172  0.1002528034977159
  0.1694867299565537  0.2844945577301430  0.0746835528106499
  0.1437874303912344  0.2743016143389810  0.1155556453016205
  0.1795446786958931  0.2590674467125959  0.1492908257276821
  0.2137863989873948  0.2728071329350668  0.0801819546970909
  0.3545031671895528  0.2764880801313982  0.1439262232014629
  0.3637187165366056  0.3213410445753948  0.1282683934983760
  0.4186459595854455  0.2790213486225527  0.0912761205932073
  0.4762418308355407  0.2650738959990788  0.1541606472070435
  0.4840634360589549  0.3125125762259210  0.1378772475808446
  0.0691025468244904  0.0538471670544025  0.2376805992159514
  0.1054602347610805  0.0198322851706226  0.2283012947816200
  0.1447312460908274  0.0485327352128956  0.2075499646076303
  0.1895732358435587  0.0255406846556874  0.2110108769703435
  0.2592477573397100  0.0037676362615868  0.1894030269390778
  0.2281793293626632  0.0376030711775378  0.1772562569326986
  0.2658122125785371  0.0297472403109637  0.2348243523660301
  0.3370951882887109  0.0512665587894971  0.1603397266247841
  0.3395685777013610  0.0053730676536342  0.1855230144700978
  0.3390192269139858  0.0034191203819567  0.2381226301520740
  0.3997681868892846  0.0448964508964693  0.2185346976267815
  0.4090554614406899  0.9934346088315190  0.2172493915874425
  0.4741082966021549  0.0511793519735026  0.1766417039465647
  0.4865118990628063  0.0051630140815712  0.1889123413031305
  0.0433229853764776  0.0707997439397448  0.1960260805336528
  0.0497233445928658  0.1205743893517017  0.1910210282978526
  0.9942511465232250  0.0670964395594493  0.2050083157883922
  0.1381311877779591  0.0934473536296018  0.2363099598902209
  0.2479785851686415  0.0771635036897887  0.1603160556998813
  0.2232634803221664  0.1189357036019995  0.1686925231586749
  0.2895369119180220  0.0762263908360749  0.2273238643521127
  0.2979356944954988  0.0826797467224955  0.1763929711003051
  0.3867760443156506  0.0628498948637348  0.1716517535794309
  0.3958065584881039  0.1084440429060786  0.1680980493441361
  0.4735847929447553  0.0850323814540720  0.2113895829509272
  0.0123536258501573  0.1523204601602951  0.1726979715863702
  0.0593079250262748  0.1344431875425588  0.2382148695731759
  0.0452796242631140  0.1889699426518569  0.1596550031314024
  0.1203709729448907  0.1543958801429174  0.1778608684120024
  0.0707386856098290  0.1848087410614442  0.2378006138147099
  0.1483189744099079  0.1308332182997660  0.2079166627098148
  0.1943051348308330  0.1254775625557392  0.2038588103131829
  0.2521438827332785  0.1871739162331237  0.1899639898393460
  0.2814668920114823  0.1529960066487468  0.2145409567822827
  0.3120598235599217  0.1328686279647408  0.1766499524041059
  0.3670470092238790  0.1276750135788950  0.2400320655489889
  0.3619065328848161  0.1363756638829161  0.1879837856371078
  0.3767013537858150  0.1801315770454888  0.1642516984282416
  0.4397523326488877  0.1318424744656367  0.1605177342199864
  0.4703768482969681  0.1368343142662642  0.1989377519882245
  0.4474461676683773  0.1564483079701737  0.2372743561325338
  0.0207404032293113  0.2351143402915328  0.1611113827958003
  0.0857790355561512  0.1922727741059073  0.1901127970827128
  0.1067728613827174  0.2347946301576917  0.1732696170709425
  0.1749809812730323  0.2146319263574575  0.2186946776855521
  0.1558632017947063  0.2224143902630472  0.1740653918261221
  0.2243916951084835  0.2195857585791030  0.2202825126392221
  0.2874041136930498  0.2103659070559639  0.1651548115259083
  0.3202214664023083  0.2337220029578389  0.1964030079937940
  0.3697809691415334  0.2191217540779069  0.1912740661394606
  0.3812488396111843  0.2099768812091342  0.2382714347756354
  0.4666539600147181  0.2352631635421502  0.2319134511342683
  0.0183295499698071  0.3003626491075650  0.2165349234776377
  0.0419926891318691  0.2683346016501555  0.1938423983324233
  0.1112055411842965  0.3032728483169412  0.2196202084586771
  0.0873612318556845  0.2714918833517791  0.1958535214788892
  0.1583360078741806  0.3062639220718273  0.2200500563169093
  0.1926578301163701  0.2919084509317529  0.1851432713740213
  0.2351384348356549  0.2717757613580178  0.2052341819900302
  0.2499665181470385  0.2986989660343989  0.2421595889450835
  0.2716082698586512  0.2849273401589718  0.1683534466480509
  0.3296490144206256  0.3104703590927076  0.2159413223857981
  0.3190566114368177  0.2793706147452155  0.1797490172344734
  0.3729956503759038  0.2960942086773043  0.2370506679716734
  0.3949200448905935  0.2587967780530835  0.1700617602335243
  0.4090315787570256  0.2938411751390538  0.2039186325888004
  0.4500479534045068  0.2852076816696763  0.2275354748822530
  0.4829362261719920  0.2668976691359791  0.2010602859647900
  0.0393772096463928  0.0296599452479954  0.2704448990536714
  0.0044560091438091  0.0015598308533507  0.2469444412910146
  0.1176400890859272  0.9978229028228337  0.2727159010087946
  0.0700264512729388  0.9912770310381178  0.2912468795643070
  0.1473930813317503  0.0237714909369825  0.3033139655673281
  0.1902562114323071  0.0511064186011136  0.2871269282810990
  0.2174865494182740  0.0242562346421492  0.2556864001040952
  0.2465794660880581  0.9928874053137603  0.3269930989755837
  0.2884090593668465  0.0204866430448613  0.3113387565610609
  0.2951685959860071  0.0014573427197560  0.2621373694836492
  0.3633336755716882  0.0451766824939614  0.2531217500477291
  0.3920906681556139  0.0328735063451592  0.2950386831829100
  0.4422539166739736  0.0421882704178531  0.2821703385168966
  0.4758533100809125  0.0048961982594060  0.2655126394229246
  0.0161669031315441  0.0657260618037836  0.2947322681146311
  0.0470046323876012  0.0956931208423082  0.3187257899691318
  0.0907429743828969  0.0955136682651467  0.2560758299309193
  0.0937208584119667  0.0943637574276274  0.3065746714131380
  0.1773414500463035  0.0956266834962746  0.2715543565449960
  0.1665491172461273  0.1199724461731423  0.3159701518363811
  0.2124622331612287  0.1159905386405690  0.2440576737072978
  0.2603362745134711  0.1149373339999050  0.2435431999101527
  0.2869713299291577  0.0673618326260814  0.3189167462803749
  0.3176617336203506  0.1007882995474976  0.3002109291118590
  0.3358321848587050  0.0869432382837699  0.2544462267635940
  0.4146047810258526  0.1192464560723223  0.2545458654977872
  0.4655186797748714  0.0615787907936699  0.3204453647884438
  0.4338331271177510  0.0737831999566504  0.2417468382648634
  0.0113861422578027  0.1333354049162254  0.2538961085480937
  0.2499111583264374  0.1378325344250265  0.3267160542190206
  0.2811673691497575  0.1324194921985825  0.2861901267773406
  0.3035317422137764  0.1700221423929689  0.2583836316386125
  0.3548813127450516  0.1702518074856219  0.2615765929170454
  0.3669587480843461  0.1719152136607839  0.3124172607232109
  0.4151911091557036  0.1748687344316466  0.3219176722151842
  0.4339183681366665  0.1338228469285913  0.3010273521913734
  0.4757344262122349  0.1513901440430679  0.2780679022706741
  0.0262517257694983  0.2032601235712527  0.2554782179168959
  0.0329361136045869  0.2342042410414791  0.2894674225413273
  0.1029125281012310  0.2102962882741674  0.2646450191223711
  0.0789239365250849  0.2367754522353846  0.2935855576443891
  0.1485685435255963  0.2190491158483832  0.2580460163244928
  0.1679180941243307  0.2379040606276853  0.2964122580006764
  0.2386238037362529  0.2159659054713633  0.2673997445803891
  0.2132154063679982  0.2361309784222263  0.3005673441500745
  0.2864806705685251  0.2121595692919828  0.2747078481616032
  0.3121850282014055  0.2455510435458805  0.2473144387107204
  0.2982353135697414  0.2121248624433044  0.3249900756126982
  0.3609970568634404  0.2508205106644395  0.2576501961371614
  0.4303425196297666  0.2039306187072335  0.2447079182682854
  0.4359650705552423  0.2133448974074644  0.2961043008493992
  0.4842555165944118  0.1989009722060120  0.2960641785285342
  0.0066156475827774  0.2625764620963555  0.3162316955314183
  0.0978687485407247  0.2628500644707943  0.3254782180724797
  0.1431519335337678  0.2600425395845136  0.3289722516533988
  0.2967437749255019  0.2946380810720734  0.2525064618786835
  0.3097345215727187  0.3134979280903274  0.2944464676406915
  0.3696753937627331  0.2559839534387130  0.3047700901281677
  0.3536927448325111  0.3039196999008173  0.3107232673219450
  0.4202060092958741  0.2602212121121910  0.3117084916727434
  0.4306450300060564  0.3113317258779859  0.2951403191913030
  0.9926542048299147  0.0213194638600079  0.3656228324996516
  0.0177442615855632  0.0486583188989865  0.3958981854899427
  0.1215677290475737  0.0558476951928727  0.3313765322824055
  0.0915147360728317  0.0303800333642724  0.3660493532049292
  0.1217577446726283  0.0082594932521291  0.3990468052507916
  0.0682375255932668  0.9889157496517468  0.3414071485209804
  0.2106411292438756  0.0150117133970886  0.3523287376786461
  0.2225627320487015  0.0077336130631693  0.4006278283827483
  0.2665859571665043  0.0367653022915901  0.4060209730346770
  0.3117693528066926  0.0147376975681179  0.3924232231104618
  0.3253166370837888  0.0205006906698550  0.3433862609192863
  0.3745221980635109  0.0477491763922912  0.3406212494500182
  0.3887162162572709  0.0215368633538563  0.3815874194831078
  0.4349980977690701  0.0275249891586572  0.3982290853675666
  0.4692966957264989  0.0232764750475743  0.3571756037674755
  0.0632830398026146  0.0568472961673339  0.3977451221524707
  0.2071090617029680  0.0601769034967254  0.3351092704216979
  0.1586058083260606  0.0783934498111328  0.3973563299208043
  0.1628992752190722  0.0806051387904488  0.3509562412383088
  0.2495821681722442  0.0875478824831861  0.3435046073569080
  0.2611907252330972  0.0847627265425617  0.3916700257613538
  0.3070194209084869  0.1088382152102084  0.4043446806765855
  0.3888237536983748  0.0948180438892804  0.3518318293497420
  0.3947557942244164  0.1016891694142561  0.4013099602335628
  0.4402571089953473  0.1020969447928316  0.3354182535542946
  0.4799320651033920  0.1226087884090899  0.3653469211364325
  0.4779691303454725  0.0963135760463799  0.4046663600414703
  0.0312934094865543  0.1309542743001706  0.3437120304554706
  0.0624652747574645  0.1581162989381492  0.3665385593057339
  0.1209156618758716  0.1331663072556162  0.3198668609806110
  0.1083010371152701  0.1554815294437321  0.3577014183750505
  0.2014344963903020  0.1502461406340789  0.3324406907172446
  0.1868673051592030  0.1665915989794279  0.3746792511486765
  0.1414431892953057  0.1739169019150062  0.3843893440115328
  0.2606405314055887  0.1847972172258241  0.3947827443629109
  0.2188746282282910  0.1656431889600767  0.4120551054924197
  0.2803672233837737  0.1689060176435655  0.3522695890205117
  0.3212760002488099  0.1441660542429848  0.3719537954673391
  0.3397418027622268  0.1844338726378372  0.4057857014039046
  0.3503341940058349  0.1273196763583924  0.3335129083286792
  0.4065156288251005  0.1495462295639972  0.4085565681384116
  0.4289118163873800  0.1800727526325794  0.3716758210073077
  0.4830904095786371  0.1718825734989200  0.3746587970174226
  0.0494658603278641  0.1873970488045155  0.3996426898305792
  0.0034498828115719  0.1953395678886635  0.4027413695495418
  0.2767436780074044  0.2493791881599643  0.3453269211227183
  0.3487700431019047  0.2164403859507611  0.3307567943737589
  0.3608008003219862  0.2245838425383198  0.3799604318640746
  0.4122070143108351  0.2261786802769822  0.3849376561986330
  0.0273635648433402  0.2912055656103958  0.3471065942796498
  0.0727841426177003  0.2895778749055066  0.3534755542510100
  0.1618734097146864  0.2811014251400289  0.3653016836453756
  0.1379347717461067  0.3082414538586279  0.3947766827879908
  0.2317187403431030  0.2538957952501845  0.3390999546081576
  0.2065038913996638  0.2761140915434386  0.3709955000970285
  0.2254764805535258  0.2953081423836260  0.4085382818961891
  0.2701290634221076  0.2903857688811015  0.4112331251505393
  0.2958186159060137  0.2686843760396616  0.3812923147700201
  0.3428895573041360  0.2709889490050036  0.3921127368644732
  0.4102598457773775  0.3157792758920115  0.3687504577943670
  0.3617205990541179  0.3104343962065549  0.3590777528304102
  0.4305859128528117  0.2664793325538458  0.3595304715904478
  0.4790617759433166  0.2755259286889782  0.3719199868776713
  0.0189391596436647  0.9870921553510147  0.4597780714995370
  0.0672816035308345  0.9894117284632218  0.4714000558269419
  0.1543409585188699  0.0371478357669172  0.4181465429201932
  0.1919294384570880  0.0182574371247233  0.4423954394827864
  0.2204249920086040  0.0511070919842103  0.4690776473938172
  0.2682212159834578  0.0431141755469727  0.4543428003755541
  0.2816708926960818  0.9989056800730920  0.4744867433863381
  0.3528531825854631  0.0344878518117003  0.4168840815846048
  0.3632935653160444  0.0113910831676093  0.4622697422897095
  0.4542286689138590  0.0064994903893976  0.4782772187635647
  0.4356697545309957  0.9892457034256986  0.4342670869236358
  0.9952281242376829  0.0794951914535095  0.4214497508526673
  0.0247878788412972  0.1055695809675898  0.4455562478886123
  0.0699486055068237  0.0916672599583472  0.4320547823651539
  0.1091843329304405  0.1072069614151398  0.4541760857793317
  0.1534361949108802  0.0981445740395432  0.4381228347542971
  0.1982770559362410  0.0965954034133316  0.4609655998489980
  0.2336538475592959  0.1170605932553650  0.4285179827521687
  0.2927474612442207  0.0848357115522499  0.4750067158277017
  0.3426737968397214  0.0941631322187945  0.4738898763794969
  0.3506905844470712  0.0844381420083733  0.4231859712610224
  0.4717203748035185  0.0539646764080309  0.4880365868926678
  0.4453206868321977  0.0851967077986915  0.4647932338921448
  0.4362839540406884  0.0755569343676220  0.4176854637059302
  0.0047520720260597  0.1352350047559110  0.4763121321488258
  0.1076837256576705  0.1313680203040847  0.4938423869293925
  0.2781433580507215  0.1231428088659286  0.4494388454506458
  0.2852116455493759  0.1699106633334798  0.4680211256919408
  0.3585115820651374  0.1429528716985040  0.4804475671373484
  0.3713365760904523  0.1662848436736367  0.4376552453234263
  0.4421503932786222  0.1307152777820764  0.4820564093287034
  0.4295074747735487  0.1609766631908507  0.4475575598635707
  0.9893734985139635  0.2279738328505829  0.4339016240597333
  0.0211299334539647  0.2482287534917887  0.4625197928981236
  0.0819513506896582  0.2067671932344635  0.4277365439000294
  0.1283822553091573  0.1968926752806564  0.4228664139385732
  0.0669414544984310  0.2367108985420899  0.4606032938506940
  0.1611034866928678  0.2096405775102735  0.4549456994845037
  0.1437890975937150  0.2380815808916515  0.4891060799064074
  0.2435299332727281  0.1934281246984296  0.4830575778156289
  0.2061565052068200  0.1925234099960547  0.4527910797678465
  0.2953057189873435  0.1927251090587486  0.4258304160075280
  0.4286659478578769  0.2347966322264875  0.4291929690835474
  0.4467158126717815  0.2022165247091030  0.4547332725574820
  0.0980740544262817  0.2527452082820471  0.4917544052397743
  0.2944159853249846  0.3043062549838602  0.4463825017881755
  0.3382999871093577  0.2880304029091755  0.4411937707332687
  0.3661238116907247  0.2956392858910256  0.4770758578411905
  0.4127440358753203  0.2886190755425928  0.4812231539990057
  0.4758448569727097  0.2738940635909218  0.4215642887480782
  0.4364847844445310  0.2757885117341270  0.4448279714390949
  0.0424154085489319  0.0510970809463513  0.5228899779076250
  0.9970432530521567  0.0443349639579785  0.5146804834233689
  0.1215645473025984  0.0285225425082240  0.5151303891672767
  0.0774469418171123  0.0287084372360397  0.4984894470040807
  0.1525837548313059  0.9885536394465241  0.5152202648688879
  0.1888799669134292  0.9972125953145244  0.5532011043416910
  0.2360097963911694  0.0075717146511138  0.5425141253139151
  0.2354752353985241  0.0508904633269219  0.5190012860231030
  0.3164168832942189  0.0082972004417063  0.5706327725674388
  0.3245924886481077  0.0063251737599967  0.4962587448616436
  0.3214280916536537  0.0437708699218341  0.5310696491812936
  0.3887726735271073  0.0353015508209120  0.4953459522376942
  0.4231928674777651  0.0129442471132364  0.5197036853440312
  0.4576047230684320  0.0461729514824940  0.5370246143923083
  0.0517709439133931  0.0740104053467533  0.5623459447002880
  0.1278311380184753  0.0505526751771411  0.5548844112289446
  0.1739614895043224  0.0459393052220667  0.5688675279891664
  0.1867311425046914  0.1106760806002572  0.5067010144094197
  0.2050013900629865  0.0819092697567473  0.5403758073368323
  0.2824417898463124  0.0723132136778690  0.5219287418056676
  0.2791209239602550  0.1064751219947591  0.5550565160749339
  0.3623622454153375  0.0689374747293313  0.5149000787931245
  0.3903059051086963  0.0985495273303690  0.5455104099358481
  0.4348163581073969  0.0804251629331411  0.5606658536242561
  0.0285167693660179  0.1593413576405958  0.5095676972544547
  0.0747764617103362  0.1558203722094932  0.5185187866243168
  0.0979544719734367  0.1737599635301097  0.5571221017024891
  0.1489892635109153  0.1350584278562379  0.5157136430099132
  0.1426565701319775  0.1588478791748481  0.5549870191851691
  0.2338638436648079  0.1162864487926289  0.5586369812956903
  0.3237413318754371  0.1702302635321512  0.4976804117760086
  0.4004919162697809  0.1392681559681192  0.5129217556112181
  0.4074833384628874  0.1786558150072713  0.5404150520228629
  0.4489683664339540  0.1845735003531004  0.5606256101373880
  0.4874200559232702  0.1543645535297587  0.4962381400915747
  0.0013139874728126  0.1871089351567389  0.5353364444911399
  0.0083700857105720  0.2123968432576383  0.5745428486141587
  0.2513537912575764  0.2212146666664823  0.5200639806416324
  0.2163428394211376  0.2468128694684821  0.5349539987382392
  0.2927210291414969  0.2231740572136333  0.5449636270601944
  0.3301361699504766  0.1993888030685136  0.5323693739750214
  0.3707804082835195  0.2016805537765519  0.5566624568317242
  0.0375976827188756  0.2938683710878006  0.5280661568195448
  0.0066901717797702  0.2780852603630141  0.4958876985373202
  0.0820824228614808  0.2805076016380700  0.5269785740489935
  0.1104387421652620  0.2945138285962566  0.5624699368187104
  0.1709510335536378  0.2537226805555348  0.5226858950610443
  0.1530082925841694  0.2811202549109588  0.5563365890528346
  0.2232784380666457  0.2705989771371713  0.5737776492812139
  0.4327639481530995  0.2945692951356186  0.5217628197006018
  0.4756194742021806  0.2823355506964150  0.5384138546643942
  0.0297699075537237  0.0228648354164740  0.6438898953298927
  0.0700210758421093  0.9999868248935322  0.6284044412951859
  0.1073811836806831  0.9953312874755919  0.6574198938097416
  0.2597740682646913  0.0406067178531685  0.6237562972759820
  0.2656663387086258  0.0058063872431684  0.5873877057416527
  0.2925160475091216  0.0439792467018284  0.6573879813042870
  0.3359119376998576  0.0275393298310385  0.6476594744836913
  0.3498124712826914  0.0104262869612703  0.6061456341158432
  0.3950078836179640  0.9972387748431044  0.6005786653705815
  0.4244630663768321  0.9968591977563664  0.6378748383307722
  0.0189652000627916  0.0975894036919140  0.5865446654385021
  0.0306506847041848  0.1177508557493869  0.6272963028759184
  0.0954971732942769  0.0742434553322921  0.5772683173945234
  0.0740581630022703  0.1122339638656365  0.6446748971174793
  0.1049318468811624  0.0897384305964894  0.6196686180665302
  0.1792982066340882  0.0577240716706570  0.6142272886423840
  0.1465587706178209  0.0817622778907916  0.6364256241618269
  0.2187337027864131  0.0581855239249394  0.6385071480309467
  0.4569263087654473  0.0957066026701067  0.5980082268540161
  0.4318283098700096  0.1118544050423150  0.6327528435456098
  0.9973612839167183  0.1379308589334419  0.6533463517255896
  0.1750373064419509  0.1662996904990200  0.5871058441452464
  0.2190338202638565  0.1500545246517715  0.5849247152719288
  0.2508390705430080  0.1612782387725328  0.6167547328763312
  0.2339191461735259  0.1826881100490274  0.6539456355029823
  0.3143822534793336  0.1198575758132154  0.5828720452853703
  0.2959379934357574  0.1465051303092219  0.6159535144928482
  0.3216095791936892  0.1537893132628517  0.6529530174061792
  0.3620458359618989  0.1109658443071607  0.5847043110372326
  0.3642107611609697  0.1380157772619188  0.6596005576675871
  0.3863314864101315  0.1202241346525575  0.6238533577941111
  0.0438428734260656  0.2193807023333507  0.6021096796907581
  0.0860680956011183  0.2004984760373937  0.5939205509193212
  0.1184597034923025  0.2077647087828481  0.6268133843082562
  0.1615639147572016  0.1910150951362102  0.6242379255894474
  0.1905602983674811  0.1951854542335481  0.6599243525253937
  0.2972685499260104  0.2458588285455827  0.5855209698992399
  0.3351577254999638  0.2433443919455257  0.6138579681149180
  0.3745962358827472  0.2227039468521480  0.5983781761347963
  0.4154811087821297  0.2194530217464681  0.6234799732934005
  0.4540821288606939  0.2025634674132790  0.6025645172184746
  0.9910853087239346  0.2621741302742172  0.6506805948615367
  0.0335741681875881  0.2439621786473389  0.6408490805643814
  0.0998095090314939  0.3177347078037587  0.6029156726697212
  0.1335389133731278  0.3216161107162698  0.6404524289162870
  0.1844277293015097  0.2905741105048541  0.5878016317321044
  0.1768288050593424  0.3070500676450074  0.6294511780236096
  0.2545120575605188  0.2862782086025499  0.6422358647688333
  0.2596563252838859  0.2687547019109053  0.6000205551110011
  0.3298287511500450  0.2606863707838389  0.6565924511734438
  0.4793790857633599  0.3021543831351007  0.5814778503061779
  0.0282040619444594  0.0430740803655162  0.6861382964056437
  0.0659190136739291  0.0393257259638353  0.7137102884990308
  0.1054815302810813  0.0182526345835633  0.6983993200585397
  0.1400186901399700  0.0128005097208840  0.7286137854948118
  0.1800886437030516  0.9924372240583712  0.7157375856695544
  0.2815009427330438  0.0603525970551457  0.7016521032851145
  0.3124516222966607  0.0539554833046500  0.7359408770986403
  0.3534657376920767  0.0369580213038856  0.7254280987612344
  0.3656745763837052  0.0258943019383609  0.6821569845732744
  0.4085637332155558  0.0087120378084365  0.6810882676769072
  0.4232702183945518  0.0082473900052466  0.7276489307865406
  0.0864842529401081  0.1242138380251731  0.6880612827463832
  0.1297618777469400  0.1128771856470983  0.7069539902880436
  0.1614703231224268  0.0931482389161227  0.6786253950984297
  0.2386657487818939  0.0779728295768842  0.7144396390687935
  0.2073493526901394  0.0780896668042471  0.6803526950691391
  0.4516741977753144  0.1143953320421390  0.6754533018805158
  0.0516369746523283  0.1411351432671659  0.7137136647733381
  0.0077590546973319  0.1514259962399436  0.6967503850191313
  0.2593829598217239  0.1887090459036674  0.6900060232968441
  0.3185246760041899  0.1734459271100571  0.7288910788054194
  0.3022627518757321  0.1748103578565028  0.6874764570204612
  0.3835825858679704  0.1401317829967516  0.7016976191305032
  0.3588257669325775  0.1553552747358299  0.7364518603324642
  0.4257115071410323  0.1248656329878557  0.7121601757969341
  0.1077847679938213  0.2296943936123434  0.6660320622199301
  0.1243861457098561  0.2453070864309487  0.7416743082838472
  0.1781487698269316  0.2105176608631683  0.7020879570474005
  0.1368767170213229  0.2288610002247796  0.7018409585123658
  0.2462295830998747  0.1959618517442265  0.7342250191283474
  0.3961733960116021  0.2445759636710789  0.7022722538131236
  0.4236351668895861  0.2295740947172706  0.6678602148771949
  0.4607545294295662  0.2257063010287871  0.7353922865572081
  0.4638850719617704  0.2209297823423022  0.6894594205328168
  0.0117255397045678  0.2788775310308874  0.7252171422000359
  0.0538891559336642  0.2644544733953845  0.7142081596064475
  0.0659476420472006  0.2482683469963933  0.6727404998596276
  0.1687286170167180  0.3275606778508330  0.7182107671825798
  0.2106280190129574  0.3123282303712753  0.7032283092497521
  0.2139083248559993  0.3036243803028017  0.6580189385298847
  0.2482301750374275  0.3029069946824907  0.7313420476427652
  0.3300420556100775  0.2730493785676768  0.7340050995576642
  0.2883095889759515  0.2865449749148042  0.7156277634240003
  0.2895921420448792  0.2794682314904398  0.6700621351817214
  0.3547562103497603  0.2589795639883764  0.6964212686814516
  0.0164473100068492  0.0542586535197720  0.7777916801215689
  0.0531798259849958  0.0298743549530050  0.7602259597243708
  0.0061335321328981  0.0458672484403203  0.8237195947136104
  0.0906761533756675  0.0309155237300380  0.7912502692536557
  0.1316719709260934  0.0202567179666233  0.7738606423562840
  0.1631882110513490  0.0091841039659673  0.8043400454455875
  0.3016792784898748  0.0598841514485001  0.7812229834427922
  0.3324776101118392  0.0464271032386593  0.8145927327700927
  0.3746837017430056  0.0288129333651387  0.8016759390589845
  0.3863516725576731  0.0245371273315403  0.7554772806700252
  0.4746502140956555  0.9935682156046249  0.7889655860193855
  0.1387650282457467  0.1167788964880296  0.7530832565794572
  0.1813276436699463  0.1035334542287530  0.7736354242290258
  0.1769424347642231  0.1049282500181055  0.8193607983849607
  0.2592891135314849  0.0758651585101322  0.7921528348119780
  0.2257024310671023  0.0874464211911390  0.7594442261441156
  0.4832076880179657  0.1036667508265176  0.7653863936053799
  0.4922139732322187  0.0950985842450390  0.8117120699880863
  0.0617166560445009  0.1454663242565141  0.7587907484156948
  0.0264580266995705  0.1593586569038385  0.7842713563471018
  0.1015710291225849  0.1322237403258933  0.7796876005969844
  0.2962878331531941  0.1793254467726988  0.8001214971283387
  0.3401530592263485  0.1641205007799310  0.8078784824369951
  0.2844460526847312  0.1850270612797265  0.7585794938516235
  0.3720580619830606  0.1502226010722729  0.7793940317448571
  0.4120828258840632  0.1319205253782147  0.7923719356934498
  0.4407451186834229  0.1205250093165199  0.7567793370906265
  0.1128072572726328  0.2487466179656828  0.8154409308152742
  0.1842656490640432  0.2172355215604210  0.7861116256046933
  0.1439371875596868  0.2382099412534506  0.7821570488872066
  0.2034499147370969  0.2076230560013532  0.7429691864374441
  0.3934388983351309  0.2518388016726721  0.7828682671283185
  0.4171392564423672  0.2415428035112656  0.7443764542459618
  0.4965695166646291  0.2120283814446881  0.7609036149825782
  0.4926287355525373  0.2121840516744867  0.8065278711966530
  0.0320772022286729  0.2732568066858309  0.8039494848452249
  0.0011917221136371  0.2838755152228292  0.7698982094971263
  0.0746084278216398  0.2637876488952879  0.7927457786601187
  0.0832967110504929  0.2619026460519632  0.7480683004965306
  0.2044831952550717  0.3200001612234361  0.7941032832636196
  0.1667612109256641  0.3317137610262534  0.7657199799861532
  0.2456048016670647  0.3056095427872482  0.7763877394660058
  0.2784737959722257  0.2937226369174628  0.8104810070211279
  0.3227217167132517  0.2773560710116588  0.8146489767189056
  0.3487756522117054  0.2680068359387451  0.7769691365215110
  0.0437464137611754  0.0439917492175534  0.8537122543192567
  0.0332984279082525  0.0450421444043442  0.8983085283373592
  0.0850406525436519  0.0321761707204517  0.8380604819339058
  0.1169427339906941  0.0171177987460906  0.8697729390423294
  0.1573866251443779  0.0050610919154812  0.8502243108036421
  0.2787435424845396  0.0642192512404155  0.8735525782491560
  0.3205297964247582  0.0489190759269894  0.8608745536091309
  0.3486933180677163  0.0351372309837793  0.8955641805837831
  0.3901031705073385  0.0183868032441405  0.8831445997539656
  0.4029403146191761  0.0155733740313470  0.8368912758489928
  0.4454608496644139  0.9998324517596298  0.8269960544321746
  0.1401362140545507  0.1176146833490083  0.8456154605918214
  0.1511771818254183  0.1115394834741058  0.8909197435893277
  0.1952582996658685  0.0954709394133382  0.8920066124628868
  0.2096731846208199  0.0918105201501071  0.8487944406233803
  0.2506509059504574  0.0773596052282197  0.8381195290745781
  0.4627038868778964  0.1062363625979507  0.8486800893891095
  0.4776081629622768  0.0967383912132442  0.8932898030093042
  0.0635845058164434  0.1440648445356220  0.8547195466014822
  0.0541280920692792  0.1410339572548633  0.9017833499022958
  0.0283104962660663  0.1607155847902268  0.8303992144930721
  0.1010771083016008  0.1320930409914369  0.8274146698744284
  0.2747477032737685  0.1852962899128409  0.8404415379873678
  0.3074981276573120  0.1740223989786404  0.8710045357946536
  0.3473547686005344  0.1596242864796523  0.8514579313556964
  0.3847044146152698  0.1394494234287765  0.8688062177226566
  0.4204349701050290  0.1257959202181631  0.8385961306362865
  0.1219658866836138  0.2379518831242894  0.8590463976771090
  0.0920739362759423  0.2425587121909491  0.8948093262077115
  0.1633379132486030  0.2196482168948461  0.8658884715941375
  0.1949230010855471  0.2102831301399644  0.8313605619367622
  0.2234242592251693  0.1939667348369746  0.9011762885773963
  0.2330090326408288  0.1954759560742574  0.8544339878045978
  0.3418492548302769  0.2689149926973730  0.8578792383152239
  0.3858630723499113  0.2532181376703747  0.8639954460037730
  0.4127466543761196  0.2444056172244094  0.8257095170842618
  0.4556638915148359  0.2267912443165943  0.8334994202487244
  0.4699955229791946  0.2197521967002636  0.8772914500080190
  0.0224183872423318  0.2707664034748227  0.8483388695501306
  0.0478796193001122  0.2567431097719852  0.8866031425026257
  0.1862350413472965  0.3219625799267330  0.8772166971335181
  0.2125545751774017  0.3155918563431701  0.8408551823487308
  0.2558014191356088  0.3006727859144993  0.8496048774473820
  0.2726860388290670  0.2906592469407788  0.8911921444132089
  0.3162335211434777  0.2753464595930010  0.8964974240642294
  0.0403146349691879  0.0139055160407264  0.9688097631031151
  0.9927630899552435  0.0007228968178883  0.9678504296348845
  0.0610126578118838  0.0251503786056047  0.9286006644564810
  0.1043397857869475  0.0130022246227468  0.9159444464222868
  0.1316528813138605  0.9964452691554814  0.9509839582425299
  0.2646207419518578  0.0654509290241146  0.9193306268689427
  0.2933626399367757  0.0523354907468866  0.9552241330539830
  0.3363139387032826  0.0378902672141110  0.9416621958706247
  0.4184710147181374  0.0054274951874391  0.9180305647752602
  0.3675106530603741  0.0258897535501426  0.9749024089161642
  0.4089298359703761  0.0090052410215777  0.9632377381332847
  0.9922213444209048  0.0602550749976844  0.9130226952661461
  0.0637244305667810  0.1198394161065926  0.9801879876300051
  0.1271098986873133  0.1130906165497895  0.9299886210238837
  0.1973444374489041  0.0842930607448271  0.9672275283111257
  0.1532475593587246  0.0997666575132962  0.9654353259345052
  0.2206956130092026  0.0808926436381801  0.9276668904654259
  0.4557472893909770  0.1075340125525285  0.9353638625801408
  0.4812762381437014  0.1000964086425813  0.9745920209128810
  0.0104835477714243  0.1521328168833959  0.9160594264098718
  0.0816619160806738  0.1252199274122764  0.9366599032724179
  0.2556967169842722  0.1812627761821043  0.9311480061130186
  0.2476997081097146  0.1768734540455382  0.9770777349203524
  0.3253888908184757  0.1498833718508641  0.9761569486149444
  0.2985776495721176  0.1702327719754870  0.9137787089061408
  0.3361825154984119  0.1527015281012944  0.9332139159415014
  0.3786284132255067  0.1383805493626629  0.9152704195946637
  0.4000358174207025  0.1343526580987865  0.9898949923971567
  0.4121137339778221  0.1259056598003816  0.9451677543033087
  0.0298132090818891  0.2439997136173924  0.9637889648539770
  0.1065393149540459  0.2300903900387067  0.9383371682332924
  0.0752186555454814  0.2336710858850285  0.9730117804478102
  0.1788583174949694  0.2087795591500152  0.9085779136470171
  0.1511220367222824  0.2132447131765744  0.9467055670186956
  0.1640858716240984  0.1999693858116356  0.9912348853583450
  0.3327377903478801  0.2671982897018169  0.9399675550499307
  0.3769114722682592  0.2536881915760834  0.9465588120654433
  0.4024902878114223  0.2463887093048868  0.9081570680953519
  0.3953375268712664  0.2478680148552188  0.9901723839504696
  0.4454282013065904  0.2300404780051163  0.9151937477126516
  0.4636880906638373  0.2224487979991778  0.9577736753471204
  0.0179066505602774  0.2572101734552602  0.9212533774271895
  0.1307567733864835  0.3352521592452734  0.9494646937499132
  0.1733700657963771  0.3173187052291668  0.9569939229947564
  0.2013208681677706  0.3113393349499308  0.9205635040511935
  0.2445735341339056  0.2957205667481099  0.9276353381832243
  0.2602738981288441  0.2854937950717089  0.9700286374250963
  0.3048582392876382  0.2721885657225082  0.9768809056601834
  0.0439223801943688  0.3571451500859694  0.0334251696747669
  0.9985607088342890  0.3749309802372842  0.0391988646503345
  0.0789990072002749  0.3355852295654763  0.0575878297730309
  0.3339786420031595  0.3835561633537278  0.0396658918054551
  0.3544459274116858  0.3744378468417677  0.9975665000026449
  0.4078175960805970  0.3692049474443685  0.0755868496221757
  0.4291780803630030  0.3654094227586747  0.0313867617127344
  0.4759769822153370  0.3598408130790190  0.0246209444712976
  0.1129224542621422  0.4527961271412136  0.0355383607700536
  0.1470221359725717  0.4376431872826921  0.0095927270839195
  0.1899541692296173  0.4219793554808050  0.0750351457694111
  0.1858001464513940  0.4208631977397085  0.0305285086576505
  0.2183540129283311  0.4110660292069897  0.9985923634309384
  0.2631928849268485  0.3979215964635114  0.0025813588089193
  0.2869355683475406  0.3918692242106810  0.0442893795254216
  0.3625392550835085  0.3897701125451680  0.0754151600153544
  0.4720566669991579  0.4537207523383812  0.0214144482953485
  0.0451475572958437  0.4626037733033010  0.0649799063066430
  0.9967806726046003  0.4596399575611880  0.0694690657931572
  0.0694909450077162  0.4636285316907993  0.0233102101742900
  0.1815234085315852  0.5313663664792675  0.0205286186766107
  0.2744863234275284  0.5032200248370343  0.0073863680757226
  0.2091336012911205  0.5119366076526576  0.0517648392277240
  0.2550538204050580  0.5033732437841086  0.0478459039813113
  0.3190591365990941  0.4889805369582934  0.0037990497058215
  0.3502655030430905  0.4788418168396917  0.0358613005888481
  0.3931283099560050  0.4649686934205334  0.0181943334863508
  0.4324573933306701  0.4622010659355936  0.0442109147140369
  0.0445798857669371  0.5593666371372401  0.0524454054172909
  0.9988917007964537  0.5465737306298446  0.0631457680488167
  0.0437269285959394  0.5746521531350887  0.0082841221975504
  0.0013750619699509  0.5873999879516957  0.9961413552965104
  0.1222486397041950  0.5495730385043894  0.0737618996771051
  0.1374919499152069  0.5473776516350857  0.0303511765792902
  0.4163508559107226  0.5545039901621963  0.0415694179036431
  0.3782337845913373  0.5805848251489141  0.0551057854580800
  0.4335258234671154  0.5510589938676561  0.9981125558822789
  0.1751540516926509  0.6503664894311129  0.0164567994092873
  0.1819872341511048  0.6525909795852479  0.0624504202618028
  0.2499579664797018  0.6201427040768469  0.0058875311560818
  0.2570737524845146  0.6212028023117745  0.0509020272526459
  0.2992123355207625  0.6079795360743893  0.0658246710967482
  0.3342968696875878  0.5906854465358613  0.0388280292203521
  0.3256417072344788  0.5899003136886493  0.9941503162337749
  0.4889231012555093  0.6069312352957196  0.0414388287875564
  0.4696175051023126  0.6408741185170160  0.0162745567347952
  0.0405403986748259  0.3338493084378207  0.1231058618081320
  0.0404775569592680  0.3775615835508586  0.1353698039243282
  0.1409558368093105  0.3556803103365273  0.1340611089166508
  0.1860351022021500  0.3615697681202556  0.1462258540633522
  0.4049592689614156  0.3236508623616857  0.1035324063278999
  0.4412973372497101  0.3401140821230715  0.1387290894479676
  0.0007931776226701  0.3978766028844605  0.1455676561004151
  0.0065917186440075  0.4468816374391966  0.1504402254282452
  0.0588846302678551  0.4514154021499181  0.1484631803839355
  0.0764624551660938  0.4061082023616377  0.1412441370898781
  0.1213524583041415  0.3969839136639695  0.1391199369170299
  0.1172724471421921  0.4575450057650023  0.0808800726009199
  0.1613799228449891  0.4544668361496201  0.0997397260568895
  0.1571005526109786  0.4317345820582891  0.1450148496370209
  0.2027166870864634  0.4061923685102310  0.1458738835251268
  0.2681300712691998  0.3954550096442556  0.0894416391408636
  0.2241983860476018  0.4067862801168944  0.1006217245048467
  0.2984942950128955  0.3929892281262728  0.1259299724867063
  0.3430627390926836  0.4116658005527271  0.1171669615717719
  0.3734913607088893  0.3991145098893797  0.1501037657758162
  0.4157199248072215  0.4193734390071778  0.1459730303908418
  0.4408372420356297  0.3858230295007235  0.1133699131026059
  0.4853810232249957  0.3971635530511813  0.0989682113553690
  0.0744288203930006  0.4623018172628476  0.1013581655781302
  0.1868528666986952  0.5005330460141822  0.0930011930743107
  0.2214583446252293  0.5082011148908077  0.1256994921526736
  0.2660644024835186  0.5005498597245337  0.1241658416532368
  0.2855940412577926  0.4943624918900095  0.0832351994571587
  0.3317371232021382  0.4845647942533685  0.0796514119955830
  0.3526204874935012  0.4677435948911361  0.1219019606568731
  0.4055472889464550  0.4676442023118461  0.1283603254198101
  0.4369273386501004  0.4815062573914147  0.0901933117631845
  0.4826808379606113  0.4758514963225737  0.1164568891680801
  0.4747985659027774  0.5069447213357509  0.1567090069854842
  0.0212314138097881  0.5681648102704463  0.1425179041959981
  0.0777399920596474  0.5576418266265184  0.0853743544620911
  0.0663050605309223  0.5626036768492406  0.1304604747959616
  0.1523508943566156  0.5342498351327005  0.1047207569688046
  0.1612949428350183  0.5449371709836850  0.1477623624430877
  0.2037225229191431  0.5314805204660187  0.1590532603390948
  0.4105554381885458  0.5455955363005047  0.1533221617631886
  0.4447255776008359  0.5339587969684682  0.0775487862483053
  0.4404969573641030  0.5620579254930591  0.1192333138199045
  0.4849189250524257  0.5557349657951193  0.1401442517128114
  0.2241193772342043  0.6398815912135454  0.0787813408670066
  0.2348850034767829  0.6496282661075123  0.1225686091298487
  0.2778419112767414  0.6402839954478231  0.1371775410924700
  0.3081112206845581  0.6196693696436066  0.1088062754936901
  0.3515306760285860  0.6162976280636756  0.1209097090053610
  0.3857814697027228  0.6035506090445903  0.0940689213215864
  0.4286878352062057  0.6090549411957157  0.1166014985006473
  0.4725794927028152  0.6376420963265264  0.1113930114926460
  0.2130554419442825  0.3310329736822381  0.1633881037862775
  0.2589288873149614  0.3320425395276398  0.1620241590459653
  0.2885164454473124  0.3734052975917646  0.1726828101171292
  0.3310023500634218  0.3568283598440329  0.1977482813804788
  0.3454244629563691  0.3851425334170705  0.2340743125374721
  0.3691292117043422  0.3542248860107274  0.1648517471888332
  0.4146486928027750  0.3396629545284955  0.1829807768495789
  0.4287496550706587  0.3725407533955885  0.2176584575112606
  0.4745179355060424  0.3632899036774898  0.2386359725207292
  0.1948837368343161  0.4473048620706802  0.2116899203979775
  0.1538201252164218  0.4521233232847974  0.1899304003309111
  0.2641814564010972  0.4080497017343891  0.2040234018845427
  0.2242349149485513  0.4217956425534856  0.1870686260189110
  0.2798790036943029  0.4315036611062236  0.2427202433632568
  0.4364195570321324  0.4164241045603922  0.1929424705907397
  0.4852641620854545  0.4164919785163223  0.1816315518138092
  0.4204792234840911  0.4484265597380230  0.2296340156978422
  0.0310942416076422  0.4850602767920468  0.2155599369991638
  0.9940801001894140  0.4711922789858125  0.1909231684115776
  0.0713115822129324  0.4712953033843016  0.1930866034461859
  0.1154383172915656  0.4703086957271289  0.2110916305092872
  0.2711294612532122  0.5307078041307993  0.1988291751326986
  0.2901565780158051  0.5062936612891809  0.1631122644677091
  0.3333578200507266  0.4900741127387728  0.1628457922636201
  0.3549775999624857  0.5003052975226677  0.2027096113552143
  0.4029291685153338  0.4923366793337696  0.2099213958232491
  0.4219775010246066  0.5008683651897236  0.1641616020080190
  0.0208907834727523  0.5864074001934043  0.1879882975970889
  0.0921365611344925  0.5709423703494529  0.1698177607208085
  0.1368564277492072  0.5663874419615718  0.1786603590337741
  0.1590031537068270  0.5782190163987883  0.2185236351706834
  0.2269196822647357  0.5435860399153353  0.1956268008931904
  0.2045391281952689  0.5694903790412303  0.2265619030987361
  0.4060782312249556  0.5792507906851481  0.1855687186140051
  0.4261689937112735  0.5756327134703240  0.2288472085368069
  0.4762575915738601  0.5773773246150312  0.2232267181480976
  0.0656534786917225  0.5873375923785863  0.2039045049602954
  0.0878996400735762  0.6034163762275451  0.2424951834067541
  0.3499430728369440  0.6603256715547898  0.2337437870719218
  0.3365686342739201  0.6479238888306037  0.1914503263244105
  0.2927121970980079  0.6559297753087845  0.1778096273092216
  0.3651651070173119  0.6294711162483554  0.1615976462001041
  0.4118458667080117  0.6219442264773543  0.1641951040804462
  0.4863328239977180  0.6375704026279092  0.1607930672611466
  0.4442162622023424  0.6493151336547116  0.1855515451341585
  0.0129661304401743  0.3622881302325072  0.2677947981471431
  0.0388934913318186  0.3322865329359238  0.2427865673411144
  0.1040655867632023  0.3604573639737180  0.2763968138286850
  0.0849897543535719  0.3325488138802755  0.2455785402109631
  0.1761822079441786  0.3296955743021068  0.2555085942339145
  0.1492728091731338  0.3557830913663412  0.2832091326500684
  0.1671418928301390  0.3763939414730347  0.3198841287734547
  0.2217938310900160  0.3253810241347075  0.2657288699800219
  0.2391675755681318  0.3453825703952486  0.3033002191205199
  0.2111028151810927  0.3694299221650433  0.3292750192975037
  0.2827403580004343  0.3407930781393577  0.3178268338478040
  0.3871115874496120  0.3267063381120648  0.2764458958842779
  0.3896214701767091  0.3742214210805063  0.2528922403516253
  0.4524334773637889  0.3863883787949228  0.3260022623465043
  0.4661888904697478  0.3172602913815668  0.2605864456242820
  0.0326660552263068  0.3899469798722251  0.2993051421752283
  0.0783046027307231  0.3874637369463805  0.3043847969741903
  0.3240230450984055  0.4213847117630867  0.2537328976142199
  0.3545432290438549  0.4389795041403731  0.2849226193689298
  0.3964608222323625  0.4201509015290685  0.2735212907775468
  0.4320326623354696  0.4277096965450665  0.3075139771234558
  0.0217727752316465  0.5092068626457605  0.2560082297803192
  0.1264867182838239  0.4887207548941742  0.2529936765998507
  0.1706305729176568  0.4874182360039689  0.2721003253160980
  0.2071847728167963  0.4656472840641516  0.2531731440816546
  0.1694994391836369  0.5126545625090084  0.3118378589770512
  0.2524218332179429  0.4619165669117457  0.2694447470512707
  0.2690828127135395  0.4876121947354403  0.3080909031534406
  0.3515979537328020  0.4701240491364400  0.3190851830712221
  0.4548886840680288  0.4593302872615033  0.2657984215582259
  0.4519300715696138  0.5097049311820430  0.2698728344002230
  0.0540285535681000  0.5231183686962546  0.2875189772584477
  0.0414322956645153  0.5487436111313223  0.3257050722682577
  0.9976051740207591  0.5600531288464380  0.3330220222776130
  0.0989534439634825  0.5127397748997660  0.2838218940167324
  0.1266730430365898  0.5273323539549282  0.3181770170237435
  0.2286014995453627  0.5857152597026494  0.2629191289344835
  0.2751208869413819  0.5768461569090533  0.2664943122999247
  0.3382198954042920  0.5302137631919903  0.2358401190640191
  0.2947746056745327  0.5461665062139270  0.2355311342940440
  0.3720687794434527  0.5415814842645517  0.2658570996338017
  0.4136019664077137  0.5281356413003164  0.2449316326272006
  0.3831820430043132  0.5793477217549069  0.2959201439157933
  0.4550590535837228  0.5261073449621902  0.3168256660158300
  0.0216783379680776  0.6394821324268987  0.2776406434352036
  0.0675994515584646  0.6280284840055980  0.2749778269753219
  0.1583263778080119  0.6161228242264069  0.2877886780453102
  0.1366529920089952  0.6441186320950240  0.3179554630219190
  0.2043420382321240  0.6110573401331723  0.2932494889979273
  0.1345185402539242  0.5988340173031222  0.2507747409862334
  0.2976603920011040  0.5979185956967623  0.3022746890624731
  0.3431252323299206  0.6012934913115010  0.3163059440933651
  0.3943146650587319  0.6556135728422935  0.2547505384555513
  0.4153827428506614  0.6100953738617313  0.2667431404416085
  0.4628009762457267  0.6218019328901829  0.2876419849849625
  0.0231018723305231  0.3476658447968838  0.4077183482773368
  0.0038571071388534  0.3212592808155130  0.3737402178981282
  0.0685035476382135  0.3422094479663969  0.4151555011839690
  0.0928953847300507  0.3140282041028830  0.3874425439074319
  0.3002013923656833  0.3607003987220190  0.3565746236660370
  0.3414136169298727  0.3511202866712315  0.3733023599846532
  0.3675023774470282  0.3692363952981267  0.4068686503935203
  0.4103337393717401  0.3492525434590401  0.4046754212936605
  0.4402114778815500  0.3388254246832727  0.3373810347402145
  0.4857322619994711  0.3248759160345438  0.3614977588417865
  0.0072051357996865  0.4172744304604982  0.3276007114420603
  0.0285094462033203  0.4423148554144156  0.3615021535654726
  0.0977735917015918  0.4098881054321774  0.3398695126424631
  0.0741877829058381  0.4375818001614643  0.3687499043604602
  0.1420546891434036  0.4028384893668333  0.3482248909946505
  0.1614291919850330  0.4208156655830208  0.3859994797318416
  0.2281550338531271  0.3850301499966225  0.3675172400374046
  0.2036828983364950  0.4098005966544644  0.3956500113172009
  0.2712035254625840  0.3835111391058489  0.3821017265951294
  0.0040370454666802  0.4705185452184313  0.3895056538188122
  0.0963113717048880  0.4588724079861776  0.4046644967048255
  0.1417405708745789  0.4505549242017448  0.4142884569131445
  0.2452054266978936  0.5163012224006494  0.3379942165856575
  0.3147381863902812  0.5216426119420137  0.3634269541215042
  0.3127724480341131  0.4920232738933468  0.3270844384935045
  0.3877357581131551  0.4839203304333365  0.3449989182023658
  0.4263850457825247  0.4605794811530938  0.3415014680676302
  0.4662054064728367  0.4848112956814172  0.3505449514271173
  0.4714679138335157  0.5150122891848857  0.3912612869857446
  0.0714862623286463  0.5660780801005865  0.3571045906652916
  0.1151230071135029  0.5541340402941040  0.3531727112874977
  0.1885387853306439  0.5524049774195319  0.3792705683123490
  0.2008091187332668  0.5258282001555841  0.3424169296184081
  0.1459128843926527  0.5678256209653157  0.3846058545603403
  0.2618977036544577  0.5679888757954719  0.4005391970887382
  0.2726453146716699  0.5363384312535866  0.3701675793462312
  0.2181054343328377  0.5718277996168523  0.4076719187747884
  0.3498874285554494  0.5405043177246444  0.3862553626821965
  0.3915195317626969  0.5285385639712590  0.3658923646365365
  0.4145181813517880  0.5596843942066669  0.3317566365841620
  0.4268707002323385  0.5347449361638249  0.4007185031250296
  0.4322333748084357  0.5854872879181371  0.4033180182076218
  0.0169764104596107  0.6056751390978167  0.3991396315083201
  0.0603980531807788  0.5952461585736795  0.3914689655153411
  0.2266295383439858  0.6295281579816008  0.3301234269271234
  0.2722429580253355  0.6227176860731569  0.3327904576715890
  0.2971859195592064  0.6381942493722106  0.3727085745240032
  0.3436699220568730  0.6390847991320338  0.3502213235819097
  0.3817802831710487  0.6464697159845684  0.3830224899772394
  0.4382479063848755  0.5996937810417547  0.3553721427768219
  0.4259126641331967  0.6487803832865934  0.3605322131598211
  0.4793678183217576  0.5983719261343559  0.3283353540188844
  0.9976929235901005  0.3766266529618648  0.4359192050266976
  0.0892297987876916  0.3647452304741250  0.4500144298127512
  0.1566212983646050  0.3770958861957535  0.4957603235950769
  0.1585595810154632  0.3288613435435560  0.4312912957300389
  0.1347504079032505  0.3573043081164172  0.4592060828204474
  0.2032946085130002  0.3213410116135971  0.4402905862459028
  0.2258825544478867  0.3392528345365553  0.4778909251713711
  0.2720502859162882  0.3270949214592644  0.4807046650224929
  0.4490605050179844  0.3664599684689132  0.4243990918352271
  0.0180286959966707  0.4025931383247771  0.4697209701012616
  0.9954751182276848  0.4345356228711777  0.4984565979181684
  0.0640303406671801  0.3951215411303501  0.4748990025255557
  0.2312663931324357  0.4248209268503150  0.4286427378889360
  0.2748300637484523  0.4076010251060980  0.4213293347687196
  0.2981523068026098  0.4414911261817004  0.4844869731561481
  0.3112411231976843  0.4166196330846376  0.4470389955676505
  0.3552406845521134  0.3989440090591325  0.4400964586601309
  0.3895873130993700  0.4049230711726343  0.4710134151105227
  0.4353384300709053  0.3912307474104040  0.4625783259019711
  0.0266369639623511  0.4959174637660473  0.4222446587797101
  0.0729223309680639  0.4895435960382108  0.4299955530406349
  0.0982897267546011  0.5116941438023102  0.4627373841166899
  0.1680063218073519  0.4679699267082796  0.4497039959628721
  0.1436733175241781  0.4988476053006006  0.4740573900163895
  0.2538941986489904  0.4622121557189000  0.4889352816883993
  0.2157538283206198  0.4545640209886215  0.4588643455698870
  0.4520922028703176  0.5153204254222177  0.4690849140792563
  0.4887016833982450  0.5172518763876355  0.4399484462002503
  0.0248827155708952  0.5525807271500530  0.4820184843696814
  0.0020470584778621  0.5248043237417680  0.4492192697294314
  0.0763508815433258  0.5487762190975097  0.4833325362246059
  0.3525582524759808  0.5687343358348432  0.4284171791869658
  0.3770935739830633  0.5423009374335125  0.4619244617522427
  0.4142462204534142  0.5229738670009949  0.4450425138590385
  0.0301845701350036  0.6052718528846873  0.4777361470638488
  0.0059394037819218  0.6310500664753901  0.4409433762753860
  0.0799659075056242  0.5997660615949068  0.4675552227608451
  0.0925306368054764  0.6158984716484635  0.4230593495128535
  0.1362299105231675  0.5958593499832265  0.4203261850539030
  0.1580567113924302  0.6239129062259821  0.4972489756607066
  0.1670060948896616  0.6070648170897784  0.4544296010804878
  0.2096947704361718  0.6038262621856605  0.4396973607686733
  0.2434432778226244  0.6373018084390447  0.4414020223453131
  0.2445408887484860  0.6547182939170298  0.4921181193835216
  0.2838088198701167  0.6099916810151583  0.4181720139789336
  0.3136861993439020  0.5904539575995041  0.4495622775856477
  0.3891478388744843  0.6091032535509110  0.4173663582999255
  0.4004821765239980  0.6314439750855695  0.4599120549010935
  0.4387145457258673  0.6172889213418824  0.4813637163870638
  0.4662803989208942  0.6021752551361683  0.4402282676231423
  0.4896611663125693  0.6392749141194526  0.4176055367156141
  0.0246054768852983  0.3211510062739925  0.5642003510831793
  0.2015050896830555  0.3671218863146915  0.5089935668843885
  0.2588005011565657  0.3794183266588139  0.5729463424318388
  0.2961877077845750  0.3587786531327347  0.5545857337561392
  0.3017421935710025  0.3364880841061081  0.5137951168879966
  0.3370358668575158  0.3539358365943565  0.5771602995399909
  0.3455241595718628  0.3194835339816370  0.5112051837439330
  0.3676755105830736  0.3312161662894577  0.5498916383488861
  0.4100527258614693  0.3173244640012416  0.5556275157774563
  0.0647933726673945  0.4509150171696328  0.5295160914349960
  0.0872150927432802  0.4177466983283850  0.5071674969724769
  0.1308247872355905  0.4077075750700557  0.5193643517649951
  0.1459810691807089  0.4262152404233907  0.5585830984465627
  0.1857765109984769  0.4121755821101407  0.5768166007100803
  0.2163139126737870  0.3854861474147085  0.5517902768724831
  0.3312058662901700  0.4425224355108796  0.5177691194630878
  0.3751185268773143  0.4242284385882684  0.5115615657071042
  0.4065600422566104  0.4259403642349934  0.5457701472750096
  0.4661079325688215  0.3986546652255950  0.4960548912480420
  0.4506376639436248  0.4118559902474555  0.5375837562002950
  0.4807440649241386  0.4128890597368569  0.5722131276489991
  0.0218641504467414  0.4628277347796988  0.5235217439981634
  0.0095603774925524  0.5025138591961874  0.5506200261401363
  0.0833188549048272  0.4749374133279818  0.5623221863393775
  0.1653717407490088  0.5156259378136091  0.5112568332088924
  0.2470141125765602  0.4861228003292182  0.5276738213009723
  0.2785015559469012  0.4841834103524751  0.5631072241492894
  0.2070965276181244  0.5091349865793782  0.5343950566904201
  0.3204115995366787  0.4628214972016832  0.5583956251666997
  0.0010214062263290  0.5491360530078582  0.5260194992865539
  0.0251756521088788  0.5798720286867058  0.5573663265184758
  0.0698315337791598  0.5597724713195388  0.5671553868678926
  0.0991501143450193  0.5620183165998630  0.5266585713596134
  0.1398098576842622  0.5425265312913078  0.5375827737732414
  0.2008992205505096  0.5294854527847469  0.5756565377462785
  0.3429742505137662  0.5754279654374191  0.5241924109252635
  0.3457746079659875  0.5819909986346150  0.5703516772641342
  0.3782472526714518  0.5501564371344364  0.5073164460128151
  0.4181655081868171  0.5390783876721131  0.5331201087069818
  0.4585194471492382  0.5255713132259684  0.5131249346249096
  0.0307617770809621  0.6239596047106805  0.5242739556454610
  0.0807192503714111  0.6379505765032025  0.5345861944231924
  0.1094055031999518  0.6096073692538547  0.5079233272260882
  0.2760563983663807  0.6234709831470526  0.5171868938941008
  0.2752064575775909  0.6256209600696899  0.5647119990926428
  0.3091438782837784  0.5956054133843851  0.4962792317404658
  0.4023395807992707  0.6505193989933630  0.5487050695031809
  0.4395498660526838  0.6279627294875004  0.5285300326761535
  0.4738162434385780  0.6291729223345438  0.5629221381671665
  0.9931538480036322  0.3732785996805694  0.6317589810412055
  0.0370308261343738  0.3571782783015057  0.6360560809508955
  0.0550186711425862  0.3330245432916151  0.6009527735925548
  0.3430851859633297  0.3642216059054086  0.6207456495705269
  0.3834763719138446  0.3550689283871269  0.6440526147227641
  0.4380050897675950  0.3214103513664597  0.5921639255010648
  0.4269030784611528  0.3373815810675272  0.6331876919575442
  0.1188082645792198  0.4558321824086585  0.5825221375164815
  0.1579151269463821  0.4438157210745677  0.6485366868745196
  0.1915827701521336  0.4243329728267614  0.6216798853022972
  0.2313179382818323  0.4136867399630521  0.6416380022359114
  0.2658429072311884  0.3935944071787597  0.6175609649125441
  0.3048486102387364  0.3839227197330765  0.6413108900494208
  0.3951002057154352  0.4436151816453053  0.5873307675443885
  0.4267326034651803  0.4442184278699629  0.6224181006388393
  0.4708938246317289  0.4280476868315980  0.6150298103790914
  0.0545997868929927  0.5104766546504043  0.5791979547664151
  0.0498659131000042  0.4991738264857444  0.6269815037751649
  0.0135691552860356  0.5137165656799542  0.6508534005054908
  0.1211186850080741  0.4608068062367425  0.6277180031391202
  0.0847818709744449  0.4793329425614447  0.6503895835945054
  0.2668099037912182  0.5011460474900984  0.6048539750482248
  0.2258644391508583  0.5230225527579859  0.6126275175274896
  0.2956417469930855  0.4945643585832263  0.6398853720210059
  0.3383806385914603  0.4766230370172387  0.6354242821127887
  0.3517784797516066  0.4613068777032443  0.5933692357801941
  0.0001034730924964  0.5791745674023526  0.6015429109740794
  0.0723708884354259  0.5901655132808628  0.6463331390158411
  0.0952096107773392  0.5875038561993813  0.6041478294054659
  0.1598199670203886  0.5502787377966845  0.5777932543672640
  0.1405400518963150  0.5674625018160440  0.6151042881740173
  0.1624055249307674  0.5570643355011948  0.6565515429109360
  0.2072329189564823  0.5365119037730354  0.6543530349030420
  0.3840065631251610  0.5688710836588911  0.5962346414700596
  0.3862036214159455  0.5789078341750052  0.6416403142142441
  0.4229795981591447  0.5497207407842337  0.5775629996639781
  0.4662920370412723  0.5463334576607944  0.5989142800283783
  0.4678622113696724  0.5609653144102870  0.6427019052397166
  0.0249248793011834  0.6055809098963663  0.6406947445490331
  0.0193177728089231  0.6527799146181407  0.6215506895952482
  0.0897304966373483  0.6346510138384140  0.5828712265961591
  0.2367525241427808  0.6444140681780015  0.6350728155596417
  0.2398318190268079  0.6481221080752442  0.5881077101553797
  0.3105834002732866  0.6058617400366174  0.5902963971674954
  0.3105844580312006  0.6081569792571736  0.6370639790631374
  0.4560204249192523  0.6465002083038565  0.6031929496065446
  0.0123844560339545  0.3810274301734722  0.7027694863429554
  0.0505892372206228  0.3629692750069387  0.6815017941470238
  0.0902057824495367  0.3518037578839151  0.7061870913562961
  0.1305080571214455  0.3342992915323522  0.6873537322329378
  0.3789910410854190  0.3671195651256561  0.6872686016539951
  0.4124953613861987  0.3618871978412082  0.7171309914323469
  0.4530215904714892  0.3433396240918425  0.7086210805794007
  0.4622968301127180  0.3320482205549756  0.6648193542650879
  0.1596214475392273  0.4463137128001889  0.6952021454779500
  0.1990301177565813  0.4338885975433713  0.7148626164871648
  0.2336164036442830  0.4206571836737564  0.6867964897839213
  0.2691987830267857  0.4073000033490292  0.7116935163970073
  0.3041838834628840  0.3909713510938336  0.6874801673199665
  0.3411197361524449  0.3807693094300543  0.7103823921747022
  0.4859828280000109  0.4455244507538272  0.7055895399252745
  0.0446939617265247  0.4881115256657124  0.7187071220775771
  0.0082926705806129  0.5056089777431783  0.6959545372368741
  0.0838332556609288  0.4755591943248235  0.6965285726389917
  0.1218447321182281  0.4600506964254848  0.7197150955092265
  0.2336396373386147  0.5273792595876071  0.7360606709787874
  0.2368792944207365  0.5253534104867714  0.6890735166366879
  0.3045981784021765  0.4990835966959583  0.7189192935735651
  0.2796242033964748  0.5067813597182690  0.6806908923075501
  0.3491100127639900  0.4835302782636782  0.7160829742739969
  0.3665728080808965  0.4735372092327411  0.6723652159999468
  0.4110183702223822  0.4585249461305727  0.6643230157438748
  0.4398847422132607  0.4561379923583719  0.6996625411377162
  0.0636941273164566  0.5905609133301922  0.7222861988014314
  0.0923668109428016  0.5813985030764752  0.6875281064854206
  0.1377783995786640  0.5655025997016030  0.6965921946149766
  0.1532345781478308  0.5580728353325992  0.7424519844403715
  0.3877145035427258  0.5876658369724572  0.7327278133978385
  0.4276351381031465  0.5740634381915110  0.6640183847631250
  0.4714565815840428  0.5780885731141862  0.7305450471460986
  0.4287662740086284  0.5799889257929305  0.7095963359154115
  0.9958040215034767  0.5976224707988493  0.6787888185640228
  0.0164645806893125  0.6089823578626807  0.7223563637415924
  0.0060968480180134  0.6568259080041953  0.7192455608727897
  0.2360380805484385  0.6389293255980291  0.7281188714928262
  0.2730670466578919  0.6260259894873187  0.6581835572817262
  0.2728424343731176  0.6255490225094573  0.7040112872376086
  0.3065060260707289  0.6103425942582293  0.7320048125815984
  0.3473360938653646  0.5943047790211475  0.6632346994277900
  0.3470428716931390  0.5974558877576170  0.7106687467374999
  0.0472885644024787  0.3707066720325732  0.7727982621144119
  0.0425358725010330  0.3726419021967310  0.8190104517986547
  0.0090759382536142  0.3830649996589248  0.7484610551839793
  0.0884297967210001  0.3573413175490834  0.7535805578791827
  0.1255667825062449  0.3463904214755618  0.7825852986640983
  0.4165025815837568  0.3588934049531242  0.7943627586222336
  0.3942963350844851  0.3702984775374997  0.7582732189429376
  0.4598051565949673  0.3432496780798625  0.7873868945143023
  0.4798534245719448  0.3350839596544413  0.7449698401862767
  0.1201030768617356  0.4597365304313976  0.7661806367567832
  0.1493193520352205  0.4480549377306423  0.8016950636389594
  0.1924795431849449  0.4325270126575589  0.7995819056187168
  0.2140745924887149  0.4272848209712582  0.7591728928909658
  0.2578210451014121  0.4108197789527170  0.7577302184114401
  0.2806591505782347  0.4007618012354574  0.7968144086090032
  0.3250890384185109  0.3862446806051651  0.7954927593181983
  0.3492480099198868  0.3811136118168450  0.7564476500688233
  0.4487417448496365  0.4535615833715861  0.8144777626067783
  0.4556162597645324  0.4555769787919616  0.7706901963410633
  0.4959158948110399  0.4466237894806202  0.7500657220603570
  0.0428637352948546  0.4857037530346485  0.7645708481606999
  0.0043864552468981  0.4962842416097348  0.7884463307497710
  0.0805358913368772  0.4728046910284134  0.7865965810711131
  0.2457010240244595  0.5205405140717788  0.8249077321678445
  0.2754906151895014  0.5105873623575593  0.7545968852155437
  0.3270729954289001  0.4914130633631785  0.8201892398220962
  0.2843133726326473  0.5066000949163100  0.7998503734596271
  0.3783816912423606  0.4757655109954427  0.7531260249038528
  0.3693442143535574  0.4784619189913202  0.8002893971865389
  0.4218029931077746  0.4641886430172993  0.7414276143011993
  0.0450361243801734  0.5918238052180542  0.7944967060014648
  0.1210049780155553  0.5679931457754385  0.7757304695691586
  0.1278789816475668  0.5643300547240880  0.8218715348094847
  0.0789736214124111  0.5828694309490851  0.7643867937269833
  0.1958402397230886  0.5411761591224569  0.7601909951455367
  0.2041445385590634  0.5372776773656843  0.8068919848607354
  0.3907292996455737  0.5852237657027323  0.7783710206297754
  0.4335073654388770  0.5742754949045484  0.7950655345401990
  0.4746388466468615  0.5747578681831623  0.7758399741632988
  0.0068095557666199  0.6052022456207384  0.7724962280158403
  0.2056931635925578  0.6439882416136240  0.8011385481859623
  0.2429556758787298  0.6324654578610850  0.7736411779768024
  0.2889627275621588  0.6148924947359337  0.7773482027253478
  0.3131796190514547  0.6039125014569948  0.8165861067344586
  0.3597158942677126  0.5895794971679064  0.8149101025549694
  0.0029875679738365  0.3820379747528487  0.8414884057060652
  0.0015393229484453  0.3820309830863767  0.8874567504461153
  0.0781341020750597  0.3609484953382719  0.8900661651186498
  0.0792315653364232  0.3630423503336340  0.8440725785528385
  0.1205100847595635  0.3494766378756292  0.8288039494435965
  0.1183635596300076  0.3457315443733936  0.9064237032749655
  0.1449446911095609  0.3389572390118633  0.8689911072193689
  0.3270497786481146  0.3825863747247147  0.8763321099902750
  0.3482910596508673  0.3776873210160106  0.8352734509996119
  0.3928955773957576  0.3639152195613029  0.8340512986460287
  0.4160797037959575  0.3560973737914113  0.8722349962063526
  0.4820948542656824  0.3366766244795327  0.8259281071036659
  0.4605055813591271  0.3433923501531391  0.8672001427008357
  0.4849690913636779  0.3352935400273532  0.9041599162641232
  0.1273157113447825  0.4538254683283642  0.8433848828901442
  0.1477111911515125  0.4442560688547604  0.8840409334500119
  0.1929379322487469  0.4280374545429932  0.8803851717451182
  0.2148355718217474  0.4222318771111373  0.8396706569512967
  0.2592692090616858  0.4070900118363919  0.8383260647140358
  0.2827034967104702  0.3972890558408785  0.8777940072924809
  0.4047388973566282  0.4631228696596155  0.8753621859584078
  0.4409591099813666  0.4502324350318073  0.9030424808101729
  0.4861433414174052  0.4418212023918868  0.8388841094784794
  0.4823921125531010  0.4400949197140224  0.8850632142943170
  0.0484037892936253  0.4759087106486415  0.9029714709827457
  0.0466302991724199  0.4792311937116664  0.8571224682063983
  0.0067459221999515  0.4929010102786526  0.8348275077114866
  0.0837839266669175  0.4692740521677483  0.8323203112991119
  0.2494269541639500  0.5172300978263398  0.8706121806275399
  0.2147448132600688  0.5290867361375702  0.8993406825735520
  0.3276028487793627  0.4887008577259696  0.8669123570692967
  0.2890431059059236  0.5014532510918230  0.8893786921394211
  0.3645422561301935  0.4738199487421235  0.8935888898267152
  0.4060823498735235  0.4651903494889222  0.8292825420574664
  0.0509356652233942  0.5889533980868277  0.8396602497740434
  0.0989508629296061  0.5717987040091255  0.8984457340996512
  0.0931673348900473  0.5751250951209986  0.8528730356573442
  0.1692561281260213  0.5486136505626636  0.8365761099754727
  0.1750795697804707  0.5455222608194342  0.8824258593963809
  0.1406426140838178  0.5568737079763270  0.9117343044058590
  0.3838532980929408  0.5706979336794018  0.8945246974417711
  0.3876563867722922  0.5752277262951333  0.8507794508587642
  0.4313902535352122  0.5654230526029838  0.8387032610317139
  0.4686953658838521  0.5575283833413116  0.8644565972626866
  0.0159075088781359  0.5989715020785334  0.8693125311532197
  0.2060475476487110  0.6399495089550374  0.8480870833205888
  0.2435804240803929  0.6222921438835584  0.8690272310621260
  0.3084910820144171  0.5982762856070288  0.9008315942214048
  0.2894613853329328  0.6080223182040350  0.8580529838143925
  0.0397956540995459  0.3698637086048956  0.9103632390342631
  0.0597129464166876  0.3570298488485598  0.9888870746363737
  0.0322652100125501  0.3685677982913424  0.9551435183647297
  0.1037328300045063  0.3415151286962770  0.9863224324394240
  0.3296721296102343  0.3799037843410391  0.9579613745852056
  0.3503649084232779  0.3745260415891938  0.9160550054881310
  0.4007366570168935  0.3643719038167189  0.9941362904502078
  0.3949833183179984  0.3617198066303457  0.9134420737267449
  0.4201774045068330  0.3562146533822207  0.9517748676914649
  0.4901626430912275  0.3377761155110149  0.9849623931741252
  0.4647833735510573  0.3431094638956153  0.9466397214828129
  0.1263463614623450  0.4495010847032136  0.9275408516239754
  0.1535597272109089  0.4368093945881012  0.9632462688748659
  0.1972291116885533  0.4210507642460070  0.9580371393595717
  0.2622213620008982  0.4024386570123381  0.9191977929070388
  0.2178330592912743  0.4171352330087819  0.9180765325370935
  0.2849414396792561  0.3933967932875806  0.9601015067775804
  0.4384239923237773  0.4506662610550782  0.9497384797959397
  0.4755061551172051  0.4412733946651580  0.9766617523826020
  0.0145010696274153  0.4825919046687919  0.9690519248222895
  0.0087219537771812  0.4862067893490470  0.9237212112622871
  0.0816858149345585  0.4641692746629543  0.9357557134347003
  0.0584463754546082  0.4688710446613089  0.9788568382695929
  0.1865744620744487  0.5359641618554100  0.9740948571529429
  0.2196771511111935  0.5248882132777530  0.9455419476689599
  0.2580766455893403  0.5104150918987843  0.9637145492794311
  0.2911446447698874  0.5000853475191653  0.9344586739415857
  0.3269105347864845  0.4856472425002194  0.9587928353481523
  0.3642958134232863  0.4713987167537839  0.9401467333707051
  0.3981414870076248  0.4603511126904425  0.9705180760336372
  0.0208765672508460  0.5941785805770974  0.9169993503942819
  0.0646237209507158  0.5805569692214173  0.9301167229621465
  0.0756133001844227  0.5733437200331399  0.9755913293379184
  0.1169219643988842  0.5587336479742337  0.9891214260604728
  0.1480753993721648  0.5523226095874257  0.9561920267366064
  0.3469667378187337  0.5821701053446213  0.9182781855140951
  0.4180621020761747  0.5566137253163284  0.9227279349393581
  0.4019783616214759  0.5597633495279026  0.9659951226938609
  0.3572385097496254  0.5769993678879621  0.9634851034410858
  0.4619333160846685  0.5514466186002732  0.9100533029474244
  0.4804692580963183  0.5499532355927600  0.9863025906877001
  0.2053552640937088  0.6357924289096505  0.9426174588160968
  0.2097965349664417  0.6354677914924829  0.9886327602945475
  0.2392929735934448  0.6215086176336080  0.9154288490560681
  0.2845005532262099  0.6053426248217115  0.9785269621883250
  0.2777916726777900  0.6069423781489945  0.9338417981704216
  0.4741072396610427  0.6519009506727335  0.9076509478754426
  0.0145713677030163  0.7030353890850872  0.0169582289002393
  0.9973877798429546  0.7019962497661164  0.0597574370693406
  0.0587952568671578  0.6899701448292680  0.0035538627007785
  0.0980174204638143  0.6775798472792894  0.0268431526476729
  0.1041275898468918  0.6784427308646431  0.0749861485300205
  0.1348594505926291  0.6649414306513952  0.9981514730926249
  0.2702540111237038  0.7256213225499895  0.0255453809189276
  0.3062622443559069  0.7201814702739567  0.0538145642254518
  0.3488386271724918  0.7036603096190781  0.0435611833074469
  0.3574296234658924  0.6898472584317614  0.0002411097264613
  0.3997156822133039  0.6710410197155324  0.9903027618447398
  0.4298707115590982  0.6639027666193360  0.0237229049544107
  0.4234616228839254  0.6843237618341581  0.0646499414794646
  0.0713315081567617  0.7850164710416536  0.0453634938760208
  0.0859354630458961  0.7803703862427925  0.0001917527157341
  0.1295021574812263  0.7673199508750738  0.9886672664074233
  0.1477786442745984  0.7700725725751445  0.0664948114429477
  0.1585804339589287  0.7607787628869734  0.0232323827943251
  0.2002016740149412  0.7459460207108626  0.0140294468084049
  0.2310052249342861  0.7409631593321780  0.0469806775280114
  0.0265178038160729  0.7986874612847936  0.0542318222809933
  0.9966873672184735  0.8058568290051108  0.0188452406288909
  0.2791240904900006  0.8408257927069709  0.0353535911294420
  0.3136797841175434  0.8242083254093647  0.0125144441825889
  0.3522196879119190  0.8151944461730295  0.0358787514405994
  0.3832926354280221  0.8007465935192889  0.0057630314176008
  0.4265982179851770  0.7940223813115406  0.0165848387996945
  0.4360787493880152  0.8019281294006245  0.0604922076891573
  0.9955983975131074  0.8966486359760839  0.0124012805061405
  0.1045302699385198  0.8729062128667672  0.0315469601650390
  0.0794737788830242  0.8811081587536062  0.9963554130524410
  0.1500238079413780  0.8664273081619099  0.0226737895408576
  0.1696835752481836  0.8702408024583391  0.0647880278238723
  0.2359604888820477  0.8515130467269043  0.0220154772561591
  0.2145612357483103  0.8653348259036845  0.0621459330428786
  0.3464997024725983  0.9213242018404232  0.0062681400323730
  0.3883003105444714  0.9073545648501924  0.9961284331060000
  0.4164976249670242  0.9027319949637338  0.0336685070316487
  0.4597995556488212  0.8886338399229115  0.0350053800120747
  0.4871441447865593  0.8819167011047294  0.9987474362665768
  0.0018870343163074  0.9949050413984598  0.0504924049476399
  0.0471034416332228  0.9906322978300636  0.0443962227246738
  0.1182909681533429  0.9784257689362276  0.0748697728410682
  0.1830646619826801  0.9717982056065434  0.0268523900162861
  0.1371440825892501  0.9793808006912853  0.0322376649690504
  0.2081938876552706  0.9652952470530578  0.0651100582426909
  0.2541812570945272  0.9593897850453429  0.0694679032544772
  0.2773597518224072  0.9462067553157156  0.9952025643779686
  0.2862509257742699  0.9479502549613364  0.0409287179489560
  0.3310722038314089  0.9324798251912755  0.0485381990399943
  0.4404402708820138  0.9969396225371612  0.9962129316568716
  0.4670256495449862  0.9918370787013220  0.0754530597587487
  0.0230572639347900  0.6969580152748768  0.0987740605188236
  0.9941445053187610  0.7057264828931105  0.1348678819426944
  0.0703175278959115  0.6915612038369773  0.1074880977726166
  0.0852949121410479  0.7007626093442011  0.1534363731653420
  0.1479488017213299  0.6685266593455480  0.0912941939762348
  0.1605935444372394  0.6779748686094074  0.1360167282093507
  0.2045857171528722  0.6718765866385746  0.1500859727119745
  0.3004889549857760  0.7346702225476713  0.0972482546994089
  0.3836012589419921  0.7036121755106187  0.0758283233149370
  0.3788395649186459  0.7207640607702153  0.1195498668804241
  0.4145603624096011  0.7232553881215621  0.1514357632982513
  0.4592372711796370  0.7217586846790258  0.1318609726996535
  0.4610313959032213  0.6848471536265516  0.0953839035349306
  0.1044159383417890  0.7826619453653297  0.0784359909046947
  0.1082593785035120  0.7935511592437644  0.1241541609230464
  0.1533970111313561  0.7880614697658385  0.1378632922045497
  0.1795791612366869  0.7714729204818993  0.1014435447111174
  0.2237977295622657  0.7574809837871389  0.0905446283324680
  0.2625538708762231  0.7562228168239485  0.1157633313631577
  0.3362621043733859  0.7365875063445968  0.1265773830731202
  0.0104374642586340  0.7977176272470616  0.0960397164924575
  0.0040582220419220  0.8044630381220972  0.1384470359508101
  0.3253763310556912  0.8466690042958352  0.1027558160807453
  0.2859239160520439  0.8529393778257384  0.0800167985576511
  0.4039896999166397  0.8141280399485045  0.0925596124172542
  0.4182491876233359  0.8140097336246083  0.1366822016995703
  0.3601075125848286  0.8241670894508736  0.0798212209095482
  0.4816985972207086  0.8001993262814336  0.0743528252926023
  0.4588870912436483  0.8406610066112352  0.1464795841885573
  0.4900517126618080  0.8422947539599528  0.1056177485635010
  0.0102389588069621  0.8952608314139885  0.0943479633523493
  0.0570174704566166  0.8930608136510758  0.1000104240072113
  0.0620814359513119  0.9210560207956535  0.1405624810612332
  0.0953470883854499  0.8814500615484497  0.0772350972901223
  0.1369172410082772  0.8805085271551171  0.0985881709113710
  0.1383658919505312  0.8911537269029959  0.1441065375353869
  0.2467639274926423  0.8711652020259215  0.0957229535200241
  0.2417191372004792  0.8927286778813496  0.1379380421317694
  0.3302988924573751  0.8742858585847084  0.1416440946050075
  0.4031823901485663  0.9137170402527547  0.0774598880616124
  0.4451002471986672  0.8909089453834882  0.1547494317865155
  0.4772521031035614  0.8893018782645733  0.0818375872691987
  0.4420951955668600  0.9170271536640058  0.1101563958479812
  0.0037904252245362  0.9851458068550364  0.1309084792160452
  0.0524437448938223  0.9732248251175951  0.1265811405291242
  0.0723138324592072  0.9821914633976568  0.0813008228571610
  0.1898711561654949  0.9633257343122077  0.1077228352905477
  0.1459814344645199  0.9783216748434421  0.1126649981134694
  0.2253837258160966  0.9458284663060251  0.1392416802599268
  0.2639429857065624  0.9594470114204159  0.1137625089643478
  0.3011418339912682  0.9484992387977200  0.1389936763745409
  0.3450224584008929  0.9275434873293306  0.1289881313468957
  0.3604072136755936  0.9299948434322364  0.0840657681763409
  0.4522104932902251  0.9692640938776985  0.1188375149184926
  0.4940361360365796  0.9797323798107674  0.1485806053049809
  0.0556360565437615  0.7167841871288539  0.1866173062349975
  0.0103498914422779  0.7186106128920501  0.1765580732062569
  0.1305173325825096  0.6961118231830068  0.1669535139673905
  0.1930990600117113  0.7123325087357886  0.2198217602456923
  0.1464989124562011  0.7097548847999169  0.2099985346855873
  0.2202348264275436  0.6893973860013258  0.1903296062893445
  0.2650414837599763  0.6841898100203706  0.2017769848389577
  0.2845740580965280  0.7098153687694047  0.2332644956249411
  0.4106828164066624  0.7219763709612861  0.2014016613547192
  0.4300944634930335  0.6782979181066531  0.2230801095764765
  0.0702818444245875  0.7312625041806162  0.2293211241429509
  0.1151332016489699  0.7245411245577960  0.2418101039473034
  0.2769857534586392  0.7735450203295841  0.1578755457809470
  0.3223976982215278  0.7620835525642762  0.1615378511049684
  0.3524427580331091  0.7754597179028526  0.1949845267628878
  0.3688433402798820  0.7370272738026274  0.2243475033508248
  0.4753593286335557  0.7379743594869451  0.2418382151150123
  0.4327511920536403  0.7637958694911836  0.2302983299241387
  0.0398283376316606  0.8232968595973569  0.1634092259679278
  0.1050080470545582  0.8397407597480406  0.2400263406190724
  0.0841138968159223  0.8134388249750737  0.1594271380181863
  0.1128602901019514  0.8167314259247294  0.1967928713984244
  0.1541784199314690  0.7982635168653937  0.1835934766508142
  0.1906843083641811  0.8032217370506748  0.2106168916292723
  0.2771862621873611  0.7909905251171978  0.2383244232886687
  0.2573407642174220  0.7954502832291301  0.1933879318346574
  0.2270181561529359  0.8319925714032380  0.1954142531276410
  0.3264902996693140  0.8001156147820340  0.2292025848221511
  0.3357689724354854  0.8477610368253710  0.2181173416560103
  0.3901154310382320  0.8134979881827369  0.1764457677125873
  0.4298520506792503  0.8133992434290696  0.2121454898338487
  0.4760387775633751  0.8269329330227909  0.1937985067664297
  0.0583117072188302  0.8657795286727625  0.2356735043478805
  0.0275785394654709  0.8607425865290225  0.1925372990077616
  0.0217324030334061  0.9064259023165385  0.1697043260909787
  0.1032139750706141  0.9150973970351627  0.1626917054572678
  0.1727928949801869  0.8830140285404779  0.1737214077648903
  0.1717504764305779  0.8985293166454372  0.2204281299419462
  0.2118397942204059  0.8617376713569013  0.1601805158063964
  0.2468386185510104  0.8591123500930005  0.2334017036795628
  0.2188179677867835  0.9002842147586224  0.2425672987920920
  0.2954531230797559  0.8749647540500467  0.2296439981391328
  0.2879410566906924  0.9005534644180879  0.1571536236696116
  0.3633267566335832  0.8576690259433650  0.1773172718747590
  0.3995728568852505  0.8960796053599621  0.1798762507072210
  0.4137674489778261  0.9015722690427194  0.2263136493494030
  0.4830946984042283  0.9091373439512739  0.1891662908370442
  0.0018487020994953  0.9403059263813537  0.2002266474885414
  0.0336274896238600  0.9679476228653173  0.2264330076868897
  0.0793440295171467  0.9826989507472123  0.2035892837433846
  0.1046066864641047  0.9378811842630554  0.2046354319980032
  0.1834136797095998  0.9780392538208074  0.2011002049232550
  0.1523122501049349  0.9449840759182153  0.2207057150333887
  0.2508898139226290  0.9347210339975969  0.2223778419007734
  0.2280539436570554  0.9631350429722250  0.1880752754663679
  0.3003743630229226  0.9855843082621054  0.1704374419761617
  0.2887122527062653  0.9114211883765243  0.2027156012129596
  0.3757855257676186  0.9352736101919925  0.1641215965959734
  0.3858648189938581  0.9807023479093232  0.1739687688155075
  0.4571904006446075  0.9297793064394704  0.2283476836771836
  0.4564632832705224  0.9820289395757930  0.2234933861826459
  0.0195876842803605  0.6674775541009788  0.3147347675002899
  0.0913319860154829  0.6476465639228388  0.3100755780537235
  0.1656457441254301  0.7048498901703594  0.3062116695290045
  0.3307417491984895  0.7028745519261833  0.2450429940084718
  0.3195822925974887  0.7058320220164570  0.2928080622544426
  0.3900406845070185  0.6811463322683702  0.2982055685550132
  0.4290243691860641  0.6875658834415007  0.3245387083448105
  0.4710916108020468  0.6887500709342385  0.2516169976400710
  0.4678294823305078  0.6714555301554841  0.3001660777146342
  0.0526780332974383  0.7600539572030991  0.3090425170373603
  0.0407525055094881  0.7501627563326322  0.2603362391374421
  0.9965485387406614  0.7644486430536476  0.2440789704334879
  0.1394909760157655  0.7739038109227716  0.2724071968854810
  0.1273260501492212  0.7302709122618329  0.2900473836159561
  0.0876110128540198  0.7281010968419670  0.3223421943363594
  0.2076244095852410  0.7227362176838334  0.3019437964966806
  0.1867961581286213  0.7847514279360234  0.2552181684934071
  0.2142131255361735  0.7403854869158923  0.2576239764690062
  0.2662138920190066  0.7469475847094338  0.2577609123913342
  0.2954982607392716  0.7461474848074591  0.3024707002883822
  0.3331342918424273  0.7832359982300287  0.3105442858140570
  0.3939086199558293  0.7640818696799676  0.2626692171757598
  0.4077960873161599  0.7649257365655558  0.3109567787709133
  0.4900042976761318  0.7618631734452455  0.3247150471239246
  0.0197094484754930  0.8494776063715634  0.2663088641296948
  0.0377843545598927  0.8406205810985706  0.3130318814968114
  0.0749572648132520  0.8062099483139202  0.3154396926411728
  0.1068725215595108  0.8074964246209155  0.2766652233789235
  0.2089821913698246  0.8178081998749451  0.2852953132234218
  0.2547995470996576  0.8271629474414679  0.2693899832925517
  0.2854770999998229  0.8495053361318307  0.3053821146745416
  0.3576167297126472  0.7982782948383009  0.2688028940546984
  0.3696814350450016  0.8467767288803791  0.2579501969392080
  0.4163503846493345  0.8511480706904797  0.2440877546412490
  0.4259635599618118  0.8130221925628263  0.3182840000551129
  0.4420894145163818  0.8476117590662464  0.2850242891073183
  0.4933000588487745  0.8352410783046182  0.2838912383028281
  0.1163064298833506  0.9106725119288837  0.2802635311123499
  0.0806729788320720  0.9129921334095352  0.2455116457704632
  0.1778427642051079  0.8616436315940500  0.2926686476686586
  0.1430621239532164  0.8739785694595950  0.2576305829634653
  0.2048778578919920  0.9066915960254230  0.2928373048506414
  0.2431634108159926  0.9102070371877428  0.3243855600837699
  0.3049709419013407  0.8856790666192488  0.2767805829108267
  0.3537748251545671  0.8884895582286231  0.2787688669206286
  0.3759015485336284  0.9222418621842691  0.2487790707623677
  0.4461609857066839  0.8929987098629595  0.3043826032145798
  0.4763286745533498  0.9189879171719069  0.2754509143954598
  0.0228544607973136  0.9213036726066771  0.2961847377193560
  0.0523550673666392  0.9468819314714172  0.2667924062110604
  0.1846708988612585  0.9541618070254305  0.2947818613597676
  0.1427829552484464  0.9532664886418799  0.2692230414282043
  0.2257408321183098  0.9813787354059991  0.2823285331782353
  0.2673093526227321  0.9588944628788231  0.2636484781943434
  0.2849272539682295  0.9252951995626496  0.2959364328838160
  0.3764792776858240  0.9706049679925981  0.2506893294331533
  0.3836121942821223  0.9852212149566051  0.2970837881536809
  0.4888164979732936  0.9650882150589427  0.2968560278326837
  0.0208873631484225  0.6999779133632325  0.4000125310443835
  0.0641701220658370  0.6791800095588819  0.3333133118989761
  0.0679712842727646  0.6909510620350245  0.3833398826854141
  0.1485384676102474  0.7103525694419865  0.3784931999829681
  0.1627808140970629  0.6758030744361851  0.3453865806429206
  0.2053271890750676  0.6569528629628056  0.3615975439576107
  0.2320646554821622  0.6739145147404269  0.4024766513052189
  0.2778536364410222  0.6798349755541065  0.3857551664974200
  0.3478083258479973  0.6844878974372702  0.3243826949990062
  0.3472125638092561  0.7179976298358772  0.3631100788249110
  0.3732478210841183  0.6940788690017432  0.4004744944429946
  0.4572244866697725  0.7014227104912668  0.4133508973031765
  0.4663401893050905  0.6662522377872596  0.3835009417765651
  0.0103514510688751  0.7634879687094742  0.3393376200861837
  0.0048739065353430  0.7470318257272923  0.3898829713024937
  0.1016677065422772  0.7298023574208151  0.3717696853627561
  0.0976802711366931  0.7734333693335511  0.3980293088262370
  0.1918896436978750  0.7418757056106535  0.3846323047713774
  0.2219576989569576  0.7494599993939303  0.3410743382575793
  0.2729611192059004  0.7517950068809750  0.3468974093619046
  0.2972050992985572  0.7225562727315828  0.3797083869287419
  0.3654419717275537  0.7619782938923969  0.3437818056995671
  0.3884372369015820  0.7895540179498264  0.3800984432165504
  0.4424792505386299  0.7392941473086387  0.3357993632064026
  0.4305049341794419  0.7589868820035089  0.3836971324591494
  0.9980170922900654  0.8228722337701609  0.3899799237536469
  0.0008217750801747  0.8145592448736650  0.3395254732378406
  0.0896977991664097  0.8083013106125794  0.3641120987486160
  0.0985166252086130  0.8493409654368417  0.3832873785089181
  0.1763413066346265  0.7900156731256253  0.3944247905164540
  0.1674480497350281  0.8065592709558129  0.3487396434736031
  0.1560770006783982  0.8485084217539426  0.3330567903710364
  0.2112784715394762  0.7983427033322369  0.3301358972011892
  0.2401363769371783  0.8253198768552938  0.3606236247223926
  0.2133363020062495  0.8232684231276890  0.4030177262796917
  0.2823190637333299  0.7994416520418861  0.3659980082923563
  0.3155909237741734  0.8222736761095821  0.3336261494203794
  0.3520892084375120  0.8544771575335209  0.3530447403395086
  0.3985323035726812  0.8319519116750382  0.3567752581936600
  0.4677936509780892  0.7880729483894536  0.4041180478543702
  0.4780152671673850  0.8101070732050032  0.3297582129447411
  0.4756815377850667  0.8293796656745592  0.3774093569847337
  0.0476220080434902  0.8898256431541074  0.3288212133181936
  0.0214122523441196  0.8631999897704514  0.4048889452642254
  0.0177707747318115  0.8998667999384605  0.3703442099061803
  0.1289250590644408  0.8779985531238385  0.3584313223787200
  0.0982595959641081  0.9066650992134890  0.3296090805180195
  0.1698957954450082  0.8971344064311131  0.3811841069795906
  0.2596373257640973  0.8686588740592851  0.3455068493628102
  0.2835753774502745  0.8872802002376027  0.3881502941810449
  0.3319902626290713  0.8676713696551414  0.3991619227781640
  0.3607251008863752  0.8984716521616888  0.3266397586065700
  0.4082009916366323  0.9165443355057984  0.3283882544409586
  0.4333213275308424  0.8607440149895540  0.3784347717713395
  0.4461468093720561  0.8994304323249132  0.3526679893887613
  0.0293706435011482  0.9432229193036299  0.3929657848245422
  0.0191236651512899  0.9789850529514822  0.3555435239015484
  0.0981329418766558  0.9484034296517129  0.3583699468859308
  0.0778922688350894  0.9410719057823246  0.4056279432676533
  0.1422064702958115  0.9709543349865432  0.3680735197079087
  0.1710101545541521  0.9434094761194762  0.3965617625684735
  0.1699873259069249  0.9887906542432090  0.3321215198161030
  0.2209911852036560  0.9578535898693519  0.3984874342098258
  0.2488206039756764  0.9496633924201506  0.3563633036068289
  0.3224756975605874  0.9351000331093939  0.3312680919842400
  0.3143826287684210  0.9641966262791557  0.4062400640918785
  0.2941943803022946  0.9349608292662297  0.3722663022383010
  0.3461321026938793  0.9778208721100550  0.3310989966397914
  0.3813280801276431  0.9746107514447497  0.3687511160204929
  0.4132928461584552  0.9631373090438767  0.3307786173533740
  0.4611721848260285  0.9753065593836481  0.3387004342730670
  0.4750969076256089  0.9393060881938597  0.3703636554123260
  0.0209638484837500  0.6817200037411562  0.4468911926922080
  0.0943186669601334  0.6702015128914328  0.4231519334383755
  0.0679340019468143  0.6918390761644531  0.4622202541642678
  0.1708273315062669  0.7109516964122368  0.4525660188289167
  0.1412054931053967  0.6886367992746310  0.4211974111892186
  0.2133434529529437  0.7159269106433754  0.4245060846908670
  0.3481248956384252  0.6872896538780227  0.4420419884269913
  0.3722766962996713  0.6631150943903087  0.4752899691957672
  0.4152658946913334  0.7222023607822362  0.4148830970853311
  0.0147815152782398  0.7839116014889163  0.4196606562202926
  0.0636069556419251  0.7796347947680917  0.4348112336200292
  0.0705115229711149  0.7441977028476880  0.4712523610184753
  0.1546752152572103  0.7580746487841137  0.4632491139950746
  0.2498337558924971  0.7343673296747808  0.4550502788443490
  0.2384325620331906  0.7790043671783745  0.4749768140229499
  0.3279022037663116  0.7284315779193529  0.4561102193923716
  0.2921536410768870  0.7456147519194203  0.4260754955350514
  0.3634191255180607  0.7639159744174314  0.4597125043179863
  0.4056582851016313  0.7414887317504963  0.4589899652424614
  0.4415758579243965  0.7653515173519914  0.4790405613093784
  0.4836668791865005  0.7386512762036033  0.4793397561937655
  0.9998112949827871  0.8328882443124083  0.4807593501870477
  0.0768781149555411  0.8239578919786945  0.4552507791069412
  0.1285917642686149  0.8268618377309149  0.4588003600958924
  0.1400515745395391  0.7872960007133714  0.4271869578325165
  0.2461846593932072  0.8130484991385036  0.4401985230067191
  0.2898635541296073  0.7968610562534414  0.4159331871647640
  0.3247413153566554  0.8329978540606091  0.4785329248770500
  0.3285817387518950  0.8263600513130055  0.4286526276546079
  0.3716909596389408  0.8019546403188093  0.4262802857291106
  0.4090952920544790  0.8324608438522578  0.4478198908101534
  0.4523379912542276  0.8056250773253532  0.4500532062085529
  0.4884332870737786  0.8344477212053679  0.4712952963554702
  0.0029333188474636  0.8678681854146626  0.4479810088469277
  0.0580972889479568  0.9105337569048569  0.4861701948997237
  0.0116349878744687  0.9094600594128450  0.4687439922431503
  0.0711339375846247  0.8600545036974453  0.4212708869085500
  0.0852194346641262  0.9036738878620505  0.4420257227097422
  0.1341098620111571  0.9066508110591327  0.4600226630882904
  0.1629932820304443  0.8661601646493299  0.4502298957141251
  0.2008367100627052  0.8629639365650545  0.4870963747296553
  0.1953909307138037  0.8694890507319031  0.4114615918365879
  0.2470121152867747  0.8560371657870063  0.4657208644393588
  0.2450021134094215  0.8886854260289329  0.4267457007214364
  0.3662225639824815  0.8997525734023445  0.4214393469501707
  0.4152695459302427  0.8767342754635850  0.4222921787762879
  0.3535493074721680  0.9077771463232599  0.4713177284398585
  0.4542367608763990  0.9051270983712191  0.4428412976272338
  0.4386749084825326  0.9159216091961206  0.4895328593174758
  0.0034310582352873  0.9474040661391713  0.4349085692177333
  0.1010628613947330  0.9767317846927086  0.4320927531707717
  0.1464845804608750  0.9510056396907717  0.4421313565412915
  0.1766550693682470  0.9777424767037840  0.4708880836165507
  0.2156322881189182  0.9482354511430222  0.4830211330467007
  0.2414160525465648  0.9366780151749622  0.4389346306023895
  0.3081486837480996  0.9262545904521015  0.4790941265070922
  0.2879765132664319  0.9567680044313395  0.4466351099816855
  0.3645908747646708  0.9494549658317792  0.4089181274921549
  0.3888464962999391  0.9714243824481410  0.4482692332958839
  0.3910652436261962  0.9383112292343510  0.4878905949577607
  0.4669504990353333  0.9495561199713460  0.4195422344632636
  0.0444945100784867  0.7052613919541577  0.5338877346347488
  0.0052883777592936  0.6730916796972322  0.5224283616332395
  0.0831963770693158  0.6820643537824130  0.5120743074853541
  0.1255254716183341  0.7073686766779846  0.5202254163298206
  0.1344099584712435  0.7205808682145688  0.5713615893518357
  0.1947588592328744  0.6569751760089863  0.5144839063194770
  0.1717718058594844  0.6991269577228693  0.5023372862969613
  0.2077498680565428  0.6762195345472816  0.5642127755106493
  0.2343658999585421  0.7221464131245934  0.5449609712323931
  0.2595658840009500  0.7058819457140630  0.4994217440797988
  0.3081002885754940  0.7211233961796616  0.5028425092334949
  0.3390618243097298  0.6996838930247294  0.5344947599373231
  0.3707963118427521  0.6704865635685580  0.5213035317783330
  0.4633928762146828  0.7135441612977532  0.5487153751629720
  0.4778940030775751  0.6985383739883022  0.5057317977250311
  0.0368121194006832  0.7497294057309801  0.5091595348360501
  0.0840996659712805  0.7840285097985997  0.5596547789978746
  0.1224279534828415  0.7840109228119269  0.5309065761146829
  0.1162123637303520  0.7502569166776600  0.4943459954108015
  0.1581250694338926  0.7618984635879149  0.5598115252342608
  0.1927794180596793  0.7427082662929041  0.5278419440426380
  0.1936547768003694  0.7777129382410919  0.4933805643453257
  0.3070959169280190  0.7675516932885732  0.5232638536218623
  0.3102808004307404  0.7578901180787152  0.5731621423584110
  0.4270085416527649  0.7779338819969808  0.5262256714280017
  0.4255551652473120  0.7428822926009333  0.5607511086439591
  0.0438706661836973  0.7926010205491737  0.5358777847209172
  0.0107401902015115  0.8049130589079443  0.5744905310988029
  0.0475230512381528  0.8300345628646154  0.4994137143760148
  0.1368640903171185  0.8261425100757309  0.5102566733470753
  0.1852718915763425  0.8243085517639276  0.5154459840339436
  0.2000124307291734  0.8251682625323813  0.5652575703082637
  0.2456425660016193  0.8020546128569812  0.5640504294400581
  0.2660603844657230  0.7958939385323973  0.5156470934013090
  0.2809504412445828  0.8425795513884088  0.5005787942673032
  0.3456895275020037  0.7897734137620182  0.4991311945534826
  0.3856907679230023  0.8057090320168887  0.5238234178734821
  0.3666750632527045  0.8272153742357573  0.5651060571333160
  0.3980414748440220  0.8453077370765535  0.4944552151010961
  0.4638603174198102  0.8064232696363510  0.5457070623591475
  0.4743302748683399  0.8471693653124286  0.5189448226655814
  0.0509599332697050  0.8803340636837927  0.5623515969306024
  0.0672961640262743  0.8720284488509032  0.5182892785655916
  0.1196354280752842  0.8679299789363687  0.5310016750534620
  0.1419119437793788  0.9084739753284139  0.5103204950832275
  0.1947486932280963  0.9082954763219006  0.5098105433978097
  0.2163223292843069  0.9116255799491636  0.5544695191852236
  0.2696587161326764  0.9112663660949968  0.5545058427881484
  0.2908742214251087  0.8671405293108888  0.5457828467820546
  0.3422749433775747  0.8699345762024036  0.5448550623212688
  0.3544161744602655  0.8670278765839899  0.4958627285163771
  0.4162142686916449  0.8866340279175181  0.5621665829931303
  0.3691479793901535  0.9085267061793478  0.5640577976429595
  0.4321263465931675  0.8739006171948589  0.5156281260096628
  0.0442989031969618  0.9679622871379865  0.5520854110583823
  0.0022969559695605  0.9530590613892613  0.5659715524441529
  0.0716726849712663  0.9531347359562560  0.5095697570765102
  0.1205949517949341  0.9488036346946017  0.5284383624077913
  0.2525230891803023  0.9751828684436989  0.5089961866898645
  0.2894816871239085  0.9432409048077297  0.5230206407057407
  0.3286179892467112  0.9729273246192955  0.5344542446456367
  0.3739588085346083  0.9508398820258944  0.5366660776391330
  0.4115819996094470  0.9792005215490396  0.5565536890578742
  0.4576980024067479  0.9542632279333928  0.5598522763084400
  0.4770839197399984  0.9407581896289513  0.5127984872140584
  0.0036598042241694  0.6948420132785178  0.6431487425364606
  0.0533163722564603  0.7110449237546672  0.5826855053112083
  0.0650468176411421  0.6689975959986807  0.6077361671416778
  0.0805024884111396  0.6867201748343313  0.6511744609413319
  0.1671858680447884  0.6896130788172450  0.5929724727903670
  0.1619311716825254  0.6775377385073604  0.6388533553246006
  0.3316292350031328  0.7151337079892476  0.5768532550634465
  0.3431049157236005  0.6984325258976852  0.6175812585807124
  0.3836728671531506  0.6785534035019750  0.6278356946253729
  0.4111037339237557  0.6587977719492089  0.5960351072607365
  0.4837985832382163  0.6574974748411198  0.6395383362138702
  0.0096452664932576  0.7263731679128732  0.6024573508007217
  0.0113532499315531  0.7731509626329904  0.6167963484863176
  0.0879261687102949  0.7886574242829515  0.6074467867035552
  0.0919597465422787  0.7408269931821029  0.5882080880021927
  0.1792087760552785  0.7845872645469743  0.6404994838973929
  0.2145522095322819  0.7616844718326916  0.6571186718508675
  0.2506593501364585  0.7458055115834541  0.6313037243446130
  0.2579910124406080  0.7545645800375633  0.5820810146704321
  0.4093446872702017  0.7728968140151331  0.6472592697244200
  0.4372819066256577  0.7677107554420216  0.6072380962740936
  0.4789022003770258  0.7453031441309651  0.6176097260419662
  0.0507761521453322  0.7868227924354925  0.6425306289072091
  0.1226655991413771  0.8236600849442817  0.6080118099748355
  0.1248286453761931  0.8364761915611817  0.6582396014703716
  0.1674476593545596  0.7979549816611183  0.5942362538529639
  0.2726010483637495  0.8398732405886515  0.5860533929661281
  0.3054663714288773  0.8239031780043745  0.6149987787832282
  0.3398169229194817  0.7960270553914265  0.5969149525560682
  0.3661618194104191  0.7865330312561306  0.6408935321137954
  0.4050434035672639  0.8476953292453104  0.5891684693926136
  0.4461683485121105  0.8180274244139356  0.5905693939971224
  0.4807157190811570  0.8429094306831774  0.6154610107119005
  0.0156855084535513  0.8553690391130732  0.5856300749730449
  0.0288648831412777  0.8634104486546625  0.6310305867004418
  0.0548823931610158  0.9042580194740162  0.6350912000445695
  0.1209660301755541  0.8682753134855821  0.5843065492465678
  0.0833364351967953  0.9008639335887273  0.5921424823932436
  0.1608826237989927  0.8898300761265716  0.6090202516967136
  0.2035916256563625  0.8743145473357523  0.5858819365219943
  0.2448914943160135  0.8742547054856502  0.6142984229105711
  0.2725584490897463  0.9197101942787711  0.6052538916288935
  0.3882057221796406  0.8754916041785049  0.6291755122671538
  0.3574504870967345  0.9079825272366961  0.6134739046321358
  0.4611967289787582  0.8591935399396473  0.6551301085043069
  0.4522795933655118  0.9124710841490761  0.5818988628704422
  0.4938742238197570  0.8871785525273397  0.5898172183721502
  0.0203715683792754  0.9378852967702938  0.6431797872313513
  0.0755872122991581  0.9792719202046236  0.5861507089152912
  0.1105110231405074  0.9454568518867393  0.5792480061500342
  0.1542284778399320  0.9409703354184894  0.6061283433997015
  0.1430250387807711  0.9591632886097096  0.6534835640373953
  0.1978888997277059  0.9553618411247311  0.5819852837035820
  0.2426240074128240  0.9609295519065344  0.6109933549162090
  0.2307581819545136  0.9618167927945975  0.6596594836422561
  0.3152462337102926  0.9224322707878795  0.6323106760521265
  0.4700575261997232  0.9856514190507496  0.6313356826966634
  0.0447242952816606  0.7107670048459058  0.6756374578316947
  0.0388786767395784  0.6936078591099282  0.7237450866020968
  0.0848251000180510  0.6888133431169774  0.7426311332883343
  0.1233594808646081  0.6847114006306768  0.6674967103178858
  0.1229804021852031  0.6809375528217619  0.7153204667911786
  0.1984450754034997  0.6547411179597532  0.7071714930881752
  0.1621949486276696  0.6658978524922176  0.7350741668530139
  0.1988984935119008  0.6586834299404162  0.6599597002507788
  0.3203166386228174  0.7085242833055581  0.6581361551763948
  0.3468298475762703  0.6985740705712303  0.6949239974558059
  0.3873627501104789  0.6826552579237020  0.6759109720729032
  0.4250105373793320  0.6785098908347381  0.7004443762354337
  0.4680910221068196  0.6708791241839084  0.6811445050762065
  0.0577965856154890  0.7587016422096087  0.6812611388159981
  0.0601231938219476  0.7803848206274588  0.7249075892597482
  0.1505774693054449  0.7889043890849863  0.7157917632467981
  0.1869836583465843  0.7678238932133606  0.7347136816195158
  0.2798504627448827  0.7281905235873601  0.6642081405485087
  0.2631272181493754  0.7344658572343000  0.7092811012719977
  0.2202755709412777  0.7541169716473285  0.7044624865104702
  0.4288614879623457  0.7778296700890112  0.6904217536783175
  0.4763713677865953  0.7711336844648755  0.6950754680589146
  0.4921455419758877  0.7772759942419819  0.7398649396318452
  0.9984946566457954  0.8251711333184533  0.6965384165580679
  0.0381130769793015  0.8310055451742527  0.6637032319886322
  0.0786568630496243  0.8266982926022043  0.7324420351922456
  0.0817668288637151  0.8469213581878917  0.6856129861106228
  0.1486543884818494  0.7983983546683261  0.6721811713905008
  0.2723755674968683  0.8439605105159366  0.6844670275245525
  0.3053485420842315  0.8252529062031767  0.6598937990440299
  0.3428347616333489  0.8046016696535238  0.6768582740844851
  0.2758208568484545  0.8408724802480043  0.7298385183567888
  0.4001552356628813  0.7918018734470160  0.7283027851119985
  0.3536992415711843  0.8063551384684472  0.7216689005866344
  0.0418313418018698  0.9130261972415780  0.7126727374635575
  0.0781534636622527  0.8969786754807969  0.6802473887132743
  0.1269160336236062  0.9146514844377845  0.6834515909220534
  0.1555317336311978  0.8793500253884393  0.6596719997629177
  0.2012736602296873  0.8740440666315836  0.7300106461260759
  0.1989816828129696  0.8747624517061388  0.6835851551547337
  0.1326529602529209  0.9138670594768245  0.7321910676519149
  0.2372715981874356  0.8618287045493992  0.6608162620249425
  0.4195723035185175  0.8787118616963639  0.6623932473817092
  0.4191803579201105  0.8935940374749987  0.7075271513300836
  0.3838474885226625  0.9107922058817521  0.7310443427727428
  0.4635272633253341  0.8832595259108572  0.7234170050875800
  0.4886478264986454  0.8635382350734784  0.6903231900467964
  0.0027891916054547  0.9319527968192139  0.6876890804328937
  0.9930602713801457  0.9743472272524313  0.7187716413369375
  0.0629102966372632  0.9490421692453735  0.7350438360551155
  0.1861348512896582  0.9738761100919978  0.6736539376106753
  0.2530653288895899  0.9631503217769318  0.7362180099461625
  0.2650407816482713  0.9533048950406389  0.6913592608921759
  0.3381028112231285  0.9272057916496900  0.7188398021259094
  0.3091397721443868  0.9340814187173999  0.6799966536806796
  0.0527973524602576  0.7007337652690303  0.8185588955772970
  0.0095070407199965  0.7240845053660272  0.7540375894939854
  0.0888328292896130  0.6885936869264535  0.7894746535204551
  0.1287761309486370  0.6738916907010287  0.8086371715533323
  0.1658818721858003  0.6612090718146987  0.7816949675973490
  0.2812256981358549  0.7248756656288561  0.7954505771752778
  0.3214903613943358  0.7096056394427307  0.8160546333470554
  0.3325950708072446  0.7055567591411767  0.7395590609687375
  0.3548148185854438  0.6989571529319766  0.7821166383877391
  0.4014737232856813  0.6873666056410930  0.7861395036097149
  0.4297088256585083  0.6839992975030473  0.7482412764278406
  0.4758097247366070  0.6825988214873957  0.7547351323505124
  0.0125680947158997  0.7135479785913388  0.8000178870965196
  0.0307843361452350  0.7684206344546178  0.7582282729052400
  0.1329984831900955  0.7881623463716338  0.7889458949064765
  0.1769639951344480  0.7684005551292186  0.7816531686009794
  0.2018030749273007  0.7548292933134462  0.8171617074703483
  0.2884437887899420  0.7226893683399310  0.7471494397481475
  0.4841106103112714  0.7814982511132522  0.8232031033387731
  0.0158452219328806  0.7986025623025548  0.7903441178365881
  0.0408705670276351  0.8364699786212353  0.8121411973998126
  0.0514432255886173  0.8536905784204659  0.7670747567172022
  0.1173959397447960  0.8017920437703074  0.7466580657583114
  0.2736193078817927  0.8404097613142174  0.8197324210664886
  0.3131062226121906  0.8259943893716766  0.7963465048014753
  0.3160598356561638  0.8242134074919850  0.7492928630711516
  0.3482878498085308  0.8122151257027004  0.8222350426435507
  0.3928275359576502  0.7983883829505947  0.8110398279029438
  0.4185642301705557  0.7917584392056650  0.7722887950930071
  0.4648365849784986  0.7831453075873508  0.7785078661688145
  0.0170769824981294  0.8858386894711685  0.7498176330312931
  0.1275127101281670  0.9083517240852250  0.8245820837976636
  0.1661278824700354  0.8925915264932255  0.7545638723917891
  0.1644269961438862  0.8912414148688554  0.8012743883746500
  0.2380285151494418  0.8572312864345599  0.7530354418547632
  0.2360551687915060  0.8566316636517730  0.7992880256646893
  0.3887684816554405  0.9112008708245476  0.7791297621422220
  0.4223067416300744  0.9002696743071662  0.8100119996205432
  0.4674792031701822  0.8907032467138146  0.8032423993472515
  0.4868933546001799  0.8847222063463475  0.7622010015999184
  0.0549837350329583  0.9479449933823677  0.8233878028995884
  0.0148843250544611  0.9616758044726628  0.7980561440085195
  0.0302825017084497  0.9799049232757181  0.7538579985538484
  0.0940313265842026  0.9313022242758110  0.8027887243582150
  0.0994990906232252  0.9341258709886948  0.7576659054617609
  0.2037082996957246  0.9925499865322404  0.7908875964825850
  0.2130342173228893  0.9840834432434735  0.7468120972212731
  0.2797125910316395  0.9532113768933295  0.7731767519610439
  0.2673573301606075  0.9579805931833323  0.8194897615842738
  0.3486352438297358  0.9254510606183276  0.7965217239412241
  0.3202591041745487  0.9363191449407543  0.7618562057264647
  0.4654456327216777  0.9955090138755741  0.7433699741034338
  0.0180545982100105  0.7129489752606909  0.8930749789602718
  0.0549996483594950  0.7000571536499300  0.8652498219647110
  0.0941108867071257  0.6841270553887688  0.8832760943403200
  0.1302009643795532  0.6708976228654456  0.8554871790787629
  0.1682229156673820  0.6531019720144369  0.8752304752381016
  0.3241958061363421  0.7041955239859001  0.8631236729840643
  0.2882849321945756  0.7165077211071544  0.8940544685568832
  0.3612859243759079  0.6847140677417772  0.8820647257610273
  0.4054257005668440  0.6741570552280147  0.8687806222231561
  0.4254870954273817  0.6786573381775440  0.8275403845149513
  0.4726597683946210  0.6739563857166406  0.8303930153783644
  0.1124078698880307  0.7930750298454571  0.8317077876797948
  0.1373599164416845  0.7765451083454493  0.8670945612653959
  0.1801114798802080  0.7601634231372959  0.8588641836567392
  0.2500244328853060  0.7328216447151857  0.8727345014174348
  0.2461155904856973  0.7372009817429057  0.8243706622209932
  0.2084791319974441  0.7470224527364104  0.8924124694524725
  0.4567788572793819  0.7816575620065823  0.8601238647237661
  0.4725850448018162  0.7773577575916526  0.9044219623068606
  0.0531945566164687  0.8081489875255820  0.8871775512270238
  0.0112807028263862  0.8247601088723299  0.9018054512362429
  0.0720288466693730  0.8151444371268926  0.8444576179131604
  0.2698750548712829  0.8390925898202229  0.8654756295482016
  0.3046342068172206  0.8245247718365465  0.8906744413783390
  0.3428924577058886  0.8113253470014690  0.8693794770074021
  0.3830225232032120  0.7961540036080313  0.8866101734055720
  0.4127477349110903  0.7899300990241370  0.8521078887205088
  0.0119794018603571  0.8679090373965749  0.8386201608020151
  0.0007641652769664  0.8633841429824964  0.8827879296121920
  0.1235687358020289  0.9029365373389487  0.8701374555015038
  0.1563834760732762  0.8821823742474807  0.8961688022148331
  0.1989034541271079  0.8716848390882127  0.8248024454605207
  0.1957330859094636  0.8684720183989256  0.8724108310003882
  0.2334854293397911  0.8511645491276840  0.8929908766549783
  0.4114824282869512  0.9013623839010162  0.8557137529553551
  0.3698218913226464  0.9134544509165948  0.8714638728382751
  0.4431951770150315  0.8910230613677605  0.8869855489584443
  0.4878196677433422  0.8808561133515768  0.8784132605371143
  0.0138898372153134  0.9591868982594541  0.8922783354121011
  0.0517887996886004  0.9440901581331353  0.8684272825090937
  0.0849480518843485  0.9205832932442933  0.8887525389821151
  0.1976469825320043  0.9851726257265129  0.8653362198745528
  0.2051397291922655  0.9749668178420191  0.9082572723800520
  0.2267119881341547  0.9775555188829336  0.8276339737908247
  0.2956951004996972  0.9434122571641853  0.8542247406664725
  0.2858353496919826  0.9439879329433132  0.9007341996780774
  0.3375782495347897  0.9274476390693627  0.8411436196568820
  0.4595731098359390  0.9888983875908377  0.9072559860018803
  0.4703993011210921  0.9863126055753015  0.8632968061037029
  0.0199663582803989  0.7074292692078181  0.9394267617045465
  0.0601203634043955  0.6932329689136857  0.9567850000575587
  0.0957095979778259  0.6815083416613644  0.9299030712760649
  0.1330737997662298  0.6655693885170401  0.9508404714966091
  0.1679404229977064  0.6517933346599242  0.9225659851143453
  0.2630071346842907  0.7246964271477647  0.9773767857154382
  0.2935457451889164  0.7129672990167125  0.9433767341139092
  0.3327481695066364  0.6938892283154676  0.9593413276468791
  0.3612964282437620  0.6787993716784740  0.9274047822023085
  0.4019868641872994  0.6649628249624402  0.9443016597119691
  0.4298093454223590  0.6619361552948400  0.9080598995102469
  0.1204169208952130  0.7763471449584759  0.9108830968591370
  0.1475220580307025  0.7635984308597260  0.9453582894808215
  0.1923716814641286  0.7495647516265523  0.9361253843611488
  0.2181821285039066  0.7386209520765503  0.9721899278214469
  0.4418797079996704  0.7818778251318202  0.9393273433614890
  0.4573381635567445  0.7841386723551704  0.9830795357037643
  0.0132334370678203  0.8033785097128295  0.9755568264997995
  0.0580564304735118  0.7901296721079362  0.9653375023980313
  0.0768346030763848  0.7896427371066560  0.9215484068208697
  0.2452951096351075  0.8442065166150564  0.9389262773411677
  0.3211064403255418  0.8164884654794148  0.9668058116741397
  0.2908284328582877  0.8274122255826661  0.9356169521629070
  0.3661533032274766  0.8009337132599771  0.9633289499356886
  0.3959639747308075  0.7912665132586280  0.9297523702408145
  0.0354234724288098  0.8980400648833924  0.9922981727078634
  0.1022014171387356  0.8867271367641283  0.9556941327058919
  0.1460995377222191  0.8769868713389912  0.9429891699160597
  0.1723768363845910  0.8644050832530346  0.9800678793732009
  0.2189403469828690  0.8525662549749847  0.9782511097707293
  0.3147907301257516  0.9306314050190029  0.9743514474507764
  0.3618517512283205  0.9140026927343610  0.9171182830133787
  0.3948739577588777  0.9028088649771615  0.9494725269682864
  0.4357344951227087  0.8910096043389732  0.9327340461724618
  0.4759257254999227  0.8797782259318445  0.9541671496113915
  0.9980187632129387  0.9518227195545944  0.9396240003093213
  0.0349210307559964  0.9226655829783099  0.9533285105814405
  0.0746526861649942  0.9131506826252015  0.9316278267607055
  0.1756990403711191  0.9820587315367633  0.9460248695113790
  0.1998493385354989  0.9706757243333330  0.9836801261091382
  0.2463626959062443  0.9575877564273947  0.9231044599318832
  0.2424903634519598  0.9576167619364613  0.9698847446093268
  0.3201540289423296  0.9289372052987644  0.9294726961819806
  0.4910741844557325  0.9772175860227360  0.9383996931657341
  0.4822233249262140  0.9810978824788240  0.9839032811395843
  0.5517924226524115  0.0560899422165623  0.0484408781786960
  0.5805976851272361  0.0214960223910775  0.0716474324090759
  0.6313174753413285  0.0502718487855616  0.0193449830306115
  0.6194801537125519  0.0069347094694768  0.0428890014778302
  0.6628508090575256  0.9848247146923325  0.0574060195301801
  0.7094736237728395  0.0527120574073824  0.0636580808339198
  0.7085164482864132  0.0214591717611823  0.0217162252927602
  0.7577766265592112  0.0271398929913230  0.0054151420450935
  0.7987719450306561  0.9911935336034778  0.0705307796220114
  0.8662844818580268  0.0267197401081481  0.0477728274548393
  0.8565786552510165  0.0182183088316534  0.9971598832694710
  0.8993449077514420  0.9902004400589473  0.0571793775386455
  0.9567077314584347  0.0501572743438734  0.0229217561267630
  0.9719673024831715  0.0032964636543230  0.0142991405545401
  0.9354342106971856  0.0565375363097364  0.0676240916924065
  0.5092404594844215  0.0672490379101038  0.0641590478964577
  0.4956730764786019  0.1155031447025661  0.0538192032459984
  0.5609096224656223  0.0832339126728461  0.0081983576911776
  0.6375070858467745  0.0872882683517312  0.0524335917319725
  0.7204631291737442  0.1098977359250251  0.0013905622226543
  0.7371466839106885  0.0925078475843704  0.0430354839713128
  0.7800086651615884  0.0712080599333415  0.0281513140009749
  0.8044978667208721  0.0732436045260642  0.0746772525059558
  0.8067822754875941  0.0876265535685942  0.9912424664204413
  0.8913632114056369  0.0652501358461599  0.0517934101712939
  0.8722505345987436  0.1059699235165584  0.0488867847895447
  0.5397166229915179  0.1427545903547286  0.0547839721556402
  0.5736906468887729  0.1293672405631411  0.0212083232121566
  0.6238388587272328  0.1311374403183971  0.0387037037316829
  0.6389245480827371  0.1656460122993152  0.0752574310244391
  0.6433438757902801  0.1414140882183783  0.9936956096963323
  0.7405289791556806  0.1892216596533937  0.0375866104898227
  0.8161726684335681  0.1609464184285302  0.0736724562433975
  0.8217813614977559  0.1861129556421615  0.0274915584654396
  0.8913493988253364  0.1353317085181731  0.0184479120558091
  0.8533871702398492  0.1603267832420461  0.9962649904664367
  0.9653817003942378  0.1486819971717928  0.0558795089830924
  0.9270880163642322  0.1700081551861104  0.0326865863865458
  0.5006357941406393  0.2161575874080437  0.0670087806000629
  0.5367309547582000  0.1933131020371829  0.0411863876066456
  0.5816652422889791  0.2183120382583997  0.0552825597798545
  0.6216608808128171  0.2182861346929682  0.0215516630304743
  0.6616785154130268  0.2041507466723400  0.0499256977963899
  0.6978978067902600  0.1925523869994979  0.0171275437843868
  0.7781286082212482  0.1984407237119516  0.0074068282980243
  0.7724043346481516  0.2499254276738147  0.0102187283580030
  0.8404911219987413  0.2343609256347670  0.0379128100015807
  0.8696636957220516  0.2558716662474869  0.0020150576194511
  0.9160936759535440  0.2157163394587099  0.0562010622698387
  0.9163512140703983  0.2469265789300926  0.0182178010161059
  0.8699956715247127  0.2245555913764230  0.0755771933466668
  0.5559746919538747  0.2901981647973110  0.0032771351044159
  0.5662058662969841  0.3031914073743724  0.0466379368919537
  0.6130098808080010  0.3221651133015356  0.0474493577803874
  0.6321555062781744  0.2603458375087537  0.9946769528053180
  0.6515583884796482  0.2991782739849146  0.0202459187097044
  0.7013756413031788  0.2936159192437336  0.0367847410846789
  0.7250361908851194  0.2658400409961368  0.9995405692754095
  0.7985654549806204  0.2607636663741713  0.0502700610744644
  0.8082395913291062  0.3091075989191602  0.0615166855678298
  0.8565476517335794  0.3184970787237850  0.0460768678895637
  0.8611945529700221  0.3046222163224837  0.9972085952775405
  0.5222587711212244  0.0137029707712074  0.1212148095862423
  0.5511561974760326  0.0517145455301623  0.1397838221501797
  0.5975049302945962  0.0419462880187017  0.1160503952382881
  0.6208028380968773  0.0104640219225043  0.1497687758342591
  0.6709758168986119  0.9979489776935127  0.1409807087722766
  0.7056220923641325  0.0362286607605159  0.1485139938034724
  0.7358328103055383  0.0379786211499454  0.1056337297043803
  0.7588451436488248  0.9940641994115186  0.1016674175682639
  0.8280781137005397  0.0311769605244635  0.0819125467808565
  0.8392792496469477  0.0266409846332512  0.1346966557139666
  0.8855562829199254  0.0411639492411268  0.1477938918019914
  0.9186715942922106  0.0094843490450643  0.1356244123393191
  0.9347397036049836  0.0093166279541635  0.0907105681212208
  0.5303645989016124  0.1034945140774925  0.1340021632934407
  0.6272199736848878  0.0798389626310751  0.1092608805136705
  0.6296714672237055  0.1191741448031393  0.1435970659293226
  0.6714140435650067  0.0789270980920037  0.0841063122858875
  0.6968571057602926  0.1113934739883955  0.1115416455013757
  0.7000699170652277  0.0859395655803059  0.1585543291928875
  0.7687506953577905  0.0773377039312192  0.1103134188013208
  0.7428748303419703  0.1155819691315853  0.0904347903680811
  0.8364050316106127  0.1147112749455767  0.0798273892415414
  0.8569332086807666  0.1200411208955460  0.1282781080645567
  0.8973969774158466  0.0887262817656280  0.1346567979934547
  0.9311518235918894  0.0923409376442242  0.1002291813666901
  0.5523962229630818  0.1330859322288492  0.1001925237385671
  0.5682574561514461  0.1716058778382228  0.1235000128518995
  0.6623192243103180  0.1478116018346553  0.1172193468745943
  0.6793675179898619  0.1849509902007368  0.1464650937169938
  0.7709972787347035  0.1573309698668626  0.0981533748955460
  0.7835010247226807  0.1598874398809834  0.1486685708409244
  0.8739239295640047  0.1667272164283404  0.1320013939456916
  0.9542347311400005  0.1343885860709216  0.1034958102652056
  0.9244095159633976  0.1645233950346714  0.1345929107621655
  0.5204296321026556  0.1893117345020128  0.1417775373442089
  0.5197683919684524  0.2393690224882893  0.1419215080991914
  0.6015969431516925  0.1963150888977198  0.0946300685906650
  0.6291833289878503  0.2344368949939142  0.1162133589280202
  0.6737198214374296  0.2353766880579166  0.0886125221213909
  0.7069198682540152  0.2129378305831864  0.1175678366737692
  0.7469428764544777  0.1987466750497653  0.0852633058200985
  0.7251508888697262  0.2500178291008417  0.1486234564807249
  0.7770819707387704  0.2400380660692724  0.0901552669480620
  0.8106655395310185  0.2300350353293451  0.1238397423490383
  0.8438126920693018  0.1929419567990606  0.1017772227850823
  0.8972225468460954  0.2394018008473389  0.1482281360212880
  0.9483716641790902  0.2279245990688036  0.0900704314247110
  0.9393176903288638  0.2130426344921467  0.1348947454280453
  0.4995429193424671  0.2992239186974925  0.0910748396285831
  0.5237028075349939  0.2545314626699822  0.0938196301292848
  0.5692485912838497  0.2633377608128100  0.0772049796788945
  0.6027941801089081  0.2777674262531326  0.1142857659868268
  0.7008420094428126  0.2790696758488461  0.0841412598359860
  0.6904824503829444  0.3143018715648165  0.1196935170367114
  0.7471579295896975  0.2726338544918985  0.1116692136542729
  0.7664959106498425  0.3143233571066225  0.1372656281218925
  0.8336642136817667  0.2768268426571698  0.1331163923255980
  0.8110825625896640  0.3163955221340348  0.1137444169152062
  0.8918104062442247  0.2978897231395103  0.0793647469858363
  0.8749453998393903  0.2620318256748341  0.1075406330593026
  0.5334294222117083  0.0088020733726394  0.2091901308306349
  0.5619571809148687  0.0440576564412192  0.1879762510765589
  0.6106628669977755  0.0296277690626934  0.1949445776766599
  0.6201334785187563  0.9949507591832728  0.2326134811686192
  0.7005065097048149  0.0192361464217335  0.2333474157430134
  0.7278646201044798  0.0261635543311444  0.1921135706876457
  0.7738273678370046  0.0101374398464526  0.1892240094088645
  0.8100867667182776  0.0455326181136354  0.1758531454455687
  0.8434924209338985  0.0509192919483500  0.2160468907222105
  0.8933393295134054  0.0536236003829740  0.1970283886359603
  0.9246237445690247  0.0271947755232696  0.2242678786205655
  0.9758030908690825  0.0214529823065642  0.2104492057401698
  0.5138290848378139  0.0811918522395164  0.2368884568210643
  0.5551035539932304  0.0876979691377467  0.2119084704653480
  0.6345331417680478  0.0705306355701269  0.2135707481740457
  0.6582340658867653  0.1023682019244301  0.1833621933464032
  0.7470555050718662  0.1101781337036826  0.2332769518175524
  0.7432310388226817  0.0996660432911433  0.1824713393009857
  0.7860594927145474  0.0848729465418613  0.1587685303831679
  0.8193271499712024  0.1236411256981590  0.1616508056554447
  0.9255564025554862  0.0975256153512278  0.1752900729469410
  0.9723031308083846  0.0877314747561594  0.1664201359814062
  0.5488572087321985  0.1249908384706211  0.1778383249858814
  0.5156095262162668  0.1624361826259162  0.1876382768490890
  0.5910315095091396  0.1496915543925241  0.1618539502841893
  0.6317765778472153  0.1666403971003688  0.2319348451207368
  0.6085105958516639  0.1885118369341034  0.1908583930662321
  0.6727886017867979  0.1403428160509365  0.2151081207621126
  0.7030592471260182  0.1706523392962888  0.1878837018634594
  0.7471838817319686  0.1489863419902932  0.1796729043534547
  0.7681548487458167  0.1563877679320982  0.2263488497107299
  0.8416896677586330  0.1310984481611306  0.2112891006393708
  0.8163348731545225  0.1698249849106067  0.2279853354345164
  0.8922946101709746  0.1419660955520653  0.2172001254905148
  0.9291055320083862  0.1463394971074605  0.1835687004954763
  0.9735972029218315  0.1737393289748811  0.1958436654432128
  0.5354111204620686  0.1911360923546466  0.2285532486787124
  0.5718601507302933  0.2200884829632464  0.2074682315889143
  0.6422323537331351  0.2167657765231167  0.1620479527742497
  0.6814973173116959  0.2373796979407938  0.2315506617818540
  0.7195894790715540  0.2092985813382285  0.2173850519919794
  0.7524755640459464  0.2314616969953106  0.1856902910145947
  0.7919294584646837  0.2065993249990992  0.1623123851323000
  0.8296329117480341  0.2088407252537015  0.1946648531865705
  0.8704701285852338  0.2018248213722751  0.1687133453725981
  0.9727299171635646  0.2229715400862284  0.1735010984981426
  0.5275301362136831  0.2894470177126480  0.2040932197004781
  0.5528624393701812  0.2558994431918349  0.1755280681929815
  0.5883215977682852  0.2879457680741007  0.1613043907422068
  0.5935524079637463  0.2576914761741989  0.2370258423675070
  0.6212051204655200  0.2844167498252188  0.2026007417364265
  0.6595701007297439  0.2566038449151500  0.1891927757605039
  0.6943351895256018  0.2860214729553906  0.1649528081499242
  0.7781008333701657  0.2651590183014396  0.2115041100396405
  0.7662986058326671  0.3104409891066596  0.1933149607553559
  0.8408309131704474  0.2957069853224017  0.1844044881946423
  0.8263501534115393  0.2564239093486647  0.2081862796629021
  0.9118257168006508  0.2738378841648584  0.1775205474937774
  0.8866146758874498  0.3152783221585269  0.1831647238712710
  0.9727976034305316  0.2996009983710145  0.2148679265168507
  0.9532267842323121  0.2646763656375469  0.1927351644009964
  0.5187546427389830  0.0306163554111469  0.2526937039607130
  0.5461657888819320  0.0417222624252069  0.2931645630912874
  0.6306706561561451  0.0225570358202501  0.2726305392320186
  0.6567024070508325  0.0016841561329991  0.3126653310861607
  0.6649299414013918  0.0527886126653176  0.2490076903795609
  0.7312760180575782  0.0183992300524622  0.2719274420604067
  0.7684580261689413  0.0448065494412173  0.2723480082753130
  0.8357626538215861  0.0065141639687454  0.2408003163003619
  0.7984393523691634  0.0362187675772192  0.3061097774346263
  0.8407156062971505  0.0163037410704373  0.2909289848359080
  0.8831593822075138  0.0395262345137376  0.3061296005202361
  0.9228134211551514  0.0460688278756002  0.2718793064095419
  0.9509072498008926  0.0180432197073331  0.3011273881535719
  0.5137712027596896  0.0820799663461947  0.3071744352698842
  0.5135223844934160  0.1188093922057859  0.2710366027513950
  0.5945722553783697  0.0570631637850472  0.2827210186806715
  0.6137969907647567  0.0815613381460359  0.3230215534505532
  0.5956215558434105  0.0903202732557476  0.2414481460556520
  0.6799959138802489  0.0875114132154696  0.2786066727987550
  0.7837139857517368  0.1134463409976119  0.3063559264977352
  0.7803603700562473  0.0896762630699566  0.2602060937509079
  0.8309535873036888  0.0919864095154910  0.2437850109028690
  0.8591933843007872  0.1098683494083444  0.2892087832281359
  0.9407864341828626  0.0939079294611980  0.2775769458123357
  0.9883704727827407  0.0913352413962690  0.2559044412742520
  0.5499854551233776  0.1566500981357258  0.2645481888196482
  0.5496508721753860  0.1804576937368079  0.3105224651267716
  0.5976837606038671  0.1370145518730296  0.2601378186729221
  0.6052037074392288  0.1292163453330681  0.3114721619680343
  0.7020126558377727  0.1228544202329927  0.2552246810023447
  0.7148248317801588  0.1600807672727341  0.2877286098354536
  0.8248421958951332  0.1453724242925107  0.3080554791262211
  0.8232925788563141  0.1841924908838216  0.2757944223070463
  0.9018494212487840  0.1224202087040595  0.2660866630359178
  0.9034760176404270  0.1699822724224335  0.2583312525578280
  0.9869390020610417  0.1763966012789375  0.2452096915759586
  0.5055050626872857  0.2246742602973610  0.2592870230906111
  0.5844052592589710  0.2187911855487636  0.3128800185778326
  0.6177319888524790  0.2367846913030539  0.2761630770764457
  0.6507005395155182  0.2041381090618202  0.2585340369633197
  0.6732956776803533  0.1865894896505887  0.3010328279122940
  0.7444369554784664  0.1880893453609273  0.2567734120845285
  0.7802287355860631  0.2154004476179411  0.2819329471360183
  0.8690429376120614  0.1987833792241969  0.2746304921828862
  0.8899425865759933  0.2364910506801821  0.2888879923047831
  0.9462931055968020  0.1921927860799238  0.2666297824410889
  0.9363722603326632  0.2314028028961986  0.2891823284324392
  0.5023377387004190  0.3052222862375480  0.2887990947730416
  0.5293318253322576  0.2672399863927075  0.2803371964401026
  0.5555007643799507  0.2577296234465619  0.3223741837985998
  0.5557154176843008  0.2918911161075781  0.2476345979334778
  0.6559004272109802  0.2649777321947428  0.2989628704843507
  0.6921080534136766  0.2777091890728288  0.2631544745747607
  0.7389169913623069  0.2787626959702699  0.2781711285009910
  0.7513068948283659  0.3042875897447777  0.3152923960431385
  0.7816532981003707  0.2605254560852170  0.2609689958419260
  0.8223208017496342  0.2860460395071924  0.2846006311944745
  0.8677145966793749  0.2739130857879334  0.3004126443092408
  0.8901220527887620  0.3001772670017241  0.3317381309332309
  0.9602672974122899  0.2632380135558066  0.3128187223341591
  0.5174499989883143  0.0262103432740294  0.3686977571324604
  0.5478879556837918  0.0069446385768431  0.3299838011195229
  0.5899904976918281  0.0096187503962503  0.3583518571291190
  0.5754746130393165  0.9904246371684918  0.4000580468897723
  0.6812867456741204  0.0365549801101538  0.3332151772606018
  0.6892912076383104  0.0320754159733617  0.4064782076844040
  0.7175340519020464  0.0303178488195322  0.3645313593179683
  0.8345153609476740  0.0309261449345810  0.3895766963938078
  0.9148861914297849  0.0047611912878097  0.3328549016115418
  0.9413440142884150  0.0141014314058698  0.3776565618294494
  0.9805284355085772  0.0502154976695847  0.3249235243667156
  0.5429524900135132  0.0724014343044688  0.3739285262409865
  0.5271484756296466  0.1079720303114360  0.3452073368270093
  0.5929067087976352  0.0612069393616500  0.3663988025078596
  0.6152982010835374  0.0805564612463328  0.4085242200902967
  0.6647501264287594  0.0797875479189531  0.3260200852106332
  0.6794704725018249  0.1050077766657864  0.3679843873761015
  0.7508418007570838  0.0683236555287984  0.3708814435908739
  0.7268225158840989  0.1128194003777516  0.3655655897500009
  0.7914675675510787  0.0722469582387262  0.3383671229718687
  0.8322916525848685  0.0769898754004275  0.3640611599058919
  0.8710573543447379  0.0810718225269966  0.3299527858974439
  0.9108000643459753  0.0950217216900264  0.3585952632558945
  0.9195451915031082  0.0557491441522220  0.3932481638325301
  0.9538790063880641  0.0964579492496855  0.3304041096110656
  0.5629345057874848  0.1434872769950786  0.3387677894718550
  0.6133500596953291  0.1342880301695950  0.4030738326887172
  0.5823050534797868  0.1671276589934499  0.3786642929290922
  0.6554497684300195  0.1463725992349283  0.3730455339043268
  0.6387200007418521  0.1619296110096472  0.3286659570961719
  0.7447039802376284  0.1395472166650826  0.3244872039515792
  0.7702341434654717  0.1756115553767808  0.3499708996512154
  0.7526593674780507  0.1831423441997290  0.3949620503992023
  0.7410161530291818  0.1391436301222893  0.4080023908618020
  0.8238260382600523  0.1228984239039912  0.3920366249658817
  0.8188839079748629  0.1631186422830569  0.3571157313880783
  0.8988159757302653  0.1394200836195243  0.3829047788424457
  0.9849333706822750  0.1331813638947557  0.3492483245533651
  0.9278380940555311  0.1750847111728655  0.3883993721866759
  0.9727388119821856  0.1682140094313709  0.3785344520949446
  0.5073882283206373  0.1990881754491163  0.3385412614418586
  0.5195772731276788  0.2448810884253620  0.3570862323784185
  0.5472038015126232  0.2461519989640036  0.3998337980905400
  0.6106560228822583  0.1987286074992235  0.3486993148430568
  0.6456965642222235  0.2233566861705308  0.3708001019056008
  0.6774199188750039  0.2304011813007305  0.3290762513812825
  0.6724138539279553  0.1887925722630109  0.3958927624926075
  0.7149095815375979  0.2150492839276167  0.3952851837561263
  0.7669345900278463  0.2212908137677127  0.3316701862782108
  0.7209214394930762  0.2417674415182315  0.3504409582487473
  0.8277611047626189  0.2101803130543635  0.3831885070502538
  0.7998743465234649  0.2488995969926153  0.3582119169448615
  0.5875912701139043  0.2931511034440479  0.3411453611840338
  0.5855366076652854  0.2802889959712382  0.3908359353686606
  0.6313301048281238  0.2584509052142894  0.4032250969821448
  0.6383520738009505  0.2964387116701839  0.3296226118133031
  0.6754698353625416  0.3124195302698074  0.3613107407531252
  0.6631929846658609  0.2939987039356215  0.4041703981172944
  0.7225355037885063  0.2935169443905142  0.3542995649421343
  0.7519624986864344  0.3121356684729023  0.3903579485848069
  0.8011352781935115  0.2902678772728326  0.3286635796227024
  0.7850243297974501  0.2748132823988818  0.3998126529855918
  0.9361176001983060  0.2952911407744878  0.3369907590436974
  0.5298134869252641  0.0091606267951117  0.4141646056092664
  0.5401599119483703  0.0508822173930911  0.4440745972531173
  0.5219585900438409  0.0520880055707510  0.4896387191072474
  0.5990336168535120  0.0057695478260840  0.4399087856201005
  0.6752716057071926  0.0140108556974058  0.4829436359259637
  0.7102134231110087  0.0226119488666409  0.4511662862358995
  0.7994058358022018  0.0313457686603556  0.4287159385286924
  0.8224005478563590  0.0410473408803778  0.4738233857165160
  0.8965513554103468  0.9883966573186248  0.4833443908443849
  0.8763944076087521  0.0323373969031707  0.4160131272541074
  0.9064801532704438  0.0347174168491943  0.4901103201152534
  0.9864889394342188  0.0110826694221593  0.4835480283240347
  0.9435285559054228  0.0119836601060381  0.4661755611525309
  0.5242928992999449  0.0891636475567420  0.4186561573056559
  0.5912561124678244  0.0554858195816107  0.4479067930325493
  0.6674741342457512  0.0764832532520129  0.4102680412092891
  0.6920589310118419  0.0966327719375617  0.4530108323259305
  0.7323113642711999  0.0667628638033890  0.4587656607723628
  0.7674565013933285  0.0695149756512755  0.4212551320533687
  0.7838707840327895  0.1163748568151477  0.4235254653031441
  0.8696593345350077  0.0553439642324681  0.4605711422879898
  0.8800279614194021  0.1057429629865028  0.4581893133919124
  0.9493120933554838  0.0799718969967869  0.4242771595388601
  0.9298062983758668  0.1092427037686584  0.4529875389804920
  0.5339770405909755  0.1351624384599883  0.4883858167868896
  0.5324041824622350  0.1321384259723639  0.4396234331328973
  0.5148443113118586  0.1756187123091670  0.4209032594303729
  0.6214637001940551  0.1220866366065865  0.4900668837404612
  0.6202927571500717  0.1529500571596331  0.4485200600216702
  0.7085580582355506  0.1409799087131787  0.4479089740206081
  0.6675805378422900  0.1724487630957225  0.4431713276220733
  0.7409640141870764  0.1494026766093915  0.4879562374587187
  0.7882821314162483  0.1410061257028100  0.4689741716270288
  0.8064505046419275  0.1847284830124378  0.4606468874138147
  0.8637681737187756  0.1359388947211705  0.4199455338677534
  0.8559694931849656  0.1801395645678209  0.4491072206492227
  0.9564305592278657  0.1396251708131900  0.4739301460644200
  0.9302604515013190  0.1703014283005796  0.4972691743609266
  0.4927956106515464  0.1962895623653811  0.4639671568294513
  0.5584225462758761  0.1981653835245643  0.4110883677989627
  0.5214486453633029  0.2363211332591404  0.4802001887305199
  0.5671180187974997  0.2140557447630921  0.4906866478471626
  0.5917294857912978  0.1996215731071897  0.4498253551767912
  0.6269371093092088  0.2378104411288831  0.4493949276865974
  0.6628358600566129  0.2094927252243141  0.4747246544711277
  0.7075821771489713  0.2286757434027848  0.4822664686065262
  0.7218021154834942  0.2458527454576867  0.4381763508306581
  0.7694706857402609  0.2463164764704742  0.4329337696741921
  0.7899053357216732  0.2046222072294860  0.4195817509541123
  0.9136436163436829  0.2144082178666211  0.4103487770645458
  0.8656459101066920  0.2201131105374713  0.4178030143776384
  0.9436717155553409  0.2393063139702050  0.4362330642722365
  0.5192535665451145  0.2668454167622672  0.4385772563878942
  0.5248910475646250  0.3190124863647099  0.4368565419532001
  0.6203116348226161  0.2773514869923616  0.4782437311000677
  0.6959590474258720  0.2924087371748867  0.4393893502388595
  0.6699521387641915  0.2968344552061674  0.4840086261490414
  0.8237626498662194  0.2929203377692643  0.4223027136690582
  0.8562426901954159  0.2648521402501937  0.4392583599650593
  0.8846863526377982  0.2829287178879442  0.4726599890502459
  0.9297104123177182  0.2707207479800648  0.4690360088605330
  0.5000290476122029  0.0229098805529741  0.5564081326656274
  0.5251389541444215  0.0081057066375377  0.5134942584271324
  0.6071198313681606  0.9994815371447890  0.5320008099163865
  0.6155311032192707  0.0467188396273584  0.5302462410454288
  0.6605773743973131  0.0518950627085111  0.5117544783580866
  0.6949709388448442  0.0290697254072981  0.5340840890551752
  0.6791753349364691  0.9969860697609692  0.5646742018491379
  0.7427221255576310  0.0359763010751343  0.5341145344695633
  0.7637758342299417  0.9946984076433545  0.5113977852930151
  0.8335225168498722  0.0170507445025525  0.5491558790799779
  0.8143210245779386  0.0000571517791213  0.5078113239924754
  0.5471701854093631  0.0956839720173080  0.5607677509582454
  0.5461406985666414  0.0920889388741852  0.5108087515045472
  0.5931689888347932  0.0794032555762493  0.4948627651399706
  0.6660352770714141  0.0990787674233574  0.4964980378938217
  0.7533308439813399  0.0743200783539851  0.5070654620987003
  0.7348749345305493  0.1184368420199772  0.5283111151810649
  0.8353712678167690  0.0653087025066839  0.5449732974171577
  0.8049412772331975  0.0758669706698942  0.5057236337562164
  0.9180504121633433  0.0632283757311068  0.5269891154912776
  0.8812647998938992  0.0947377605954444  0.5419465149847273
  0.9631623416631777  0.0686196737035580  0.5374727091956809
  0.4869918383534262  0.1694991213240665  0.5406837228986976
  0.5300001280547159  0.1777847683813868  0.5542494817232941
  0.5621620736648545  0.1715892883104220  0.5166708282376533
  0.6188360573158350  0.1468471448077449  0.5751527720765408
  0.6125735153023950  0.1575816598387479  0.5264134983816037
  0.6881657313205202  0.1265667933591765  0.5383562091196515
  0.6938729155999607  0.1811397899485405  0.5440556778016190
  0.7580441673776495  0.1289715821977093  0.5724436345085622
  0.8161683283327422  0.1231789826352954  0.5068977028550443
  0.8034226885678339  0.1359417839091294  0.5560369651753009
  0.8652745697335281  0.1265213386698800  0.5020512657593618
  0.8805214523993685  0.1756264963416749  0.4957646528236260
  0.6299521043191427  0.2339172625274818  0.5450854381905581
  0.6481898013928822  0.1947201416695597  0.5215667305354798
  0.7355856995442424  0.1952189389694234  0.5074323167342619
  0.7868113974236028  0.2079525527794789  0.5020317907804045
  0.8183641020391748  0.2255754741720289  0.5308686511556610
  0.7997868730475959  0.2422827184723169  0.5730626912677850
  0.8906670193827080  0.2319066967018571  0.5597150639966344
  0.8631851006557848  0.2126481036098440  0.5273088038040007
  0.9345723505233652  0.2199665109981583  0.5569676969172470
  0.9553385022198462  0.1930051203129838  0.5259526647741042
  0.9673273975751439  0.2324918932510158  0.5854903378237117
  0.5132139697402224  0.2598890921522792  0.5228865885342905
  0.5553698016364000  0.2795236791836190  0.5403426798965882
  0.5932586278797226  0.2530729125556124  0.5159264334349447
  0.6999731031731254  0.2688517615036652  0.5111737951995736
  0.6691360502802256  0.2623360945974376  0.5470687193543277
  0.7449930440638385  0.2883824019123221  0.5269741531272527
  0.7567617432680678  0.2611261880917894  0.5661046745846592
  0.7825167983192168  0.3044598174611675  0.4969034789892880
  0.8684683050640537  0.3107268478056826  0.5082195355322326
  0.9612736070894844  0.2891289067645345  0.4987153659293039
  0.5556234192033112  0.0664282417179427  0.6494667833136378
  0.5662235992854695  0.0388584057332870  0.6073875299784448
  0.6139954200595130  0.0507830487259702  0.5827696829359091
  0.6500249709790901  0.0194821533055613  0.6011353085390954
  0.6807760957205404  0.0484819527585696  0.6304893381638562
  0.7169178029412002  0.0155458955139730  0.6516584077826435
  0.7610861581139120  0.0441697563231130  0.5830703318123354
  0.7439065669685688  0.0054014124429584  0.6096228855503588
  0.8102718601433717  0.0489045843690474  0.5828394614547624
  0.9043833599066503  0.0338835797396073  0.6185386501181339
  0.8681087001808282  0.0542047465705188  0.6448910670915748
  0.8904965227345263  0.9989759898767149  0.5911489735625788
  0.9875973079679199  0.0115263375291627  0.6250827637341060
  0.9470026120303706  0.0342136628719780  0.6392823844936215
  0.5277956270365941  0.0561827867641322  0.5808973931058872
  0.5025372573017519  0.0904170519506082  0.6033004565990093
  0.5266004279637897  0.1053754962172469  0.6434722164680965
  0.5820464209209143  0.1186708430171130  0.5903316531996887
  0.6261279132067973  0.0933353048760436  0.6026023406600343
  0.6477229671406397  0.0815905277828195  0.6506169237641992
  0.6678776465877651  0.1109095285526282  0.5808783241967788
  0.6984334077000595  0.0839653217288776  0.6029559652779422
  0.7443780621578524  0.0896554484642300  0.6036806296706596
  0.7558147387592318  0.1037180462251901  0.6538113639228235
  0.8252491873508044  0.0635093090189043  0.6248000245028651
  0.8029825682625231  0.0949036367144465  0.6512323160705126
  0.8973799529441475  0.1235588266631346  0.5804404269862216
  0.9746469588309660  0.0975368819254981  0.5722656023526834
  0.9417974208022094  0.1222267013540578  0.5956543152600425
  0.5587739785251080  0.1442662397195887  0.6261294808139884
  0.5377071185588143  0.1877194220853103  0.6011308581445430
  0.5968207826340485  0.1642940259553334  0.6524977345115319
  0.6278596746079210  0.1800734922808338  0.6121466948042080
  0.7440212335885772  0.1531862406130865  0.6583984271773544
  0.7501262779030557  0.1719775550049510  0.6074747596765252
  0.8257844604596404  0.1596182690926360  0.5885224810330975
  0.8694008545878036  0.1543100115110869  0.6023530989165611
  0.8820915229362318  0.1769874906958520  0.6413520701167468
  0.9537692748488784  0.1426952645622610  0.6367101284870071
  0.4958625019194354  0.1994845196864135  0.6236535288566720
  0.5675174956268456  0.2297306041073397  0.6029851269876469
  0.6144671560045134  0.2251241325660929  0.5932289812192794
  0.6727178698003955  0.1925617099618937  0.6325690478176839
  0.6578509406469059  0.2386602611896048  0.6556830741208839
  0.7077756319299435  0.2001391229736635  0.5951519249881798
  0.7216827634999881  0.2520890904766746  0.5984990375856749
  0.7956926982639655  0.1959644523115998  0.6035492497007948
  0.8128467594308962  0.2236247969266131  0.6402875121615725
  0.5149376166787316  0.2998406965113675  0.6107938108826154
  0.5563992341156426  0.2775499859499953  0.5954220891531359
  0.5965537242162581  0.2968886133338923  0.6284698054418122
  0.6377990364665274  0.2648578211333754  0.6189389793181651
  0.6789283797933422  0.2802581379234063  0.5887713723775884
  0.7368256434378486  0.2702999306659542  0.6434744564017785
  0.8323216389572807  0.2647451081905347  0.6108494195286005
  0.8251500968064709  0.3061682418572443  0.6466467592041304
  0.8783076263449173  0.2600041675937900  0.5967735125331756
  0.9126022241158296  0.2735572824768334  0.6268350893966248
  0.9059211855734061  0.3010509234284074  0.6643743737554749
  0.9561434689692818  0.2571409701276934  0.6214484844341155
  0.6235291047702531  0.0059553275940435  0.6720769260558538
  0.6724634636593428  0.0126125181924659  0.7364686860331339
  0.7230822501885207  0.0144988959135104  0.7400737610515806
  0.7419915999121220  0.0317494175077036  0.6947936457595905
  0.7870492070808159  0.0094448114432641  0.6913949688408138
  0.8240143944935848  0.0282161747188734  0.7180546071276689
  0.8667950304410298  0.0203486291953897  0.6844918960280334
  0.9060337395590146  0.0340788565050444  0.7089519816595611
  0.9463122233511465  0.0512851495664389  0.6834705714127270
  0.5120910648652177  0.0965908369698914  0.7271795959102714
  0.4968028141284050  0.1062840365375409  0.6834619260546562
  0.5562495596560625  0.0809857939394821  0.7288062593283769
  0.5765883826535126  0.0674450384999871  0.6897004328123387
  0.6223402430342850  0.0536976762428267  0.6854618036861164
  0.6529357265696176  0.0594958470009850  0.7283231049782218
  0.6884523829735559  0.0964794824703948  0.7173522602028503
  0.7685881982953445  0.0990723726899406  0.7373676231608719
  0.7372228297855417  0.0822778939728553  0.6993997157028496
  0.8161707187132767  0.0801890213316366  0.7290885957645258
  0.8314198806749653  0.1097308675056427  0.6877627657366632
  0.8754810262555114  0.0936418773954846  0.6733329492194848
  0.9070610366785610  0.0830527851412493  0.7057987837886428
  0.9870432419801493  0.0571034284476759  0.7055314981349536
  0.6182969085966127  0.1401389415229189  0.6928521210203513
  0.6142006547411710  0.1592870920549018  0.7401732907363707
  0.6632708605548084  0.1206917377739679  0.6804603363266343
  0.6927845830064276  0.1622996907245195  0.6704309186490648
  0.7739378714880023  0.1717593584828972  0.6993079602908095
  0.7638001039036676  0.1521638114475092  0.7440355684321810
  0.8242805464351833  0.1589052160446823  0.6986628004447751
  0.9226381722983662  0.1681284304629133  0.6617781563530257
  0.9724714905667408  0.1684046999360741  0.7239502926902753
  0.9292974365847014  0.1794608532026787  0.7066547135347354
  0.5014094177846441  0.2072459044041045  0.6687116975034921
  0.5400651815537105  0.2016298913783968  0.6944938090228617
  0.5826297172166454  0.2036339566581738  0.6746560426780583
  0.6226353353359465  0.2284956980871532  0.6923577801008136
  0.6424267302258322  0.2007208118304208  0.7310981142801377
  0.6909008886651011  0.1902344508921532  0.7171458850264780
  0.7150401851711227  0.2323890309775135  0.7115358434044340
  0.7645731728460639  0.2211294976101430  0.7065574598059524
  0.8469165933561672  0.1981294533456389  0.6682653350464905
  0.7780184264819779  0.2482544929822113  0.6666823765332385
  0.8880588633387974  0.1961674392976984  0.7336223165048085
  0.8624478895981018  0.2257736085603239  0.7047660073486495
  0.5224646955660187  0.3162810477421927  0.7379456603158543
  0.5352259053849319  0.3073785729469143  0.6915300984072661
  0.5776859149235948  0.2916725029364062  0.6780644390751509
  0.6028863423804949  0.2689503340353399  0.7118175740105667
  0.6789786328201860  0.2996461509834918  0.7402409275642476
  0.6871279576123954  0.3096313300253856  0.6951902155387636
  0.6975924109455888  0.2623254776795153  0.6744531551177261
  0.7738137843833707  0.3129864537436723  0.7161875831066538
  0.8041734994559180  0.2840658813725601  0.6875641648330409
  0.8326396613354337  0.2604790260132495  0.7237897510107058
  0.9386213528543329  0.2993155636730963  0.6988287290993547
  0.9806577464726027  0.2810550567864649  0.6913832779588772
  0.9326351503549730  0.3133650671282564  0.7428459802606646
  0.5541115747953638  0.0473537558138659  0.7883100222708544
  0.5633382516131764  0.0000536686014604  0.7953922832286798
  0.6450603658649475  0.0047562227593658  0.8178460235839784
  0.7362468806044359  0.0374745149847036  0.7834738417136103
  0.7569739958768311  0.0067338209913329  0.8153245721550575
  0.8359341243299471  0.0049864110022901  0.7680574784988197
  0.8598210131406891  0.0424144882073959  0.7933745385238734
  0.9122021694061150  0.0337405616628184  0.7877418290349482
  0.9121354084308927  0.0041112425327727  0.7463738201389218
  0.9800116281340047  0.9942756981002318  0.8275976010665472
  0.5305155867327532  0.0708534646550130  0.8205340749926321
  0.5814957945430986  0.0762701081171699  0.7672772775047677
  0.6291617214624513  0.0798656833044440  0.7707736797173130
  0.6504198016612885  0.0550360423324450  0.8114701178533500
  0.6995207554606115  0.0605953156327880  0.8139400639066127
  0.7148966186232248  0.1057343685358352  0.8004241730792520
  0.7584019912486388  0.0843974593322751  0.7824096570807166
  0.7998273453054261  0.0951508243543391  0.8109553588248837
  0.8388073562574965  0.0863312550205688  0.7764915394337220
  0.9093999429540408  0.1050142951663372  0.7474844702966895
  0.9823094892842636  0.0669841475816733  0.7505512407849543
  0.9393515449637995  0.0787353338365667  0.7735185416077138
  0.9470778595505164  0.1069419333758201  0.8128858509083119
  0.5697428421063687  0.1798861379519549  0.8141434656037696
  0.5700954440560408  0.1732616182332428  0.7642711325899745
  0.6387967498928044  0.1598549040985900  0.8206851067783237
  0.6412686437730115  0.1321900011127421  0.7753967914951936
  0.6898974524230901  0.1256763295248736  0.7624295501548882
  0.7150888650400208  0.1677515997210483  0.7562618796625199
  0.8000460383298931  0.1445878271068375  0.8238422802040518
  0.8007093249162880  0.1707039939049832  0.7784899434246018
  0.8450250730293382  0.1624184336389859  0.7471180315552471
  0.8693204939908477  0.1257770906308765  0.7716460389184969
  0.8799102123456219  0.1471132189005085  0.8204240464373969
  0.9117547443112817  0.1872308834899077  0.8126190335448515
  0.9548622541420411  0.1613374409750062  0.8073133805715507
  0.9838166207929494  0.1688406025761048  0.7688053969398935
  0.5362604899371666  0.1955605589606249  0.7407235514037938
  0.6152373975483612  0.2072276128078502  0.8162126207162859
  0.6359116009674181  0.2294730985432329  0.7743405317738647
  0.6838644218401487  0.2421386465494040  0.7879494027723257
  0.7104563797414896  0.1995837349933164  0.8000062060388535
  0.7521091955055053  0.2243866844542019  0.8216820737522170
  0.7937946429655462  0.2201063470927775  0.7907556368807588
  0.7884268338716055  0.2438921218225603  0.7472099539798864
  0.8321027387519413  0.2418548914916776  0.8186504053825738
  0.8981427853596674  0.2153295580362031  0.7757238578350886
  0.5439390603413528  0.3096093705766856  0.7797902773231027
  0.5820467657133259  0.2858732407480133  0.7926279954806744
  0.6030349592734237  0.2629375135909898  0.7591330227263778
  0.6683576437545097  0.3220619532776653  0.8220706662237157
  0.7090237695269568  0.2638805835818908  0.7507510598981227
  0.7561187249796447  0.3077615103397425  0.7977415282941493
  0.7571179829527515  0.2831483275976605  0.7543615677381753
  0.8571402199297709  0.2867131938731516  0.7583558377833802
  0.8741737616067456  0.2538559726912157  0.7920788089334967
  0.9589628916356399  0.2974242145832930  0.7783039143125077
  0.9458561294418804  0.2973818645325101  0.8259280710813407
  0.5918071309819496  0.0398841359558455  0.8650023158423655
  0.5973769278815898  0.9972689784631269  0.8343448151020465
  0.6943203039178369  0.0213746416121029  0.8891707319807359
  0.7641300532139996  0.0339179573931037  0.8556958138373582
  0.7718446576261423  0.0014770161198417  0.8943724081494511
  0.8485434462057766  0.0403974130796692  0.8421357858372405
  0.8519539103782088  0.9906743902189022  0.9107957918416493
  0.8538339017748211  0.9893930193227150  0.8584661828088247
  0.9235150062463118  0.0431834378459505  0.8727768833205229
  0.9296957062561849  0.0102592566029419  0.8298141955564962
  0.5460773041639450  0.0612261122818674  0.8618256772619509
  0.5194882169528892  0.0743294251445529  0.8965990888904826
  0.6279124634858668  0.0728729731842037  0.8497653798298693
  0.6557961370758120  0.0923425386600675  0.8851087039416511
  0.7052807214263166  0.1011129391924666  0.8781963570174854
  0.7181578844288768  0.0554683446904762  0.8604375438576786
  0.8037022600841409  0.0635502664483131  0.8517232292319807
  0.8054898341049063  0.0852207633650133  0.8993086620011217
  0.8555016317811074  0.0982540612845584  0.9033352800944415
  0.8818905726009744  0.0724328881250683  0.8648749441748791
  0.9063056041411696  0.1121151160422972  0.8432795503362248
  0.9794233131718630  0.0823183807561467  0.8382573177435886
  0.9615949680293283  0.0783165587526257  0.8810058789817909
  0.5918972165407896  0.1423763032501464  0.8937726233342610
  0.5956992791030713  0.1478510158060145  0.8464462041830191
  0.6861999763789126  0.1728663602296614  0.8365617468919504
  0.7176662627217489  0.1349932671096495  0.8428875553923640
  0.7640546642828673  0.1535326997316135  0.8590883604113210
  0.7740643421704306  0.1264798500658610  0.9040699521440773
  0.8475386132152933  0.1479205103670815  0.8981507865748922
  0.8395754701573034  0.1622637476734019  0.8493167676149155
  0.9327021498112313  0.1176133673481584  0.8843050360400478
  0.9751659876944238  0.1682203765899651  0.8895165856006506
  0.9859098776141056  0.1720921664183742  0.8451962720671198
  0.5119176630242869  0.1986713416467217  0.8777013709708494
  0.5275498545191531  0.1955058443583917  0.8327827921093045
  0.6143702643728627  0.2422331738283715  0.8579895746976028
  0.6005525506046323  0.2323507910188636  0.9072246171060621
  0.6825006557145925  0.2013663962376478  0.8783136588076735
  0.6631607553576558  0.2482112632306863  0.8686002780889449
  0.7268729208723668  0.2185657250882545  0.8999095766074231
  0.7623906940648658  0.2059943226664412  0.8682510252714252
  0.8021242270390976  0.2315875742909485  0.8902419966379287
  0.8388373854232938  0.2131585444045032  0.8599231745252769
  0.9125884565669028  0.2233088852778586  0.8490471306858114
  0.8826064562080567  0.2173489019082082  0.8857172356323739
  0.5566977392983482  0.3205540544786960  0.8564260551409826
  0.5957648711490914  0.2874509467923049  0.8417252164725548
  0.6862622823110197  0.2728464340408059  0.8282067385872866
  0.7364509471042282  0.2751660709690952  0.8314337887745733
  0.7475104231104444  0.2944031109276667  0.8762424340488313
  0.7972972315838173  0.2832884197497782  0.8840486422276250
  0.8236863922591543  0.2882988680007197  0.8425312651223843
  0.9034492041596622  0.2695327646128994  0.8317307600990625
  0.8718460880553368  0.3009041545310160  0.8567078839898206
  0.9796482270966598  0.2810155243749593  0.8592710983927858
  0.9755446732073363  0.2733054480190077  0.9060512357061715
  0.5839429677796307  0.0504852571708638  0.9425916570069151
  0.6121716165093815  0.0286140053945818  0.9109193778902228
  0.6593919716743254  0.0498607915295658  0.9115495557236913
  0.6679194935645243  0.0329415872197571  0.9899275795025212
  0.7298697678763340  0.0046524802718152  0.9242352727675454
  0.7510489741900517  0.0413053702450327  0.9574022426014895
  0.7993019468688679  0.0538562090526015  0.9404375023057299
  0.8114166836352608  0.0149668821926096  0.9181939423942574
  0.8989785452678701  0.9903199238595094  0.9315001931126715
  0.8973242873424226  0.9993902620366473  0.9795673524379830
  0.9282537716051200  0.0226201129574775  0.9153078631644295
  0.9644980831382779  0.0380261532711725  0.9450818050351546
  0.5405646553823121  0.0658442552622992  0.9360503564070729
  0.5228232514878483  0.0812684626441579  0.9750540891037112
  0.6016669402356734  0.0700127360071129  0.9824625878879497
  0.6350537838444734  0.1047000745388945  0.9616023933347830
  0.6731792125145519  0.0675731406985994  0.9560714698381144
  0.7206845892295900  0.0829642787125867  0.9594547652239900
  0.7270521407441046  0.1164259161414020  0.9215097515910712
  0.8392131708627751  0.0577141430386024  0.9724375518350387
  0.8681848696737883  0.0944498303615662  0.9519153023640060
  0.9131272473123373  0.1077457738850942  0.9763700010205236
  0.9419725340403846  0.0673088291212422  0.9828122009287223
  0.5619245007461269  0.1570746631084514  0.9274994259498861
  0.5251762678302652  0.1835793968921312  0.9182571353770955
  0.6341704355891444  0.1274745287032741  0.9129000294242460
  0.5713742662129179  0.1630358927844901  0.9780623036648304
  0.6167343916090408  0.1839595600931514  0.9818529198566014
  0.6624791352050823  0.1723041746676797  0.9159127009294313
  0.6920954501446895  0.1487702477357679  0.9922214877268239
  0.7041207728740780  0.1579790164569629  0.9426082076280098
  0.8278804693778251  0.1278254287235181  0.9708883036687491
  0.8047403624813421  0.1516620099132708  0.9342370776953979
  0.8863265656315040  0.1753256989079262  0.9137042376607286
  0.9928954647974451  0.1416237114624851  0.9570331021856501
  0.9444518455232306  0.1462414185994461  0.9583788831596458
  0.9286088158247466  0.1862190592567259  0.9835173412211299
  0.9326096705805155  0.1548976777986320  0.9115324352949056
  0.5335817283711567  0.1899081883356366  0.9925808562682379
  0.5051699579239214  0.2004795554291808  0.9578732738018044
  0.6336429709160097  0.2065255242152007  0.9384321885779071
  0.7033406768696439  0.2264370512231568  0.9792586509344751
  0.6614914319052096  0.2436989349173465  0.9557550661065070
  0.7318969221622580  0.1987573126419095  0.9444390717839425
  0.7809865534158761  0.1922529614620690  0.9568787989178703
  0.8081708098375265  0.2318710552917606  0.9420622368920537
  0.8803272736988669  0.1882680340683436  0.9634882439329002
  0.8593576547463552  0.2329011878393307  0.9583508839886210
  0.8866095661938955  0.2522152699425620  0.9218060974370030
  0.9478304734757969  0.2331038429403824  0.9819396714401823
  0.9337738195007681  0.2543108685311238  0.9397303185650511
  0.5266246907432967  0.3099105866112395  0.9747179844349241
  0.5424772040613743  0.2960709316548089  0.9321445539180357
  0.5779349704270151  0.2644561173002855  0.9338181380522165
  0.5886336552922565  0.2684722002454648  0.9784161444166901
  0.6736248573353827  0.2731550300555843  0.9124328296894397
  0.7236387664412396  0.2701813093759967  0.9121076266861896
  0.7407540833389775  0.2900612518615873  0.9558360573927975
  0.7883915637369766  0.2717061566842636  0.9674660877977707
  0.8183596830875023  0.3098329413347539  0.9706929873462424
  0.8226043691542669  0.3136011155136979  0.9185697796878449
  0.8721065344725289  0.3004113135233674  0.9067243325028506
  0.9472622269701588  0.2977157535182306  0.9334393436531979
  0.5101202264668316  0.3758236729868128  0.0583209191326834
  0.5349381441093296  0.3337549214573239  0.0742836090494993
  0.6167455671728604  0.3641444697410694  0.0182248942376749
  0.7027257668042151  0.3565362585246346  0.9941897705042435
  0.7090999160962278  0.3770977598834928  0.0624833479418794
  0.7251142831019204  0.3372177500199515  0.0356935691806254
  0.7775942514908484  0.3441733132122349  0.0379731804714941
  0.7851017778590501  0.3868358048924481  0.0675609615848999
  0.8385977442185900  0.3845238579592973  0.0010202057848060
  0.7996403040393042  0.3524184603488666  0.9919989712739626
  0.8610208166796341  0.3671568162335955  0.0438458297570742
  0.9081335447397406  0.3766851574488995  0.0407538472433354
  0.9271789242340347  0.3556971527453117  0.0053971108736816
  0.9712259927240363  0.3644067455147587  0.0005273920088259
  0.5566178730692868  0.4182202290428843  0.9897063827766687
  0.5418295629764021  0.4171806953652527  0.0390926800046839
  0.6293607681569563  0.3999246720277256  0.0482927006710705
  0.5854253103436935  0.4235316444810477  0.0665157954298591
  0.6617451164272551  0.4290643833049346  0.0235543897003896
  0.7040776478583552  0.4036061223922243  0.0190311195933838
  0.7425176358084673  0.4333793586509484  0.0080649997026833
  0.7832721577458647  0.4301259573471887  0.0415398743572902
  0.8241209889232383  0.4310218493046012  0.0110994997218228
  0.9102416850610021  0.4551853168534329  0.0327337447844728
  0.8599441648004795  0.4547028933915895  0.0428224096248627
  0.9780372930858220  0.4148877837675916  0.0554263939774765
  0.9287203505977115  0.4157741312692201  0.0590422763484630
  0.5122611227667386  0.4568800829783054  0.0444498871475199
  0.5910283638744557  0.4763007712998504  0.0634096440256790
  0.5916743218088800  0.4935348196643612  0.0175534611157158
  0.6720900356074794  0.4613811887249090  0.0630256945044350
  0.7269241988669322  0.4817884322958935  0.0065427017700535
  0.7106245199812787  0.4923319056788887  0.0543731882943812
  0.7661347111475975  0.5145232757868533  0.9907492945890973
  0.7859576956499205  0.4683732695002871  0.0763949885492993
  0.8018898835412962  0.5097606487354264  0.0586759496037048
  0.8479333328011336  0.5023403912447358  0.0492212835175750
  0.9288515183006824  0.4998253556174497  0.0502043930304029
  0.9779568395778161  0.4997319829584665  0.0439847678657373
  0.9805069993563541  0.4970238590209197  0.9951743818205605
  0.4963707585109430  0.5358290450996126  0.0659518466062997
  0.5076961015950358  0.5648241789048133  0.0240726691579594
  0.5589467869018663  0.5794879598887192  0.0154181069900632
  0.5820047827322281  0.5400745458194679  0.9986948698697007
  0.6275541453112141  0.5284963390573343  0.0138191056395128
  0.6409747038117370  0.5362939167721040  0.0607958297173231
  0.6925053274483678  0.5413658494251055  0.0620014664897099
  0.7064327580562599  0.5758071112031793  0.0263972057900625
  0.7579224269049510  0.5832450661481609  0.0272650692740594
  0.7865388442120389  0.5421422444693113  0.0280303002739030
  0.8322604480384936  0.5667377104267864  0.0152013802745563
  0.8622546487688332  0.5265645756807097  0.0066094503856312
  0.9118972231181908  0.5299043125935692  0.0125995806233464
  0.9276685757619941  0.5724724216136882  0.0277166089578950
  0.9735063649964143  0.5757792682404138  0.0307109301993615
  0.5886214493167243  0.6011278379614723  0.0529641121651338
  0.6290942967886717  0.6271030911592583  0.0254666530135779
  0.6832477252283459  0.6200761795856008  0.0351260066628875
  0.7770099351102526  0.6191478071023350  0.0572675890088281
  0.7164664437250140  0.6513480520577294  0.0085451059746623
  0.8257836259980776  0.6368480461455885  0.0598848470514821
  0.8522376444985698  0.5947704363014420  0.0563584860534161
  0.8995402499420536  0.6056008019828747  0.0434903260836888
  0.9157434418474432  0.6464003705217530  0.0251836296316856
  0.5705457737450929  0.3513533318885004  0.1094282965628091
  0.5665465854235631  0.3344027452341307  0.1564175644329763
  0.6137323704441849  0.3252694345786555  0.0973817514720983
  0.6530872659227276  0.3472462051659950  0.1160712570767692
  0.6645554218241642  0.3849572730619228  0.0842742264255422
  0.7313506169422789  0.3491418500743200  0.1294310166670793
  0.8357544865670810  0.3860594968779001  0.0825336666368917
  0.8387925750759153  0.3586966986095267  0.1244684675003703
  0.9170614300622922  0.3247913555048584  0.1077888347400019
  0.8875156835057458  0.3488489426181295  0.1402731690655288
  0.9624980388024051  0.3311217020600468  0.1216668799444246
  0.9618388262537488  0.3746076397018491  0.1402829127770454
  0.5010188466804554  0.4298183300514481  0.1329022926527798
  0.5536027454131580  0.4337028565194621  0.1418248480838244
  0.5755427596175254  0.4020017464447172  0.1104666138913842
  0.6488481345655818  0.4424749449936526  0.1396005618449979
  0.6787224592297721  0.4295746833583248  0.1045280037984805
  0.7431379703574259  0.3874831315958595  0.0972610534315862
  0.7282085547259357  0.4326692813116129  0.1179608307459434
  0.8186928895464178  0.3877061111371807  0.1574661445220280
  0.8112542296464011  0.4314040846097504  0.1517390591606353
  0.9161032090652675  0.3900604072239096  0.1394226187625054
  0.8567575474587962  0.4309745975986296  0.0880070218730793
  0.9063856359744303  0.4257291667860365  0.1049690320040572
  0.5143835625608580  0.4910207470436575  0.0798126207431218
  0.5607563385647977  0.5003585854696037  0.0969606141395981
  0.5766120695707746  0.4790110112029179  0.1377766365713442
  0.6279726332318305  0.4834711733803019  0.1282574843008982
  0.6350249436258140  0.4901852025520448  0.0797518952895665
  0.6469958069215410  0.5200144670927968  0.1586891689433590
  0.7411425680953860  0.4767811013233204  0.0938771181582231
  0.7404980453976521  0.5135130378419692  0.1293374044679080
  0.8227457955672163  0.4562621707995925  0.1136295643156625
  0.8399541085868202  0.4989859840260731  0.1331108534018703
  0.9162103810676533  0.5123504210283277  0.0962098322511391
  0.9790173876380780  0.4649601443860472  0.1151569213873946
  0.9298622542410301  0.4685172536448100  0.1216191614975820
  0.5167669438592262  0.5652755153649549  0.1011454887871611
  0.5668687859034487  0.5518097075216642  0.1071720179144610
  0.6051001186488415  0.5661241493593491  0.0793709755733556
  0.5793581746293184  0.5733509580013123  0.1522799006449450
  0.6706002925416840  0.5575245085396308  0.1420820782691454
  0.7086273532806241  0.5529014904515521  0.1107148326008191
  0.7925209534425791  0.5236653130560208  0.1450440149489581
  0.8506921188343576  0.5707347210176754  0.1048963916751970
  0.8008816849980062  0.5730444826444235  0.1312150966642971
  0.8650757881987986  0.5220859209543876  0.0950497850061701
  0.8801134059683875  0.5855314468159646  0.1414354906291266
  0.9442383313596664  0.5493404600542273  0.1165751877942518
  0.9894537274632864  0.5544532490788647  0.1104940494767560
  0.9261414607503465  0.5783458918610935  0.1462080056561199
  0.5088219721590124  0.6136906229213671  0.0843930676789231
  0.5548864151372237  0.6346770130514193  0.0792089216110750
  0.5913354015619459  0.6239975863049008  0.1547175697123163
  0.6398186279404656  0.6356869193383397  0.1480449212352264
  0.6528630844464760  0.6474558437981514  0.1044974303410999
  0.6940416988971374  0.6337676676279107  0.0847961722353805
  0.7233334206255364  0.6010335337242376  0.1150292143848072
  0.7711634011644057  0.6065509937076422  0.1056416575632264
  0.5187214485909778  0.3295224929219543  0.1723314139712544
  0.5056258782796161  0.3714823003036927  0.1982020588694045
  0.5852968929160044  0.3657681318521180  0.1872063979866615
  0.6310058431112312  0.3709980120071354  0.1989923631432746
  0.6396073867754916  0.3277238326190434  0.2248362195480055
  0.6894236921252346  0.3232214332081435  0.2400285952891602
  0.6596221906293032  0.3660099341314592  0.1612264449797820
  0.7168435954426853  0.3223899232133955  0.1980380469300063
  0.7075313848121905  0.3657382967629429  0.1720626749804773
  0.8083049445529196  0.3327492905525237  0.2130480671812957
  0.8101271012066882  0.3781802512515547  0.2012662622757785
  0.9018840630455441  0.3360193565470736  0.2255429510447639
  0.9472546865521302  0.3334450178530090  0.2336027544287808
  0.5525939618435034  0.3883830868303956  0.2116515133947479
  0.5547268561401033  0.4333611779222675  0.1946506626827341
  0.5091357039896913  0.4510704958079266  0.2099720274937811
  0.6431031236409190  0.4179618409423462  0.2224277681886810
  0.6910146161016290  0.4095759495705839  0.2407553774671293
  0.6640300890338517  0.4423148490573191  0.1844436470820435
  0.7089480673241604  0.4116549819013249  0.1921861448664177
  0.7381331954175254  0.4431906677748066  0.1679131605023753
  0.7987003110154551  0.4176112625171095  0.2246620581547176
  0.7862851226709945  0.4500494288464174  0.1873777113239213
  0.4997496315961274  0.4999129488774081  0.2009429514270335
  0.5861933069511314  0.4631343801447891  0.2118961613093190
  0.5781902560139871  0.5018709311935086  0.1837392603111860
  0.6745459024244173  0.4915147146671138  0.1898152055192771
  0.6757896910525567  0.5083860395754125  0.2378634763745823
  0.7213146330992867  0.4915205368644587  0.1721235310968308
  0.7443740944550994  0.5110833326507322  0.2115141118019965
  0.7895110637386997  0.5022627202977006  0.1951103468505811
  0.8217714187811642  0.5169652104250118  0.2268562523254196
  0.9167332098932560  0.4791088901063483  0.1670353465387146
  0.8735610029428730  0.4941799788494947  0.1730497476040390
  0.8650174873375396  0.5083993455623660  0.2163579683892853
  0.9500357250824584  0.4837397855740829  0.1990014211207078
  0.9415582775132414  0.5063017544418245  0.2387423107524759
  0.4897142386725773  0.5311905410401099  0.2427696604264750
  0.5390652173982589  0.5246671266365377  0.1954831186442860
  0.4960160996550159  0.5874874419178141  0.1769538734175716
  0.5423425612588927  0.5722013244110090  0.1874495382031812
  0.6078916354994426  0.5405678402484825  0.1796120285885602
  0.6102133423398521  0.5650034027521119  0.2232945252633302
  0.6851991981496566  0.5577809729435291  0.2407855219313633
  0.7349954891875320  0.5583376273682172  0.2260252965299784
  0.5063965483461511  0.6576368761105238  0.2363391664640944
  0.5821813175511539  0.6397370681977652  0.2051477948868860
  0.5691015814872767  0.5947578134140766  0.2255200254545191
  0.6545166560499945  0.5903461048364625  0.2191450098028012
  0.6681741111195993  0.5997012412631210  0.1695463659022301
  0.7143178267495760  0.6163759151890992  0.1628400990988451
  0.7434378719721196  0.6391698268714497  0.2314467079005662
  0.7463717557531343  0.5985419493834552  0.1977104435299889
  0.7918954196525908  0.5960224096517270  0.1759406498957484
  0.8267261734126363  0.6095027067772658  0.2012345619745675
  0.8228566497797942  0.6378900589828876  0.2404562254820570
  0.9048772020779587  0.6130357567258963  0.2079846715500691
  0.8678774900731778  0.6040999564651313  0.1824227170212538
  0.9424948323693028  0.5979915525355599  0.1869757211672183
  0.9833231510140354  0.6032101951516520  0.2096778646007621
  0.5000272213448417  0.3849304396407381  0.3181799842809206
  0.5163413744594803  0.3362138602754302  0.3246685786517696
  0.5732640469070125  0.3380758805624657  0.2733122964506500
  0.5666419119352415  0.3352030390904205  0.3246544673970488
  0.6193196922697324  0.3409064792838019  0.2655997685859700
  0.6483158453969941  0.3655240145882117  0.2911065785018451
  0.6919750591395980  0.3685008014298859  0.2696569902644335
  0.7294691887853898  0.3811322421268319  0.3027027590552142
  0.7616146099296232  0.3482106626932051  0.2993071627002016
  0.8084062406879869  0.3592815412615003  0.3023890707519825
  0.8278841716434104  0.3334641715293599  0.2629647348356855
  0.8745705471462027  0.3552695250962329  0.2573161663543114
  0.9667552079322628  0.3628671744663527  0.2634957825046988
  0.5045147214354676  0.3944969844124809  0.2698310324565722
  0.5535863751711882  0.3865248752354661  0.2606421806758812
  0.5007798108674300  0.4438893429621035  0.2583329904712857
  0.5751175653241565  0.4293070492401885  0.2840316156671245
  0.6119467968901167  0.4504325336565715  0.2504239195601848
  0.6825807962321601  0.4529216988980058  0.3137165355653480
  0.7098748969995831  0.4459266665333557  0.2702145795101999
  0.7498634581809999  0.4264307407556680  0.2899606281026668
  0.8200213871605824  0.4089035912520638  0.3106794946296249
  0.7940141039781080  0.4255032440004115  0.2704905226385603
  0.8935330905939337  0.3887232087826795  0.2855639601935316
  0.8679541486349286  0.4157339149400673  0.3147059787853899
  0.9402472771281105  0.3913448176078018  0.2894146331335101
  0.9608544686565487  0.4185750893173417  0.3223515214988054
  0.5366868726933055  0.4654880200958068  0.2887548164582646
  0.5619502925384375  0.5159797208498169  0.2864115750045190
  0.6553784004424366  0.4924050158421371  0.3127124142301754
  0.6367560241455470  0.4953295138249404  0.2660809554622126
  0.7203547381457969  0.4913994826628473  0.2546909008762199
  0.7355923980281945  0.5183428113696658  0.2961206919898355
  0.4957294481790762  0.5526794849412798  0.3225031004963658
  0.5242370454613340  0.5462567574707510  0.2792348628548186
  0.6068550099835057  0.5362009501252967  0.2652200844355166
  0.6265931273346916  0.5776113173876807  0.2985560677449882
  0.6902553639222223  0.5324129552689706  0.3179710443149875
  0.6774270046612805  0.5696919453476151  0.2902975298472700
  0.7623789396973671  0.5545074501719613  0.2699704067628469
  0.8408189047216982  0.5508143658601068  0.2969178097227973
  0.8093380746037044  0.5406219497273526  0.2641713854727914
  0.8852227153235971  0.5404239386821666  0.2869648445185312
  0.8973803393895873  0.5177755632729746  0.2478607189111983
  0.9201225302106357  0.5548233505340753  0.3139324586227775
  0.9647288628006746  0.5446855764191129  0.3041083416738593
  0.9766450682951053  0.5191588848884996  0.2664857930199924
  0.4978059756272567  0.6134548236692969  0.2530854110534471
  0.5405975897204898  0.5920422735161263  0.2684408847493646
  0.5582200538321742  0.6097749003741217  0.3146168952474595
  0.5830818197643634  0.6489339708233558  0.3018792683954768
  0.6279349040318026  0.6301798302411887  0.2937670973923244
  0.6533056677294488  0.6342356123345989  0.2464849035047986
  0.7011379375981922  0.6438685623853777  0.2608422627520243
  0.7100666637519095  0.6095405010628777  0.2964734553466931
  0.7611871399773670  0.5967906214174622  0.2940192713530768
  0.7792343448868271  0.6366364810378996  0.2658871212946540
  0.8621646148548522  0.6391903930443444  0.2691357806199339
  0.9032433904471883  0.6306311903849510  0.2498661521676460
  0.9429934244398906  0.6415868236930692  0.2704537592357912
  0.9840230086393025  0.6279008408940367  0.2513890712889018
  0.4948201432151486  0.3515721349471240  0.4052259439416311
  0.5813128522701189  0.3692843444923493  0.3977506040954292
  0.5925203398234962  0.3721573948801652  0.3479784295197386
  0.6396082369077694  0.3740701645699585  0.3352296963299161
  0.6763653167028086  0.3642927085998669  0.3650753029794372
  0.7869764983802957  0.3481472638373928  0.3836542888153461
  0.8192632179731291  0.3338288168630213  0.3463289312221529
  0.8671964288698836  0.3305612023746555  0.3579619776781802
  0.8901784684506949  0.3537834204423277  0.3907703419890551
  0.9356155390160429  0.3521859059703997  0.3931118946506958
  0.9585706843452647  0.3232894047373218  0.3667194994456909
  0.5299061276397288  0.3898339770376774  0.3982973443992438
  0.5260187858485266  0.4161325039964167  0.3503820289993215
  0.5756185532257313  0.4175165208980868  0.3349948536922902
  0.5972239891829817  0.4513048501909371  0.3658578748974449
  0.6302558648816724  0.4355844340266475  0.3961576477495293
  0.7172484496869157  0.3905823009196286  0.3518845463854329
  0.7625960130698333  0.3911032663809075  0.3801420597029690
  0.7109892598096148  0.4420976556011103  0.3527873117039227
  0.7937050811918830  0.4255712044770770  0.3545019187171009
  0.8186779506891018  0.4535845141127915  0.3869456126552298
  0.8884539611943508  0.4429338559093365  0.3483356334468780
  0.9353291958450132  0.4453581497715645  0.3514786959453609
  0.5141127861815508  0.4653453117801044  0.3381821679800197
  0.5649359879794684  0.4773690136757648  0.3987330016761191
  0.5411321180224623  0.5012209299317063  0.3623993517973259
  0.6325464205574169  0.5091144028883378  0.3900924869706802
  0.6173225586621175  0.4944065871982006  0.3455184518263121
  0.7071340483619254  0.4702244922477322  0.3970119630404973
  0.7570347371532045  0.4506928686191893  0.3335968927427261
  0.7699559440628743  0.5174530051242411  0.3768233195987790
  0.7641970196825888  0.4968920448223133  0.3309699744948550
  0.8642165222516589  0.4635018868854725  0.3836118250433370
  0.9573367272091522  0.4713742582553030  0.3851000644896042
  0.5112073658950271  0.5393118945103627  0.3695909339629080
  0.5322062506554290  0.5721192871733043  0.4023601878527832
  0.5781075898541155  0.5224314170106741  0.3334515786824859
  0.5932792314752674  0.5722757453228868  0.3361564557918092
  0.6124404124096980  0.5811271454762800  0.3842315891500384
  0.6530580900094205  0.5511684285949798  0.3956587418189497
  0.6937649596114133  0.5494636138547629  0.3656911079051131
  0.7236851808645877  0.5197801814237270  0.3936861461867653
  0.7873271295458254  0.5633985128687045  0.3749184426633924
  0.8302800830041083  0.5740257537883214  0.3371938398146835
  0.9099515661900113  0.5829441926841283  0.3492180363273056
  0.5189606656732845  0.6245389734127879  0.3434877456339130
  0.5284027188884157  0.6190862410677829  0.3911557350231164
  0.6176470085691600  0.6267650370366019  0.3988780570305685
  0.7016019952948126  0.5963295261135766  0.3696099897729891
  0.7011012583583222  0.6313567897638472  0.3388423786085137
  0.7860180592212822  0.5947690611009088  0.3376234813632344
  0.7865174524955685  0.6401157828898111  0.3564454967288817
  0.8093005105515981  0.6361106678735747  0.3996667756671742
  0.8603775168983159  0.6251344135811423  0.3962831036842615
  0.8661140485137896  0.5910716470778264  0.3620596481707662
  0.9445496944762208  0.6042958338178298  0.3706643697838891
  0.9418103211299378  0.6468711154285803  0.3937356244879364
  0.9867749260514241  0.5883057980167375  0.3685423175240554
  0.5221064267075108  0.3383642810318747  0.4823513994253015
  0.5749692412563081  0.3225501860329076  0.4191760773509099
  0.6132362025938466  0.3590331812160876  0.4863563648263622
  0.6025100052972612  0.3190349662642127  0.4590381991360314
  0.7052537220240731  0.3750895513252178  0.4368750672526723
  0.6657128241432058  0.3764107845635427  0.4101137575900503
  0.6943411062721375  0.3831769600821991  0.4854091315846741
  0.7291049434519999  0.3281535312419908  0.4326489771704095
  0.7704534816343223  0.3372796487709985  0.4611793530525420
  0.8100872599846949  0.3393359763927166  0.4292477033694548
  0.8378249695133047  0.3759224391749632  0.4449614734513952
  0.8784694009811027  0.3803074567200801  0.4280982964644265
  0.9523172025066556  0.3784407628784783  0.4283649009686921
  0.5142053932482340  0.3878905177157176  0.4847703182174053
  0.5260323016873750  0.4124802962310881  0.4408396319785362
  0.6222113098856542  0.3961313633556333  0.4203738851621073
  0.5863998764984830  0.4494412012879542  0.4757500430596787
  0.6187236453058927  0.4076495158001503  0.4691604135983179
  0.7706633154444641  0.3877311141060557  0.4706172514011983
  0.7465494797921857  0.4049770712227477  0.4271778572832442
  0.8162358477829657  0.4033669717170680  0.4745055961614947
  0.8279013130025284  0.4453840608436445  0.4949316070783664
  0.9112315432016985  0.4269570449728069  0.4882373458610508
  0.9151827397523213  0.3984596097214615  0.4510418389262756
  0.5474630868402913  0.4554558934385642  0.4430106222046616
  0.5244067312482589  0.4963241880560296  0.4612773468763719
  0.5918435012280376  0.5126536214913359  0.4199608793783290
  0.6061057778403369  0.4959435987967087  0.4663947799252492
  0.6546212006833134  0.4938131725907687  0.4573213128920892
  0.6590765286190844  0.4721156310232497  0.4115006826090468
  0.7273574870041514  0.4704099820369913  0.4798490660268417
  0.7418146101589627  0.4541067921043228  0.4311932724333974
  0.7898988525874543  0.4792789108972601  0.4156646833015283
  0.8172404997147275  0.4908522538063277  0.4592425046660776
  0.8626383675881270  0.5081110489602627  0.4522678947900180
  0.8863521282980974  0.4907422513329152  0.4161726799571097
  0.9329940371929432  0.4975376777167602  0.4152628411638346
  0.9552837979422520  0.5244483944959026  0.4469595827141591
  0.5027803052625324  0.5690225963673182  0.4434991635298268
  0.5347267131639881  0.5827906706902958  0.4804021724579630
  0.5787218700932891  0.5614569301839241  0.4169799861135676
  0.6596311411110735  0.5728973986801139  0.4866340936796302
  0.6706673085389033  0.5435828240979595  0.4465259983583668
  0.7403253171614745  0.5179607562258717  0.4793335898266263
  0.7206070131114297  0.5420361425239233  0.4393281941547790
  0.7899038468075841  0.5219861905065946  0.4887836931940440
  0.8097416459145184  0.5718302763118875  0.4544465675957018
  0.8801013653813732  0.5414204725496239  0.4864796332235219
  0.8547327866063775  0.5827146655299036  0.4737190814362457
  0.9301534015289100  0.5568447350258864  0.4761884871546290
  0.5811936099952596  0.5903833115878417  0.4593071483661980
  0.5936070801280977  0.6358216802168204  0.4396475517170607
  0.7045038871967145  0.6143019146754300  0.4099354536293535
  0.6819692925293410  0.6205221791228736  0.4886386607628924
  0.7336916376366739  0.6125597336112917  0.4808224056300983
  0.7368116007194002  0.5908888825780326  0.4358782116205118
  0.7687579188113262  0.6478046394376017  0.4800778765623590
  0.7869160592718308  0.5914696587631525  0.4170108572463455
  0.8765686739337033  0.6169653975587904  0.4466098452326263
  0.9229534204760815  0.6035886353343481  0.4547264381399465
  0.9538584477895197  0.6388133723453985  0.4418482210644724
  0.5484825835830012  0.3240332431791102  0.5198016169474811
  0.5810610863941802  0.3585865912697546  0.5281764539048415
  0.6128689093872770  0.3507641625870672  0.5646870618192681
  0.6937404468194999  0.3277798115330475  0.5770508669905015
  0.6625013699232646  0.3450718617711561  0.4994434557176812
  0.6581692214689906  0.3535182898226140  0.5486871336599407
  0.7345902328567513  0.3263577593573798  0.5521166096668445
  0.7612043920619825  0.3660460632342770  0.5519047820203254
  0.8226887152882917  0.3185413466777582  0.5193762227585581
  0.8107914580655325  0.3509934710061294  0.5501307709179789
  0.8433916377378631  0.3727450179079030  0.5744660260933317
  0.9011164560390916  0.3286831406977845  0.5371615352507548
  0.8878210111821023  0.3587039986370830  0.5710359966525211
  0.9471454872622049  0.3174824473291958  0.5332436227109048
  0.9791861569819789  0.3336753458722700  0.5643192738780057
  0.5246121708629291  0.3993429172481056  0.5681104958997930
  0.5468330260600763  0.3992703073673485  0.5251708362259003
  0.5678296579878909  0.4423509419781081  0.5199360817382939
  0.6564283376193734  0.4034093468961265  0.5452468706039895
  0.6608032684861108  0.4200290529993811  0.4970872452444023
  0.7408152352022972  0.3962542401220752  0.5095151341323355
  0.7461037468239834  0.4454694371516512  0.5192901654234283
  0.8740613178185020  0.4465263611293001  0.5118822266226103
  0.9501846282101652  0.4431397337262078  0.5082444138599841
  0.5823509503663533  0.4655896696853644  0.5566515387924029
  0.6074586469017703  0.5053352310008008  0.5458824616105228
  0.6597891205814334  0.4976070370964385  0.5357307252152784
  0.6759901148431456  0.4690858748801437  0.4929698181437704
  0.7278099108395026  0.4670256123336773  0.5626891654156992
  0.7470273604795772  0.5135606260395609  0.5576976402179986
  0.7952625380434589  0.4559130178247118  0.5322844202329482
  0.7928113082778534  0.5055992643351473  0.5359575676219320
  0.8901001419473850  0.4789930029225979  0.5493976281797898
  0.9669003187677828  0.4917427629310331  0.5717076132591064
  0.9377159673395293  0.4708261878316949  0.5437341425260354
  0.5025209333655515  0.5280625302797796  0.5308717719989343
  0.5394539822359071  0.5304975100444246  0.4969083747507713
  0.5904981135572411  0.5261893886065833  0.5034059245991642
  0.6099644100079773  0.5738599935344731  0.4960239087735314
  0.6778681181719300  0.5458214407675168  0.5285405741184376
  0.6723580150571918  0.5724295315011160  0.5711028737368098
  0.7252610985872142  0.5407996868687196  0.5213564616732188
  0.7494827530049100  0.5849161851715445  0.5165775074918412
  0.8281854613666877  0.5250980475240193  0.5651746567397052
  0.7928360438680114  0.5710114574623196  0.4995198066735225
  0.8744219958616855  0.5299839309708153  0.5396929943365940
  0.8895260439390601  0.5736477767677755  0.5638847234689440
  0.9556665148591164  0.5684551212383925  0.5169220315604768
  0.5205186365506075  0.6255466752159528  0.5572798401901993
  0.5251817958110627  0.6226803723196195  0.5096903532720843
  0.6052322091501774  0.5997053172636415  0.5374087924915800
  0.6194465485098474  0.6456775635010138  0.5421906775803340
  0.6711917919687586  0.6412338852208256  0.5344129892589033
  0.6961085114630061  0.6170640249924511  0.5696977901911078
  0.7470462096600432  0.6105742591237235  0.5592115341093896
  0.8297768306228747  0.6044790262753159  0.5147749896311590
  0.8461742099631547  0.6015588971502785  0.5614862358847963
  0.8176040945691067  0.6495026464171207  0.4972554793278008
  0.9232366702406495  0.6504966646128478  0.5421337655811246
  0.9322388751744474  0.5984738047375489  0.5488862814479560
  0.5049571046853562  0.3142193654894684  0.6553295346466540
  0.5796526935442704  0.3778580040324457  0.6353083000496093
  0.6097112886597612  0.3461560150789137  0.6131954258595503
  0.6599965995280219  0.3603594615724364  0.6327640595878038
  0.7111670770188414  0.3527517023203696  0.6158421727601180
  0.7422325296787062  0.3242172300076680  0.6448348591650872
  0.7884815557298192  0.3381502155216434  0.6369431143375019
  0.9199312101180406  0.3755938802686130  0.6007260883742299
  0.9640764058919603  0.3613409425465268  0.5982813677729443
  0.5117833957410471  0.4228035678162921  0.6389773146954546
  0.5506054230686562  0.4107774535715223  0.6099677763917610
  0.5774408029944775  0.4522481704149720  0.6009077915325318
  0.6636764122448749  0.4080262005783884  0.6238770801326964
  0.6913097473214288  0.4267017202794557  0.6549195907605257
  0.6631623113661876  0.4281433229009048  0.5821518476609895
  0.7493453883595065  0.3886525488026629  0.5961637004125261
  0.7510414066795732  0.4394359549972089  0.5962390198199613
  0.7339541748646112  0.4462239907702923  0.6437251488625342
  0.7890639107337839  0.3868874705741363  0.6317950230150416
  0.8280726423160653  0.4081948150658648  0.6046967605216097
  0.8012975849211893  0.4468904975342797  0.5831883507742724
  0.9073576307694787  0.4037828954221770  0.6356877035534009
  0.8671346209191176  0.4317632855671505  0.6311431728407729
  0.5980706793823131  0.4742963272733297  0.6371259472869153
  0.6267459961112187  0.5121872893790189  0.6267551591315520
  0.6802218084154441  0.4735259706354448  0.5753416371280629
  0.6777541470219048  0.5033034930298511  0.6161942025714423
  0.7189399669154116  0.4926725069673688  0.6536533569050519
  0.8070452308128616  0.5019316133239485  0.6485077314744960
  0.8261645506826666  0.4886848677263205  0.6013817339916820
  0.8746218961183723  0.4767531973981654  0.6020309872837727
  0.9035642466902725  0.5129534941185556  0.6241063491341720
  0.9492041876760073  0.5121682762413368  0.6087557037397467
  0.5080213200231235  0.5368312939619848  0.5767296329925475
  0.5505016831996928  0.5427438524236189  0.5992437729630954
  0.5494853117774436  0.5637669687836361  0.6401601601426272
  0.6000564742484961  0.5347212016269829  0.5861171852294688
  0.6218799004603989  0.5785269889746030  0.5786564213259840
  0.6935325187873749  0.5493859990702906  0.6084542656469208
  0.6765120451399860  0.5762963197098109  0.6496753132800140
  0.7593372223218203  0.5246818422351263  0.6439387678010475
  0.7435824837448458  0.5409180180229076  0.5994044227096408
  0.7703076900203032  0.5810240928929651  0.5921434811940813
  0.8442980277563307  0.5726156140497145  0.6351159441072904
  0.8190568397025029  0.5687662174104654  0.5883086132130638
  0.8913556771823355  0.5675521682901984  0.6154340136164702
  0.9800084865125579  0.5407920670237731  0.6297499832119320
  0.6154417953112379  0.6120966273532764  0.6162387392645343
  0.6000620478198472  0.6537637065208723  0.5900114180025726
  0.5913285753126418  0.5844614510545014  0.6559800978414826
  0.6590355081131608  0.6226993789606676  0.6386160762678822
  0.6968795741056698  0.6457194369805774  0.6128143718783087
  0.7721262957590721  0.6047854492549307  0.6349863161323378
  0.7480583390628862  0.6462191545996195  0.6241566526740681
  0.8186457677320981  0.6140814605188877  0.6519921808245570
  0.8469949142957890  0.6480017735953395  0.5836478384567088
  0.9166710362695515  0.6540883017476835  0.6340278471999143
  0.9280505363358648  0.6012337864057883  0.6311220342853384
  0.9601439239672571  0.6056303914223800  0.5923108834892411
  0.9820774046404664  0.6475923946560731  0.5909240927352754
  0.5872251914629182  0.3846518087914150  0.6807848876532723
  0.6202812838336494  0.3600790586476907  0.7038891682801015
  0.6546807442585829  0.3422603082411719  0.6770984120039293
  0.7187418657426501  0.3791038708875480  0.7149926014106136
  0.7317165400155773  0.3341376177757516  0.6930901532711442
  0.8108185575897489  0.3438793677246272  0.7346310824276142
  0.8593699002941741  0.3518555655909172  0.7089564582521681
  0.8658116033502447  0.3248557145310684  0.6671970471432699
  0.5212890182156384  0.4310837231421641  0.6818822815953313
  0.5699831536368554  0.4255320314183594  0.7004827563856570
  0.6882719336321279  0.4172878141809415  0.6994854259137541
  0.7602361966653493  0.4061176001612933  0.7163582699829292
  0.7727731521719152  0.4234611963471599  0.6689809905831273
  0.8621704330202673  0.4045548815943250  0.7103853001587805
  0.8505879380488652  0.4426059158553222  0.6788875590324134
  0.9777359730556048  0.3905346812888784  0.6718496906783790
  0.9343005860029536  0.4073972324229292  0.6739271767723088
  0.9117023826281846  0.4265807774038056  0.7123315798449585
  0.6124102950422234  0.4918386432328769  0.7143186138800727
  0.5958957232931383  0.4643083100605259  0.6815509187744557
  0.6989467283192611  0.4585642981612530  0.7275306498440559
  0.7040879487681122  0.4991191815641985  0.6993567214202316
  0.7844544483970519  0.4764542500802080  0.7305470971438836
  0.8037189956190556  0.4621523067388010  0.6799911782872348
  0.8829278937260648  0.4735124652290658  0.7050300182454937
  0.8927220456532957  0.5134367385525398  0.6746455503571269
  0.9692454803311226  0.5179019066926549  0.7194905618061487
  0.5096731148996787  0.5672035464888182  0.6636609843505749
  0.5119923035575557  0.5773244297203375  0.7085591221798933
  0.5535044392445244  0.5855305902261354  0.7310389721715169
  0.6332382595215693  0.5318284447078623  0.7078319886205147
  0.6319864654261954  0.5494758639770607  0.6621052718142733
  0.7069084412342819  0.5449343025912963  0.7177960290524305
  0.7582986813174433  0.5699551881366280  0.6675931093351322
  0.7126308339930962  0.5809277776286308  0.6836448081254224
  0.8275227090179266  0.5493630411948334  0.7144479929735050
  0.8432613017031921  0.5350149700220439  0.6701645695758331
  0.7865253511437502  0.5745897884975721  0.7099003381428469
  0.9113703799950572  0.5728832058219515  0.7266895187241459
  0.9321223758148184  0.5430095107659675  0.6958136375488608
  0.9567868568800364  0.5728570614904438  0.6632808931478457
  0.5870807423216455  0.6023021439759116  0.7024293078766531
  0.6251426532849345  0.6284207656276979  0.7190038281467620
  0.6436668420170506  0.6509137173122115  0.6775771716303984
  0.7192226010977733  0.6288751165196813  0.7064816328112064
  0.8069699736531313  0.6206276379043301  0.7016389158392997
  0.8503955604923490  0.6325562223439687  0.7291221947697556
  0.8951993087386023  0.6140181584711237  0.7129639746888111
  0.9326945055217772  0.6383467669031353  0.7283340131932725
  0.5255722192574040  0.3234675602835681  0.8202790696771116
  0.6220180700696126  0.3554496226643258  0.7514560855740406
  0.6973496914934293  0.3708419417431109  0.7607112099189067
  0.6631644161624839  0.3335478089498353  0.7693219014137580
  0.7330889571666430  0.3553746904484081  0.7936874055180883
  0.7700234935946307  0.3883734177461877  0.7930809598474755
  0.8299763201611118  0.3255929421307346  0.7765203638434717
  0.8017475341577690  0.3225632359333505  0.8146096534387108
  0.8710949171739135  0.3535599612107928  0.7893116164761698
  0.8898206819182787  0.3310965901378085  0.7466940356874969
  0.9609119297720667  0.3846676568317007  0.8183051084713228
  0.9329265817397039  0.3443467940088445  0.8338372932862077
  0.5269896886679331  0.4333119316740902  0.8169527681593665
  0.5343508865321804  0.4349879871199157  0.7714644667504688
  0.6132107691470586  0.3950638418392340  0.7778564580867199
  0.5807516632288398  0.4294667645053812  0.7525191928119325
  0.6675156404156727  0.4090719406006089  0.7813465891399068
  0.6661895315660754  0.4569628403783580  0.7665479334845189
  0.7462079982123858  0.4468588004448933  0.7444082947067658
  0.7556925930946580  0.4362516720576706  0.7962052907368049
  0.7941391224344404  0.3871159247046869  0.7473712979748829
  0.8352625260729202  0.4149823038552867  0.7513131227892151
  0.8622508424971121  0.4017764812417295  0.7905409700200551
  0.9055261143160674  0.4327349494257643  0.7930870705437483
  0.9695838794240647  0.3964846715841998  0.7696242466142300
  0.9336432841235280  0.4210012685902576  0.7542093177429373
  0.6140795460248373  0.4703365446917765  0.7567235090359329
  0.5997278712695421  0.4960592993864478  0.7947060219094838
  0.6793763357910888  0.4898290854072688  0.7993676448278617
  0.7686177155673951  0.5155081615814902  0.7574249193802939
  0.7950801255707567  0.4661318436953939  0.8047396771224108
  0.8211962976660667  0.4614923762487912  0.7593145817953786
  0.7797335378333828  0.5146240497709573  0.8053071728351091
  0.8897728280448961  0.4799363975611876  0.7946453013680638
  0.8619257808652522  0.4884560092515519  0.7532737786579426
  0.9667486038006370  0.5118291372355496  0.7656740973679979
  0.5146757803741168  0.5701666350977992  0.8000318277364088
  0.5548331697401987  0.5823025039193319  0.7792459734383806
  0.6226007089209568  0.5364633364292096  0.8082406934673506
  0.5962417998276408  0.5836284247756259  0.8069515723362871
  0.6686514173323748  0.5359052808871922  0.7891907779485891
  0.6640055351144876  0.5527758867104192  0.7421211030087523
  0.7080190060277675  0.5616543648061558  0.8117407797813464
  0.7507613896533227  0.5552112285783407  0.7418871052583925
  0.7355880814271021  0.5860816660362882  0.7768541630834398
  0.8229856214401201  0.5453322559626709  0.8057240100843960
  0.8494473880923800  0.5374666538863587  0.7590858924258646
  0.8958006187578526  0.5601484282415439  0.7692831774140659
  0.9249216545993855  0.5203019611440158  0.7911456243986735
  0.6308675262085720  0.6186770579619610  0.7930572735312156
  0.6574667821974873  0.6031173299329856  0.7513690097895319
  0.7050520340787605  0.6214293415140848  0.7542539133816526
  0.7727768197720992  0.6106752887786493  0.7932306522576175
  0.8150504262300913  0.5966806825222912  0.8085188971603612
  0.8498817981259575  0.6254170992944742  0.7809793972043902
  0.8947766563698737  0.6076919985575645  0.7941397116587634
  0.9327357268756529  0.6401319667289153  0.7776536425710382
  0.9733881668817774  0.6210089322829314  0.7995699822290441
  0.5274416266014114  0.3169390054060166  0.8960960633157919
  0.5859081424604579  0.3852304843199617  0.8998144449210758
  0.5946983836858599  0.3586382717563743  0.8590635213806516
  0.6320113960542197  0.3241079479655554  0.8578780463037324
  0.6585867857588186  0.3213505222564941  0.9064388915972127
  0.7044864408316017  0.3563643938654973  0.8338734073046944
  0.7320494335323643  0.3450125171199180  0.8743698789635049
  0.7722366848437885  0.3751665320756746  0.8750275844030124
  0.7973099775023954  0.3726372734216439  0.8315977656740733
  0.8687425122339829  0.3880501629943837  0.8693383100391037
  0.8856822736249811  0.3463711571176177  0.8394603324181695
  0.5626507451158579  0.4263637484539658  0.8896280484993840
  0.6021449279231256  0.3972531029239351  0.8280309594641173
  0.5669807662296834  0.4304410449723602  0.8403113696775357
  0.6438208943493554  0.4156002637564015  0.8516926069807231
  0.6852775554067838  0.4043258983238469  0.8296113833155714
  0.6486353106287254  0.4402853230307294  0.8917572004320576
  0.7250898389765912  0.4375471174254185  0.8367845384243867
  0.7555875559785896  0.4251075743846384  0.8798330673895914
  0.8367437843580257  0.4043887600938708  0.8346605409589871
  0.7974347874302991  0.4540615625760718  0.8861780987126853
  0.8222515582637860  0.4526071765904467  0.8423989321982778
  0.9084596870352747  0.4226644175539186  0.8739033309053107
  0.9318900063326797  0.4213754443096647  0.8318232457818792
  0.5746404045860167  0.4723450375893907  0.9027119137552106
  0.5773237169639964  0.4776735151298659  0.8297001586988826
  0.5752928353154031  0.5047709284685951  0.8680975472423703
  0.6765106854428921  0.4819782152193851  0.8872566759019128
  0.7039710294372111  0.4823157578949864  0.8402860459828532
  0.8628711316708225  0.4821455164954809  0.8412064458669534
  0.8868015607965767  0.4662401236899286  0.8815630624851842
  0.9698781189590492  0.5082006832849792  0.8582043921971213
  0.9716138051300652  0.5042801166332275  0.9040444090406862
  0.5110012924966202  0.5602456983694427  0.8457137851660927
  0.5486942086983714  0.5523283575485918  0.8745713027075275
  0.5906991381691693  0.5773190000545303  0.8593921203067498
  0.6164624576832275  0.5341870471487890  0.8587926826157855
  0.6515307573503886  0.5276836565650650  0.8920693764525782
  0.6865812738149973  0.5623744128006202  0.8888716451633248
  0.7358596743846103  0.5241723039288350  0.8354486701393607
  0.7337729457045342  0.5435041583470241  0.8820390975139585
  0.7602306801736698  0.5824054089823137  0.8846971063033161
  0.8229629360327561  0.5335396567712246  0.8893433706120909
  0.8056499270864670  0.5805832292470099  0.8915614911387296
  0.8502203508138736  0.5288999681243570  0.8469958819437237
  0.8962177118074713  0.5513520444118479  0.8584166881338693
  0.9038024805213264  0.5503157772393902  0.9094000675510103
  0.9343757567706942  0.5286638295141954  0.8369803590594475
  0.4958221223499178  0.6601792129283133  0.8679460602654773
  0.5417580003807595  0.6560880810785958  0.8680452591998261
  0.5684277370410563  0.6404528900636491  0.9058607300014702
  0.6080801513180030  0.6114347752359872  0.8924411366738937
  0.6382583366497531  0.6451041254709987  0.8730839212475536
  0.6631861052291705  0.6305793356549186  0.8332084286302340
  0.6939365664676623  0.5945575560883980  0.8492152174051518
  0.7322157772356364  0.6190343231150911  0.8760560610872683
  0.8192580550286630  0.6124840886225056  0.8584366117545144
  0.8646676544565681  0.6322498413734765  0.8666949033905179
  0.8973461619198418  0.6026587220730927  0.8429101020932419
  0.9366005260701481  0.6145698626819861  0.8682531047420218
  0.9764983268483912  0.6115647434848310  0.8462827708931554
  0.5870362365119977  0.3817843686796081  0.9827673400347027
  0.6122463235717932  0.3808039143852138  0.9394450086496869
  0.6352815045525355  0.3383109238203961  0.9448906280053001
  0.7015853723308855  0.3532011649863042  0.9131718768142204
  0.6551066443371739  0.3397729760194558  0.9900571845541760
  0.7295447922313293  0.3411493489832340  0.9546924271588439
  0.7716177051707207  0.3697820562822946  0.9559070311978993
  0.8020557191395271  0.3612805000109112  0.9138277320161106
  0.8437054669168680  0.3880787830180668  0.9153289427742407
  0.9088764202025170  0.3231613161961401  0.9298089121925003
  0.8950584992144316  0.3411957559617079  0.9720979824735096
  0.8695751810799087  0.3843505435714759  0.9602228266944174
  0.9878723392223434  0.3769904006827586  0.9606942148432285
  0.5167589061899582  0.4272199462929641  0.9587822415097588
  0.5186344072433507  0.4280355374628355  0.9118662148863328
  0.6485985870338301  0.4467101961430048  0.9781607363060776
  0.6491564446263063  0.4172534708571494  0.9362488230456644
  0.6917987825707349  0.4004526293800033  0.9225353268407624
  0.7607776679520170  0.4197779636304647  0.9622520166743972
  0.7294330491948742  0.4314615726048140  0.9230740374407931
  0.8289584514576082  0.4351843113409075  0.9219380930611546
  0.8046258146591994  0.4442281325448300  0.9652492346020310
  0.8998135692156086  0.4284669513022498  0.9524891445554701
  0.9303193482024289  0.4147524297562320  0.9159799382369730
  0.9686607750428347  0.3916051961062358  0.9202361921045352
  0.5954276411411358  0.4614005485742197  0.9818599180119791
  0.5812406131190724  0.4867396382995618  0.9440788354319645
  0.6855179717247659  0.4829786729215180  0.9710677767176397
  0.7098316646957387  0.4787115149858530  0.9257344630007023
  0.7443126230007546  0.5162744824040276  0.9193467877939729
  0.7905579107930167  0.4995292515825340  0.9091144432589890
  0.8023084807981077  0.4929536125311227  0.9600858206922930
  0.8684738366398930  0.4636113308570336  0.9283870913645635
  0.8504119645549690  0.5072355598337758  0.9598783615714050
  0.9217020925750777  0.4560125930455412  0.9857103017909283
  0.9367835860044248  0.5198400608460991  0.9296077930008644
  0.9366528226139151  0.5033549678879673  0.9753701489858499
  0.4956537512947801  0.5473147132325438  0.9416603325339800
  0.5418109380692901  0.5600791578149947  0.9252355734439069
  0.5800578401131572  0.5335963653690046  0.9499497605580658
  0.6284440997327260  0.5415155153267872  0.9368330069192448
  0.6598316619441033  0.5270269259815813  0.9755322854720030
  0.6972323985903089  0.5610469945521587  0.9756377162686279
  0.7438517181390394  0.5469925023489409  0.9621040598853831
  0.8572290960549745  0.5431355349951102  0.9273098404518582
  0.4990973096717923  0.6372480737780251  0.9427247496746097
  0.5424295601231183  0.6121977529888160  0.9366068030901761
  0.4990650337887536  0.6550388823339425  0.9848094358314087
  0.5661834342546065  0.6170945650034736  0.9803787258424425
  0.6177297624775436  0.6229470900130578  0.9748251574021906
  0.6330933634756190  0.5920811139378611  0.9363821580453656
  0.6836080120967942  0.5886073286950280  0.9332734968675396
  0.7089551051017289  0.6293685795720756  0.9229878622144168
  0.7411940598469459  0.6351520714042068  0.9645536369510698
  0.7654206638570054  0.5923504571852495  0.9771951251289752
  0.8268464415123848  0.6494235264752755  0.9792446153266372
  0.8374370331291139  0.5896050763162718  0.9322197816322793
  0.8170476197310378  0.5989611788820209  0.9767961287549799
  0.8724440438691340  0.6247345277380201  0.9156964720097125
  0.9131389525600624  0.6422237054356419  0.9776964478301066
  0.9190053715074766  0.6020365251731119  0.9130977199454653
  0.9888910511168584  0.6017992050763646  0.9535695654328012
  0.9435874655054726  0.6167321859255123  0.9509730893245613
  0.4906831424079782  0.7153611714738686  0.0683867727373376
  0.5354085835260703  0.7080491769068311  0.0609159782536366
  0.5582660646164953  0.6701412434301252  0.0436850424707414
  0.5463654817413546  0.6604591767110731  0.9964147680202566
  0.6094477658859830  0.6754411686691377  0.0416340609488122
  0.6175844794848733  0.7172540023005325  0.0137980161399359
  0.6510700614094438  0.6981372986687041  0.9858788437014702
  0.7014650907794490  0.7143104913656213  0.0568424787413235
  0.6947605287957440  0.6955034902630540  0.0060307457697087
  0.7534736625860089  0.6617888396637522  0.0436596608128628
  0.7861663649563724  0.6997131319646448  0.0283811920417285
  0.8301680081357684  0.6721759584104638  0.0249580000639773
  0.8671420793694123  0.7074797151811862  0.0332701839476606
  0.9120547306699243  0.6886618878623619  0.0450838027884513
  0.9484852050621806  0.7130254255152789  0.0712765108529885
  0.5159535352262629  0.7958485980546517  0.0359079390208833
  0.5026458511064473  0.7850472862576598  0.9924460116056311
  0.5908111044009206  0.7697985146745696  0.0702328255429930
  0.6323728995414398  0.7533665211400187  0.0444443731119443
  0.6586068661504043  0.7858155653193328  0.0124843329898845
  0.7275871345541404  0.7551464662819942  0.0560567283443222
  0.8453754545623876  0.7322129416646106  0.0744376775172133
  0.8181303411212970  0.7849737199368242  0.0262910515014078
  0.7997980067327582  0.7434384990702775  0.0558215965456669
  0.9156332916695168  0.7860660474721926  0.0338155937177691
  0.9316700972831954  0.7606356892166718  0.0719109959741352
  0.5633937446428081  0.8062105867592207  0.0442358745832338
  0.5660540860826783  0.8459625707625466  0.0759824674295341
  0.5882621703498015  0.8210088307758332  0.0006187791580851
  0.6375232615974301  0.8309458499019547  0.0135072271961467
  0.6495588635251421  0.8483891543104806  0.0615422411152968
  0.7058983915278990  0.7922710207629613  0.0338143306440540
  0.6950658102035167  0.8244898897389188  0.0728332719664319
  0.7370030528204583  0.8146010047801803  0.0010106010801680
  0.7787327571660835  0.8412390007662643  0.0654440303898205
  0.7841780115938906  0.8226693433017868  0.0195730710565261
  0.8636288114411075  0.8036728835110593  0.0495083195572722
  0.9491656517705801  0.8236639456775652  0.0290106323017128
  0.5313228083594606  0.8765228066000293  0.0090546950462547
  0.5504127342175568  0.8886248181139476  0.0527037405055714
  0.5885855492348883  0.9154196710646456  0.0471128332877728
  0.6555749479055187  0.9102670970994955  0.0049166035749794
  0.6668447118714624  0.8959086954637012  0.0539917505116374
  0.7145547065602964  0.8901839326417739  0.0418375474621714
  0.7139689007898218  0.8623960025088131  0.9959484328212574
  0.7322237516647020  0.8595874429323146  0.0747008526961107
  0.8132966576880502  0.8782314018657911  0.0601186001775056
  0.8064432652067391  0.9048021928866147  0.0181502416362286
  0.8624165766543487  0.8549976789355413  0.0518697418060698
  0.8820333303499143  0.8659318661169314  0.0034843449835603
  0.8824260864870052  0.9146950684465184  0.9953616356917148
  0.9542350981298489  0.8503058928095686  0.0704815577343012
  0.9388695267816553  0.9193232316615498  0.0581908189377937
  0.9797470360213255  0.8906409839450694  0.0585482150931599
  0.5176924474695177  0.9738660680577244  0.0142817443257330
  0.5119403346818693  0.9655128703547968  0.0628065140463718
  0.6064010767876247  0.9773390168521942  0.0048953065868088
  0.6103771111548240  0.9263495101264004  0.0066267720482250
  0.6966605002482709  0.9727968458829226  0.0241415705004443
  0.7300829075848211  0.9384746719888343  0.0411048012970362
  0.7678914513747140  0.9398879697741899  0.0093443817068898
  0.7871384119060558  0.9860384323788960  0.0184997071164579
  0.8297386555605226  0.9767104520119195  0.9932546898852070
  0.8475227739219865  0.9371304411410876  0.0196679379787825
  0.8693390364620469  0.9517107727612885  0.0673614453867395
  0.9255814783856859  0.9805041339316267  0.0141025544123193
  0.9267885382816718  0.9306557027214706  0.0124095111162569
  0.5041339682963418  0.7204009749202928  0.1566875773041661
  0.5240222149613789  0.6713000146936444  0.1594509556521957
  0.5646929319578046  0.6565025198454993  0.1261896485879148
  0.5911234009177183  0.6994494072133997  0.1177194536585090
  0.6297066671708569  0.6864953837506328  0.0867323024676688
  0.7241195534598190  0.6758442823051872  0.0804467790435354
  0.7493957122304087  0.6831309943355560  0.1234960628401930
  0.8280651340037765  0.6597999846579747  0.1044540502921255
  0.8480061523158321  0.7014388780746166  0.1109662520575943
  0.7870796791503751  0.6505769848562719  0.1244232188751402
  0.8658864872258638  0.7202062917557519  0.1528119114199465
  0.9503834064633165  0.7105185288113965  0.1212400278337543
  0.4858224350252084  0.7558188684434001  0.0981350709696365
  0.5287980132467663  0.7532517091392917  0.1233327533361381
  0.5623494699738069  0.7317046358076310  0.0921581406545597
  0.6309609451373758  0.7658403269045840  0.1453060842424690
  0.6598680885987961  0.7287719563568218  0.0786960494975028
  0.7073440388655082  0.7401942690948872  0.1523560963773118
  0.6729007744600790  0.7579599976522493  0.1202751914641215
  0.7556235788946432  0.7316826636412492  0.1319248000028924
  0.7644378464259701  0.7607545337744789  0.0896719524622971
  0.8615979420014753  0.7784449561825908  0.0919598901499199
  0.9075477157581829  0.7742172282078913  0.1126438765867705
  0.9165716342065776  0.7364130522884949  0.1456696120525518
  0.5537488501170112  0.7962106693296436  0.1359132033212096
  0.5391003003490206  0.8394280358616384  0.1168226300588388
  0.6012969703681876  0.7922322720760494  0.1138466374676959
  0.6132216093665468  0.8402215410119690  0.0976360962691631
  0.6931967940836679  0.8016328720011269  0.1141807893989763
  0.7151661969915206  0.8170828374996104  0.1555765914838219
  0.7597348873099109  0.8379405552557807  0.1422877372561956
  0.7828182597205985  0.8071575390640451  0.1049575890212137
  0.8286411615840611  0.7969779970105828  0.1251476825252630
  0.8394129475948376  0.8400962220004743  0.1512666581295321
  0.9194426445510950  0.8154477101451986  0.1408681324562158
  0.5627907110547924  0.8736395770186592  0.1483716885898213
  0.5182897807543975  0.9150862041969271  0.0825505083838699
  0.5420235444964359  0.9167570818379193  0.1298917166644996
  0.6156657804200606  0.8654536543512616  0.1410200182984926
  0.6490024702887545  0.9032692991079161  0.1369026065892179
  0.6973668140614347  0.8912368519597214  0.1505587048209947
  0.7368183700965641  0.8776992008943716  0.1202388089155735
  0.7628890316015985  0.9175554831774043  0.1175988037569227
  0.8113417837404465  0.9091013127287295  0.1009371900186182
  0.8480504254725006  0.8839826822592401  0.1295615772927814
  0.8842651156349366  0.8760326535643869  0.0942970408834095
  0.9025698439246196  0.9221847585660226  0.0895489512852960
  0.9895918176888613  0.8987347906777756  0.1356827930669735
  0.9260948211097908  0.8548178860906026  0.1126491816928594
  0.9444808783450843  0.8905242010175388  0.1482620461284180
  0.5494661678633341  0.9872683416328455  0.0908655076742556
  0.5753987434355345  0.9515453278851056  0.1165029270097099
  0.6058865427441138  0.9330248116380990  0.0848873499803132
  0.5964217841437524  0.9661937846981284  0.1586461435505509
  0.6522080224024254  0.9261330885161729  0.0929911824701111
  0.6799493367845926  0.9680710537417997  0.0990149869997160
  0.7329165177411817  0.9532094981394160  0.0900737336895135
  0.7772219422283085  0.9834505651637445  0.1473754502493261
  0.8281372098407432  0.9561172675218532  0.0934913766900336
  0.8268153529442828  0.9794648598172068  0.1389975926562519
  0.9125063476375650  0.9285174269668219  0.1433074356272528
  0.9815453536144573  0.9947021268650323  0.0915440238660375
  0.5485799645519643  0.7175499041464314  0.2209682195420843
  0.5421171183572440  0.6704457326298480  0.2066839440257956
  0.6267572926370816  0.6644162752363654  0.2171501857761042
  0.6284280066542144  0.7110091747930116  0.2329488123398395
  0.6118680096848743  0.7189358098742479  0.1588312010422891
  0.6442573248714035  0.6797876051536383  0.1720356965511611
  0.6884132215425832  0.7017133727262183  0.1771676249837371
  0.7234560102191131  0.6678923420997073  0.1644358943314539
  0.7490856510038216  0.6754902361608164  0.2029047364319212
  0.7835254522033422  0.7066519580207068  0.2087553590480106
  0.8220190319311512  0.6787098320801119  0.2113200998151413
  0.8798730685080246  0.7202129190528295  0.2299898913836053
  0.8619037373396341  0.6960491511469618  0.1945847329856007
  0.5070491386794613  0.7421529602799933  0.2020786734506822
  0.5921039667068250  0.7336014706219898  0.2052704371505369
  0.5905750738915447  0.7839110402792413  0.2104698969638193
  0.6743851225378233  0.7296190323850988  0.2218421178789854
  0.6737333684984514  0.7793074882662797  0.2166620770463182
  0.7156290174574775  0.7786570817341241  0.1857450888307849
  0.7627228384754439  0.7739050017135238  0.2029084735844328
  0.7869163980012941  0.7424704766688038  0.1717412215738148
  0.8340890506213999  0.7618163687530179  0.1629806755683577
  0.8632570352831108  0.7875431801196791  0.2011063365779716
  0.9042809535803740  0.7609139364446871  0.2197129587418468
  0.9408353067176751  0.7578775134726998  0.1857741581923467
  0.9816511450557149  0.7411832399899047  0.2038356201225850
  0.5115480794321550  0.7923810421834595  0.2054058860057816
  0.5536519779125364  0.8056286241447678  0.1843555102763170
  0.5514557623678809  0.8565023217470417  0.1967380300279681
  0.6341825753919733  0.7948528573971972  0.1891731327865205
  0.5802457490309632  0.8548168976667042  0.2431283278424484
  0.6381784795855225  0.8438919918699699  0.1822779842303536
  0.6889118525549887  0.8525047248973847  0.1783865346730924
  0.7489893154361035  0.8377970141110322  0.2413770412602765
  0.7855225417409414  0.8154058483056522  0.2141818826415091
  0.8302262259290601  0.8014062428288210  0.2384075395646761
  0.7975158123645761  0.8478859972853686  0.1784470096077491
  0.8812173782531044  0.8272213114786666  0.1777251674004807
  0.9612448777218794  0.8043799417462417  0.1657051573370093
  0.9776171198421175  0.8391701863626908  0.2016197644177803
  0.5044662937758820  0.8689272035757505  0.2118318480321643
  0.6260992963652388  0.8676653165595868  0.2264911041656499
  0.6272086197999579  0.9176979625575853  0.2194606505160638
  0.7065399523616602  0.8629887123283767  0.2240517260026812
  0.7122647828138785  0.9124559588652665  0.2284288616246144
  0.8091043406596499  0.8877724662094126  0.2120913581032008
  0.8608718554527905  0.8951377841258196  0.2140672690992151
  0.8977941027148126  0.8616694680636923  0.2144327555413669
  0.8677844887488866  0.9148864091558616  0.1654546204272038
  0.9449323930501382  0.8777811999152565  0.1998053306993662
  0.9684013428061468  0.9140529840922338  0.2301425788863577
  0.5180863523658248  0.9393772371108947  0.1676039848140761
  0.5572031474357457  0.9639003876133899  0.1976751901176011
  0.5896500170768721  0.9513561771101917  0.2361391292521201
  0.6345765701237933  0.9356501675278637  0.1722282398095714
  0.6685906715641449  0.9807372158649074  0.2229853394232848
  0.6760505965645885  0.9643949718923959  0.1769810110000705
  0.6686168948885931  0.9348793401911725  0.2431951269875242
  0.7150782932902134  0.9304851142565982  0.1798347222057667
  0.7618620586619708  0.9394101037944805  0.1625362930293446
  0.7904998278715074  0.9781142597528715  0.2286473367000532
  0.7981012283144442  0.9356303501002737  0.1976524999823734
  0.8413553034975253  0.9535440474312530  0.1774499208129012
  0.9135771938706063  0.9794417058985795  0.2153023754084500
  0.8640114792025041  0.9710765380297851  0.2203999483669652
  0.9790049598503276  0.9805289617327749  0.1736987110801489
  0.9294976540779875  0.9725377309313099  0.1648471959317701
  0.5445098738269849  0.7242421317285994  0.2695571756757977
  0.5614909789413488  0.6933293565725996  0.3067237478415175
  0.6244644165868034  0.7103989619990922  0.2783734000795607
  0.6602810490258531  0.6994520402832162  0.3079351442562432
  0.7028708336024446  0.6892544571005218  0.2839225629894290
  0.7413658315033173  0.6937361747798736  0.3155580800132550
  0.7816645678300362  0.6765159456098299  0.2943306722386522
  0.8588923405351490  0.6621637716794773  0.3089392731233565
  0.9397510796282209  0.6662331624091885  0.3089598585723599
  0.5072536128147337  0.7559345701804335  0.2773965882516214
  0.5864691840958346  0.7328700861259646  0.2909058015222995
  0.5946810354350016  0.7810058183916135  0.2954600130711126
  0.6446709712763904  0.7880193029947897  0.3023224084917428
  0.7065795002884735  0.7266073610064502  0.2568791215629609
  0.7368489207430875  0.7590036470205160  0.2778040482346827
  0.7723707574586302  0.7461041346430068  0.2440537443265595
  0.8136451812795615  0.7620668001479953  0.2656828527693602
  0.8094377094944264  0.7816438453447074  0.3154146721889742
  0.8533304127151923  0.7335428023044932  0.2676839021088195
  0.8834899893029611  0.7566751439104480  0.2980826613635336
  0.9216558507911232  0.7706909202948641  0.2663706312834025
  0.9726173159994469  0.7384525139191805  0.3198749548696291
  0.9621215039921485  0.7472163592115106  0.2741246549019684
  0.5207758187342350  0.7998711989859959  0.2575426970041132
  0.5738874252151389  0.8056762722566485  0.2564548617498091
  0.6742372072315183  0.8057934946124253  0.2633180136392705
  0.6669199178344095  0.8540000247514397  0.2551719096056902
  0.7253949320956257  0.8082793158992467  0.2772561437548097
  0.7390643175101063  0.8380759291074168  0.3177417880850635
  0.8135435751768131  0.8583808697838887  0.2936645706500697
  0.8528320069531106  0.8286598261045686  0.2764439487138578
  0.8574934102573073  0.7955297444501620  0.3159346174498559
  0.8994093027279557  0.8480861697917601  0.2632634368691673
  0.9392692422476712  0.8164881484898768  0.2736881524103515
  0.9841477834104239  0.8178891516780098  0.2456055978893950
  0.9548276010299330  0.8271313037566075  0.3213426170537850
  0.5097197784589778  0.8789212790864661  0.2653474845933876
  0.5589648725766814  0.8840340849211966  0.2802669820511132
  0.6753803114443818  0.8812814159767645  0.2965113835804719
  0.7258780854961875  0.8870685103786591  0.3059174270593942
  0.7826872175548822  0.8747656165486525  0.2548557960175392
  0.7491747127651490  0.9105904448385455  0.2661653855706662
  0.8293489501900259  0.8978562464694492  0.3190560423199611
  0.9096930678228442  0.8866012869539357  0.2958679983251719
  0.9566397735061722  0.8787008547843523  0.3118511282917872
  0.9905772298192291  0.8901232784586322  0.2729952171367054
  0.5369273817858499  0.9597910203308551  0.3147831261620959
  0.5733343552360454  0.9347861797054060  0.2842731672990987
  0.6148029252582163  0.9346141006795753  0.3154791419995061
  0.6603543581220450  0.9279738440904370  0.2902381463890697
  0.6885989751439293  0.9638580995581446  0.3078714852755061
  0.7745628572174293  0.9534649658592745  0.2743104416820561
  0.7379763275546242  0.9799084798871672  0.2991886993537606
  0.8236965978731460  0.9383515346049446  0.2903697438027890
  0.8428353392094229  0.9756885384239958  0.3173058763595815
  0.8610359584402255  0.9321205206014871  0.2513935360923843
  0.9030164205026983  0.9334348922077602  0.2790346962899489
  0.8928240003045007  0.9621769136806044  0.3223897264495376
  0.9723421916561665  0.9792925823047361  0.2810745341418102
  0.9399667043643077  0.9511740177991420  0.2507651315397474
  0.9928129717145694  0.9514689514771346  0.3211461666829830
  0.5001989248377804  0.6702769634094147  0.3418527381353664
  0.5386226695276167  0.7015979405435341  0.3491446719497070
  0.5704020967343311  0.6887829693978598  0.3835727309961213
  0.6148765157395567  0.7080204383139171  0.3912774773835863
  0.6564569122300619  0.6559581594837286  0.3333138555086124
  0.6432834962098688  0.6638385924318861  0.3815878157286859
  0.7227012393903129  0.6913223081378645  0.3974000250013872
  0.7379980192239937  0.6647748738271186  0.3548696280641990
  0.8155951979009035  0.6734330375691026  0.3284705294319326
  0.8173645184287627  0.7100526273756429  0.3638350182972033
  0.8978544881077096  0.6779487759657956  0.3322305986918533
  0.8946232939168227  0.6628069812283561  0.3845601520538114
  0.8829982872469551  0.7042397026117480  0.4104404047610690
  0.9783753674032590  0.6875116090623300  0.3289774650662961
  0.9737778749827353  0.6846200379951576  0.3785861899783388
  0.5291396995726375  0.7504080329623685  0.3559484574097037
  0.5124406474948157  0.7607195372378123  0.4053963066169787
  0.5755205504710628  0.7755584053663821  0.3432079471343190
  0.6216892500885585  0.7531244892350595  0.3658577078848458
  0.6587221655685536  0.7449515189475810  0.3300880038823309
  0.7058067136900550  0.7386872750628336  0.3979789725387725
  0.7026424924071730  0.7559633331947198  0.3533866838997502
  0.7440845793200230  0.7424606051036887  0.3262162830976825
  0.7897586891792049  0.7515067027649708  0.3495514032993702
  0.7969588529391302  0.7793452252877956  0.3917509450029939
  0.8505596424243179  0.7769691547766088  0.3952253670475954
  0.8617556281715927  0.7320020270735682  0.3751994855705876
  0.8945365016638511  0.7296328993873391  0.3381909148555527
  0.9551063287734702  0.7300260028443630  0.3930346988075885
  0.9358025585725995  0.7513603526484268  0.3533875189627457
  0.5689203119057953  0.8218286365999262  0.3551366353635565
  0.5572848239689030  0.8288029091047938  0.4024365126105697
  0.6437424736595261  0.7956473753246667  0.3859460357001310
  0.6506043753659912  0.8186243135321334  0.3411035883857189
  0.6892459133450288  0.8013149963575950  0.3650371160398677
  0.7183304861678704  0.8378698113418377  0.3667373108481710
  0.7488689318096370  0.8445373549416850  0.4051669393727977
  0.7874379399095989  0.8272135516556763  0.3257986166799624
  0.7914753476715232  0.8284779231303949  0.3810508767721084
  0.8768607595915617  0.8082283200202468  0.3608003698988312
  0.8753009406767577  0.8558449580796499  0.3724559958033048
  0.9271285363860854  0.8015125873910979  0.3586284660155460
  0.9464247774720037  0.8242700009713191  0.3999716850022558
  0.5141626341562697  0.8567677307266989  0.3962792623944822
  0.5298057474508039  0.8851897218465816  0.3574071618239858
  0.5673121911142156  0.8666995746470382  0.3306484031969461
  0.6092753844695914  0.8924389626620493  0.3457078211903882
  0.6011792850124703  0.9025512970281415  0.3955103167397067
  0.6529105548204466  0.8670582672642809  0.3390743099873043
  0.6903897126588554  0.8777967874537524  0.3719193253767886
  0.7236532924464701  0.9107561261032306  0.3515680935324727
  0.7675456823737387  0.9185929617093077  0.3776287624185922
  0.8285326689301564  0.8621508713887742  0.3920407970061021
  0.8142796425715045  0.9039114556099022  0.3677390622418147
  0.8779861964430576  0.8887590694695614  0.3338965559173420
  0.9193278193694067  0.8688170026237026  0.3999303346475739
  0.9717800236037153  0.9108027846994793  0.3488825178399938
  0.9357930741095483  0.9156158305357097  0.3830704749892892
  0.5277138232468216  0.9322758359274427  0.3597478499498193
  0.5637601988065044  0.9392220031474794  0.3968911114138892
  0.6258208984917341  0.9773493931258105  0.3443777557744916
  0.6569301199717530  0.9598454982910369  0.3810231199330902
  0.7001233749412067  0.9538600399137332  0.3554002958614184
  0.7757510180549156  0.9698308555082699  0.3801876475930083
  0.7383463955974612  0.9874594351459987  0.3533856490765872
  0.8478496834725766  0.9406351832272464  0.3818453557060045
  0.8245450116227092  0.9828637521333424  0.3647858701452052
  0.8921044364738772  0.9296705038564783  0.3586451116045892
  0.5569880081831354  0.6554160717975466  0.4141595297361567
  0.5185261876028021  0.6745214663164566  0.4438359198752260
  0.4966879909767525  0.7206252238345739  0.4339915259593992
  0.6143258272259607  0.7168035355599726  0.4403774196984049
  0.6183897982529182  0.6725551761303923  0.4637123250760436
  0.6699346721872969  0.6619081456075785  0.4606374823121559
  0.6854249512354864  0.6592031808783714  0.4130059311423669
  0.7016736558833381  0.6953668968597796  0.4825316420420506
  0.7498834716581652  0.6901970872225968  0.4721106715127942
  0.7627744662291721  0.7037966760800741  0.4259718265576091
  0.8067325034538263  0.6859148787133885  0.4109391698771043
  0.8461976632557139  0.6978529093799872  0.4422259315189752
  0.8615952442646277  0.6601004465083781  0.4724677411749030
  0.9871453998651362  0.6984956197240013  0.4806831433205075
  0.9413950298349238  0.6848769788793651  0.4654341169057397
  0.5799407753361723  0.7552111620712659  0.4529503934135992
  0.6465449090852556  0.7448897227056342  0.4711741467259893
  0.6955069983672755  0.7455793809643572  0.4768622225288929
  0.7205762420756160  0.7696932002190431  0.4386515835440052
  0.7682434172493290  0.7563073483139843  0.4307595341640333
  0.7904143195346648  0.7579052037534310  0.4742075146944351
  0.8370105329907763  0.7414856787465606  0.4675461615086550
  0.8605204796274631  0.7794106035055646  0.4455238376201173
  0.9093907858129473  0.7668880110390168  0.4583755160661194
  0.9239055583025788  0.7231551691780829  0.4333348815411094
  0.9906133025466501  0.7497521952357199  0.4932934165161664
  0.5295205715864703  0.8070481258488521  0.4754450813284876
  0.5466869414362272  0.7871992241292060  0.4306659612619442
  0.6205537679801518  0.7865755595207066  0.4631755989786610
  0.6343094082206019  0.8211124706919425  0.4290709418192319
  0.6739195376398052  0.8478800164422035  0.4488456789190395
  0.7229061418180921  0.8226056742580693  0.4465137245697117
  0.7512758761101840  0.8347702100873299  0.4901895299338204
  0.8377702234265478  0.8221596981035881  0.4685912903314677
  0.9177225630263061  0.8433002814704480  0.4766404985671882
  0.9382230016210856  0.8039565192202389  0.4472085788508690
  0.9858690481676730  0.7890406713507433  0.4610308231810799
  0.4979087133268106  0.8751922140656987  0.4435088928324133
  0.5361737807974418  0.8994904641610856  0.4684836097768902
  0.5789234233877755  0.8711929470238985  0.4719620008267879
  0.5932991287788736  0.8566997444000051  0.4242804048228935
  0.6169354765560776  0.8961180180284043  0.4946895174038425
  0.6777533249915235  0.8906943628443256  0.4189768444192167
  0.7550212689967724  0.8944094737687497  0.4197533842351158
  0.7140634777043776  0.9147961038553134  0.4358462303451635
  0.7903153491935909  0.8971556557366863  0.4532282598066547
  0.8302967395240900  0.8676991226473492  0.4416282720209777
  0.9101889721102857  0.8820510862273720  0.4475931597452327
  0.8661260298799206  0.9013410577665102  0.4521853414447123
  0.9363141049342744  0.9204324524803400  0.4676449379993708
  0.5087708349083200  0.9699361632101822  0.4405733385761710
  0.4926525478385708  0.9801574165450389  0.4872918777133021
  0.5475894414614028  0.9402076037470652  0.4438702131289069
  0.5856530310636782  0.9673324930955006  0.4680387897303627
  0.6278857641792651  0.9392526969835729  0.4660395997978399
  0.6405420956026650  0.9247056365186793  0.4163444606021712
  0.6652373767267218  0.9656821285288127  0.4885767678585219
  0.7120543009608612  0.9450464218076112  0.4730783588857363
  0.7418381562163958  0.9859694264312309  0.4629194573225153
  0.7791949956278758  0.9830857826159429  0.4296465818522037
  0.8249394985610210  0.9548881885784776  0.4944343385262092
  0.8091741094871416  0.9474763446694354  0.4497377095845915
  0.8549873093425736  0.9445389464458173  0.4277377719338463
  0.8845026558477971  0.9846282631540580  0.4346490545620372
  0.9340609437647172  0.9873695500288187  0.4212632730988853
  0.9535247940044229  0.9436080281444336  0.4252767790657979
  0.5563874255265528  0.6975998347392645  0.5173872009460392
  0.5427611543894610  0.7045262311286027  0.5695260291945874
  0.5195120165516747  0.6699527056699901  0.4940902500002341
  0.6046771163843562  0.6820140341101190  0.5113753106367878
  0.6917311127677592  0.6855942431910561  0.5313678354405724
  0.7282276945809106  0.6926388164486033  0.5640361056536182
  0.8125494179160976  0.6936139547794848  0.5224092043056963
  0.8082020118817697  0.6780819527584402  0.5676072116193116
  0.8917055389298101  0.7150621066853330  0.5763633874617591
  0.9044769159010329  0.6760585728516135  0.5007642928687885
  0.8914983218608291  0.7189640445903323  0.5248477454408152
  0.9684007063438861  0.6745941158826884  0.5546988995284320
  0.4994396430566401  0.7318945154551446  0.5740063517497553
  0.5058307815126104  0.7776063356776738  0.5496316488534475
  0.5186537034635511  0.7673706141370592  0.5021882750362430
  0.5604096642590258  0.7437867197224942  0.5000150350521652
  0.6291763659383249  0.7280412912871090  0.5179949696184173
  0.5957265008167822  0.7630153026316907  0.5309518070562262
  0.6662374333202020  0.7262157948511992  0.5465971936657292
  0.7022553601157149  0.7582303357420710  0.5271114309341953
  0.7727295797239195  0.7206068799107274  0.5042432962982162
  0.7454426631891934  0.7344421193751133  0.5426992047465242
  0.7744639548596475  0.7560740901009162  0.5747221055290974
  0.8430458365511994  0.7718742308616244  0.5481896293252907
  0.8453974875071584  0.7309167643355833  0.5152652141813424
  0.9134707412232883  0.7623865336038722  0.5120570626158083
  0.9682884022446989  0.7221967740453634  0.5699949350777099
  0.9600559275746759  0.7588147788811580  0.5321584436118777
  0.5516138502060198  0.8437171982697113  0.5484474542064548
  0.5673442825250825  0.8320399318814594  0.5007530637275670
  0.6091821525365035  0.8038037264187577  0.5074709621397898
  0.6466163885992208  0.8255557267293517  0.5311280708434085
  0.6932111169467303  0.8021499322166161  0.5454655064699894
  0.7222647328751135  0.8410746870308675  0.5326385950100060
  0.7443206109483989  0.8550454651047157  0.5754664675842376
  0.7990413950735541  0.7950290897653279  0.5467823451429888
  0.7906600512811190  0.8394373220655644  0.5695560194177739
  0.7926776630186856  0.8037760250551048  0.4950857498830608
  0.8815506263755466  0.8002531852412785  0.5346924635575697
  0.8724699936201121  0.8356696309310990  0.5010413962434992
  0.8958029330366263  0.8338566722586401  0.5720670767684687
  0.9640324981552147  0.7989033511125070  0.5638640630280090
  0.9576651750732507  0.8544301672168121  0.5057176769735153
  0.9449665585912270  0.8427502122958093  0.5532167052833007
  0.5106942124382878  0.8724669990756057  0.5433982965630391
  0.5200573581449502  0.9128590389062322  0.5166566026939187
  0.5879444271671784  0.8680724410926299  0.5723361013180428
  0.5990495811850228  0.9089433690294509  0.5439665749426232
  0.6958264880512872  0.8840566474309167  0.5260220110250539
  0.6768801914788938  0.9010899880607635  0.5696115494695947
  0.6588315356970923  0.8649831827742166  0.4980179769863485
  0.7315112510763329  0.9171505494649711  0.5095620548484108
  0.7702614651927255  0.8833482126178315  0.4958691470397933
  0.8019067417460670  0.8806193789361958  0.5363310798381595
  0.8525250843580702  0.8789959258348427  0.5253587286746393
  0.8701237839130956  0.8759339708912557  0.5699894826075629
  0.8615241342590293  0.9207091878123266  0.4991493301568902
  0.9719624237170768  0.9038291401307115  0.4990515295437142
  0.5565269602171282  0.9396925731218262  0.5409368583280596
  0.5679586113354024  0.9801585119164078  0.5144732928325424
  0.6373294049335166  0.9311361745721380  0.5661422229466440
  0.6472577268144126  0.9707985581606224  0.5380189844840235
  0.7524321115042572  0.9541802537173377  0.5407076024256114
  0.7883040544576122  0.9251086866543025  0.5636091625047074
  0.9055479704388241  0.9450208327945060  0.5020091294630370
  0.9283412103591187  0.9429157725706452  0.5445178507846682
  0.9714744696558865  0.9205872321162047  0.5460184557127821
  0.5307571778918834  0.6593097470817422  0.6334471214695624
  0.5475081073814477  0.6567607349009749  0.5873768990440642
  0.6138642815781992  0.6989904919080864  0.6110766123342364
  0.7003380623867091  0.6985246984692297  0.6075126191404103
  0.7620988246839884  0.6827640272318279  0.6536177177263077
  0.7616344347298158  0.6571642915687075  0.5750007251162274
  0.8355804947525797  0.6551017814375083  0.6330690147694813
  0.8049165955061144  0.6995533530273087  0.6403399377439043
  0.8093048527402017  0.7206114043501678  0.5947702324293535
  0.8954160709679171  0.6654686026199371  0.5833678598454882
  0.8752371476309005  0.6677963280104046  0.6543999818171720
  0.9543121573740817  0.6863782702534125  0.6592739858159758
  0.5506250797981478  0.7385443697907013  0.6507385187606112
  0.5063953123838829  0.7652904304618725  0.6509034027677572
  0.5727039514069372  0.7303377779821404  0.6025430348135713
  0.5837478196295895  0.7721360388689958  0.5799649322923268
  0.6583344071407615  0.7242025773646230  0.5975560746269127
  0.6623193177879726  0.7711163046967463  0.6210155877772607
  0.7315895367459649  0.7242869191739524  0.6403811996801513
  0.7476556392987250  0.7690488849692064  0.6145314382338775
  0.8526213542246390  0.7447983929151425  0.5914289750970971
  0.8643203349672800  0.7721678728068725  0.6333581430513266
  0.9355247542369826  0.7297453170894120  0.6476126945821603
  0.9307032867869501  0.7341738376644720  0.5980172619081515
  0.9385771241660011  0.7853156409249444  0.6057428586724487
  0.9681568421136368  0.7727986986055623  0.6450194834064950
  0.5410248258438711  0.8016162613283201  0.5757387406926018
  0.5211189630540048  0.8131750852653868  0.6226602001376337
  0.5553431835733807  0.8388268386958888  0.6479605851008325
  0.6295705008860414  0.8378606444745808  0.5774493099305901
  0.6186723475724643  0.7971852979851923  0.6079643194510692
  0.5965689895679278  0.8093769456108293  0.6544525547635618
  0.7029773383123588  0.7931526419981645  0.6000968536707327
  0.7796498711599156  0.7999437427506042  0.6423094976764933
  0.7102313461665416  0.8403415718085948  0.6094377013255305
  0.8046230670563468  0.8345742454716382  0.6155787251214511
  0.8971007826898176  0.8101048711745938  0.6188975339955347
  0.5316183494945207  0.9149041985514215  0.6145897878513418
  0.5713051706329363  0.8828213064848255  0.6188597072792181
  0.6108422337815641  0.9049039514571082  0.6420576066547324
  0.6467175184602385  0.8717651353596884  0.6465912029542550
  0.6653174475547537  0.8619139317065874  0.5999603880034877
  0.7266676132114499  0.8617497607146120  0.6535448511117495
  0.7641594331146104  0.8949312694971607  0.6431105883444594
  0.7536003532554699  0.9038871979114887  0.5957901816467850
  0.8089104530788657  0.8722845292358492  0.6470059443591611
  0.8464446911377138  0.9045031358890793  0.6457363964497601
  0.8552839454227996  0.9099166382601305  0.5991733525919004
  0.9696921130227982  0.8788680455664916  0.5770380888892923
  0.9473280572584831  0.8957249084129588  0.6155903210354392
  0.9333194639565925  0.8743816103650304  0.6553041913034305
  0.5389509217571713  0.9576648524709481  0.5872545803263896
  0.5268577570918688  0.9377341854993755  0.6576263410307643
  0.4911211816497238  0.9813526846496582  0.5849986396329480
  0.6172552959549911  0.9870609058662826  0.6265067360772899
  0.5701901636717476  0.9913267659658316  0.6100316701725639
  0.6348167943209427  0.9418472033029494  0.6180742437509164
  0.6843501577580836  0.9359470666876981  0.6376132605782637
  0.7214623906361690  0.9720346967690585  0.5783609694886710
  0.7103706490368393  0.9287460367255874  0.5966248418471692
  0.8290868076490640  0.9442984368272395  0.5817314769490667
  0.8461299506688232  0.9873939883494072  0.5815503959945654
  0.9193912880603851  0.9646781890986891  0.5834924545191701
  0.9891424129525348  0.9618246997334529  0.6130136375575704
  0.9420853598732112  0.9433978840915656  0.6203300665531116
  0.4984498046520364  0.6778319195012864  0.7152945274422093
  0.5438520527102217  0.6790334300422829  0.7125330265122790
  0.5574820873391815  0.6869150069665733  0.6657949010544580
  0.6102700480386183  0.6878020097539855  0.6601056987351996
  0.6955184708773775  0.7051501699814618  0.7095599730154046
  0.6881940087123625  0.6634251856346195  0.6909561939954222
  0.7722481185011976  0.6916317386021599  0.7372873490463303
  0.7671495547106020  0.6551056113900376  0.7018919006298469
  0.8644570303930781  0.7052542392443995  0.6832868182566401
  0.8642441631219792  0.6804796040077826  0.7245213054918251
  0.9583901194210768  0.7164900752917399  0.7399044397489096
  0.9601928173209469  0.6741143600069925  0.7085998667045588
  0.6186515697746807  0.7282998767806919  0.6819200853883499
  0.5741067948644324  0.7705816077322482  0.7263569278694535
  0.5844103035170107  0.7635797917319087  0.6784355017732584
  0.6560770030822985  0.7356888062553538  0.7071183372350670
  0.6742899723425076  0.7721480506554864  0.6736549265872426
  0.7156237846566501  0.7438612208826278  0.6826394806973037
  0.7432311417541602  0.7633103747810652  0.7204621035678973
  0.7891240798366275  0.7351450822499523  0.7190177000167575
  0.8172522857640208  0.7313409718310413  0.6776283560798859
  0.8226477444590244  0.7800052026361173  0.6625673694779149
  0.8918835552592574  0.7444933275027925  0.6686948161319560
  0.8954092653352788  0.7699436175035156  0.7118805115623708
  0.9433586745981091  0.7655810671784389  0.7247296193242496
  0.9715488410136270  0.7880809045015628  0.6897202319922237
  0.5330196878035356  0.8517739097563408  0.6903156712050803
  0.6281832745288184  0.8381939458444603  0.6812938765601776
  0.6668823635822473  0.8142223213326852  0.6974378645478737
  0.6937663140343745  0.8303433463544448  0.7353732274723703
  0.7414195076997945  0.8124437777627266  0.7245235519750207
  0.7565876383612818  0.8298632283408778  0.6799258043163380
  0.8312985502061695  0.8150621972235739  0.7022011228196933
  0.8002235965087494  0.8536912843335903  0.6921614977250378
  0.9038297992148692  0.8362817914779511  0.6594038364743940
  0.8821428518617719  0.8207023245889030  0.7023078929918678
  0.5572117305854769  0.8630230281003353  0.7277005475039316
  0.6038394805458315  0.8698864631514480  0.7172450970598543
  0.6021977490832592  0.9172759825177229  0.6899942439964726
  0.6861590540876058  0.8922258110723569  0.6655177485583946
  0.6823128135034298  0.9110649301747793  0.7106896953570374
  0.7838526831689101  0.8905875280864691  0.7218467624551571
  0.8899892028716044  0.8967905124609988  0.6653216037224062
  0.8893024704874061  0.9027384028870478  0.7148711570530165
  0.8933460880052889  0.8579530534448236  0.7365144409357723
  0.9795515047964846  0.8614976715800345  0.7257141978929981
  0.9630438635907895  0.8972001790661157  0.6936976566882179
  0.4999395138465347  0.9805262044074052  0.7143076434446419
  0.4944464408589489  0.9701764915296220  0.6677870895568460
  0.5453237420086109  0.9666859460007203  0.7248442816604205
  0.5600615293421727  0.9404499853616415  0.6899063069509137
  0.6575126466362305  0.9838674595768113  0.6963602304886175
  0.6395106027411244  0.9404505557086135  0.7127971880479382
  0.6979625976488535  0.9723062239034944  0.6694485472664298
  0.7221487934088227  0.9436092808066850  0.7043139173419261
  0.7633547132476590  0.9241512767296879  0.6854332707297258
  0.8372481993318552  0.9469236368985576  0.6764163358239812
  0.7926587693943452  0.9642156912970135  0.6772093050949717
  0.8534528998509922  0.9358047792852182  0.7255993226976322
  0.9131966274071550  0.9470699467341849  0.6625607544690881
  0.8727916523179320  0.9749448039894680  0.6666171237283449
  0.9311345376198398  0.9313445516880037  0.7084849915091929
  0.9477045076111225  0.9701747550682902  0.7358192624536873
  0.4988455449597676  0.6795802128711624  0.7935481825055798
  0.5454777015154315  0.6782158542713775  0.7935637965462167
  0.5680139478604179  0.6758740971858729  0.7530870225498290
  0.6132688596064592  0.6596527820096721  0.7590660179265722
  0.6344722455041468  0.6998647052567831  0.7749571193664264
  0.6473336462104239  0.7045967255393558  0.8213056371781269
  0.6869631211968399  0.6738702578371047  0.8215739183578969
  0.7145139229247626  0.6637251243163835  0.7809314416651519
  0.7233188677933846  0.7008392037969542  0.7509407796611812
  0.7612639571491450  0.6553875412710644  0.8028809611595115
  0.7955329178550663  0.6873423773840788  0.7838511166254528
  0.8429202841958380  0.6729814913665130  0.7963928491603458
  0.8782020142415831  0.7010731190113230  0.7652513786554173
  0.9263374714523701  0.6940169446492451  0.7781697475245677
  0.9347295500352637  0.7166607276160849  0.8187661516632605
  0.5532187264564116  0.7897050186259079  0.7963933501981431
  0.5367409249066747  0.7772533980354670  0.7527479018299876
  0.6088608804420760  0.7730829584085801  0.7564698070736368
  0.6445966129946753  0.7439558600911111  0.7532946224852611
  0.6796709607610094  0.7646951221933541  0.7828850011357964
  0.7551645463511039  0.7567936303478486  0.8040731756860175
  0.7240934442340342  0.7468231683646109  0.7674538720423915
  0.8198332424888691  0.7552815972192624  0.7541627703491425
  0.7997105688341825  0.7364648912578425  0.7957277525946390
  0.8917978854253079  0.7854383107123609  0.7864626991870188
  0.8708871875626983  0.7498243187003116  0.7554106098954178
  0.9779054648729555  0.7379489809657095  0.8243536531339404
  0.6014004990095052  0.7952215809837803  0.7990422682624989
  0.6338943985951310  0.8349693991246387  0.7920187924647982
  0.6809907137764210  0.8139153325059275  0.7817334492650347
  0.7599913104706344  0.8070296037716344  0.8085388469790610
  0.7747093113979209  0.8225807828969793  0.7626893038678340
  0.7163510877291303  0.8290265472060347  0.8154713205587958
  0.8185963296823490  0.8033718695909779  0.7505751039380838
  0.8529449479904364  0.8165861030377093  0.7864785653839329
  0.9723018695538856  0.7869817425038977  0.8054771065173101
  0.9390003331797014  0.7944681259982863  0.7659070504709240
  0.9402223607715839  0.8440806692044717  0.7563899062813754
  0.5336843282923689  0.8787327479710270  0.7656851169247813
  0.5435079248009075  0.8872988093140203  0.8125016826333107
  0.6292357378086989  0.8729617436697584  0.7605700449755891
  0.5824461173268375  0.9121314964908005  0.8263517067258378
  0.6196025608443191  0.9134995445315421  0.7908198777857873
  0.6583382120850058  0.9055809458326153  0.8253814093716902
  0.6956499789065717  0.9036690478875804  0.7903108561313134
  0.6790199905126352  0.8796707389960200  0.7474140171779260
  0.7346920529702476  0.8771025205576086  0.8041879853862466
  0.7739749595755272  0.8695098329120133  0.7696296041164284
  0.8211229600151400  0.8897358044374163  0.7859781497904477
  0.8634047731998761  0.8632851183205740  0.7783411253745374
  0.8948105015177211  0.8888614781978217  0.8072737330904282
  0.9383188445004005  0.8603891579000364  0.8059044917583948
  0.9747482005200424  0.8920505840396847  0.8201900617860644
  0.9882667897931622  0.9197530192032926  0.7828709229561197
  0.5177828924974345  0.9819678450108098  0.8059976160187962
  0.5784432478507970  0.9760149732189839  0.7562834079140190
  0.6220303734126511  0.9523316367267766  0.7593689525832763
  0.6590766229595524  0.9820267134270556  0.7754441837762546
  0.7034329735398887  0.9531269656970184  0.7844240877315959
  0.7813810788275733  0.9563882689427676  0.7629256790916633
  0.7352955784130746  0.9655168677895239  0.7472136020590117
  0.8126878245512665  0.9217214758092083  0.7487781662630654
  0.7978604546888796  0.9828794826010446  0.7981703970000849
  0.8999346354054529  0.9417708792579547  0.7931230011758517
  0.8725586715192917  0.9709877269667142  0.7572587320199237
  0.9452187522732848  0.9403283325192089  0.7709574688957251
  0.5674916992238045  0.6730800408397211  0.8345090605316077
  0.6032169084645514  0.7144729095746349  0.8921066497349881
  0.6126378738233520  0.6859504373987995  0.8534200608650042
  0.6962047270466912  0.6980236036352023  0.8971863543102541
  0.7214868451435527  0.6929417114717177  0.8559534291340841
  0.7548685990813133  0.6576477457101639  0.8525343242821085
  0.7998685749699259  0.6602716788719919  0.8700041827221826
  0.8457884757791592  0.6767504151570856  0.8469221475186015
  0.5300249793977833  0.7804370997646641  0.8343513449671954
  0.5486563311908940  0.7755361329821112  0.8778361108412371
  0.5976096714920376  0.7630688555840842  0.8865996909089111
  0.6245835095650241  0.7816337936491328  0.8446070876398369
  0.6992651068545530  0.7651748983339834  0.8638924614505114
  0.6628055048121498  0.7522395089902534  0.8297129302505781
  0.6928359748493851  0.7426107630765100  0.9060914136979029
  0.7401138048501431  0.7410197465015480  0.8490101750548155
  0.7832452095401390  0.7530316375873500  0.8738800211860881
  0.8228067116863780  0.7520611822241023  0.8375737155269507
  0.8478131225813282  0.7355396240842905  0.9081241764376006
  0.8582207028256658  0.7232325552714971  0.8602549499655149
  0.9061936881343532  0.7377489547126022  0.8524010973493832
  0.9037392839808042  0.7870246713767428  0.8397054021214222
  0.9808070980561904  0.7323510148591164  0.8734237656886576
  0.9374058481508696  0.7318482893794969  0.8905462673954254
  0.6487944019838828  0.8233358226389267  0.8655110656920213
  0.6987037996019223  0.8159461732374785  0.8623252839904952
  0.7205363311203875  0.8390898516057947  0.8987540688303927
  0.8351894349900673  0.8034915446178532  0.8321424690791303
  0.7917523466748854  0.7988974377871332  0.8904750054117213
  0.8430485999988361  0.7886399961198907  0.9066006056397327
  0.7932389216386120  0.8250210767774410  0.8467574665463800
  0.8688533939992872  0.8106539986889341  0.8693054085570819
  0.9436300310240845  0.8157833260451054  0.8337937717677376
  0.9271374884666286  0.8550392800552417  0.9060025891932389
  0.5010235232870353  0.8840193862861407  0.8348854643581294
  0.5908818175278094  0.8714095185622120  0.8510723189129266
  0.5891587479752468  0.8644059639144507  0.8994724293161834
  0.6356046307524602  0.8595053182222571  0.8361872522486694
  0.7533723481149799  0.8940421798890431  0.8446523546037056
  0.7950032736709902  0.8759103191982089  0.8607162682370275
  0.8274718202334530  0.9062929941388707  0.8360189199225656
  0.8817425134287005  0.8579192130819251  0.8871065315753262
  0.8770588539390690  0.8959838656855553  0.8528983462529991
  0.9619467246150828  0.8889129678876583  0.8982760492989705
  0.9551120426087459  0.9204261364526342  0.8599426527789910
  0.5120910962745790  0.9747770200652797  0.8506880196476516
  0.5437167456704605  0.9610260211355659  0.8797043628960691
  0.5868207589065370  0.9532085353801355  0.8595869585147571
  0.6226793401629617  0.9439692646355611  0.8956163703836219
  0.6643296797206416  0.9393443703891601  0.8679691898730735
  0.7034138295859144  0.9281837435431116  0.8983402410826462
  0.6793478758200880  0.9864346120963098  0.8528403404850037
  0.7213432212249226  0.9708644526164777  0.8280090546155809
  0.7398995896142179  0.9360877098838192  0.8622900934534389
  0.7800023579740112  0.9564706117550270  0.8805949788666640
  0.8160144543516776  0.9578527867809096  0.8429209317141283
  0.8972619441419013  0.9711802202090837  0.8377945815023621
  0.9077982481529348  0.9336617421702684  0.8688196638742623
  0.9786418260358277  0.9647544580088937  0.8650111380373060
  0.5624089816457752  0.6974495787319541  0.9660626743780596
  0.5904335034557417  0.6830134412479680  0.9283120797842719
  0.6352972189246688  0.6673637759645252  0.9513715257151362
  0.6701527173305557  0.6613103694475281  0.9128715095668828
  0.7218728833561369  0.7211346979711848  0.9783441554369664
  0.7686337128340391  0.7112081552538443  0.9820557812188789
  0.7932446199902228  0.6811174248237746  0.9129665528347954
  0.7819542307203495  0.6672510882351421  0.9571804662436753
  0.8758621976414419  0.7104951031599694  0.9435249561582277
  0.8706837553653759  0.6589177769332613  0.9527211578031817
  0.9243750232185287  0.7172269751526482  0.9317179611681075
  0.9898425737311964  0.7138696241249726  0.9763493405795886
  0.5183535766708618  0.7741599109072227  0.9134217964323607
  0.5329512182497628  0.7809273691521929  0.9570149600327287
  0.5812045393914625  0.7351294735662663  0.9865796154682465
  0.5811249913805030  0.7810917641239626  0.9678239957976318
  0.6592166762168571  0.7746949937195573  0.9627159089047901
  0.7044703692138440  0.7583922326790665  0.9498786852355018
  0.7463154805966087  0.7876300171418280  0.9581744892111649
  0.7985449904012549  0.7284170590613238  0.9139776569339886
  0.7874320162358878  0.7512761833970892  0.9598550027308297
  0.8310078420717032  0.7672500223212604  0.9826646469348002
  0.8692240857619460  0.7339537069306388  0.9892561593813467
  0.9134273548194581  0.7610360400488305  0.9902550879345903
  0.9470805783464733  0.7297978178918293  0.9704271687836198
  0.6177999051178612  0.7870785015912205  0.9326544335588030
  0.6288820777210019  0.8315630986727239  0.9107205346545941
  0.7595280127275054  0.8193287407488273  0.9226180766714788
  0.8492495919746124  0.8493428160606971  0.9682956524765041
  0.9042014639686062  0.7929625924621766  0.9547151277732935
  0.8553728205939262  0.8018811245806793  0.9530054001478144
  0.9866557585127435  0.8143848966324836  0.9399790821940250
  0.9313795212988721  0.8538893439761410  0.9912013387492249
  0.9372563854935413  0.8280567874975783  0.9458185008845206
  0.5079311843947290  0.8713483049729032  0.9203555962886177
  0.5507986342914803  0.8581950762760667  0.9292255437333743
  0.5646372586281341  0.8632602456406052  0.9768069583758663
  0.5879603682262672  0.9092321652975025  0.9651509296763008
  0.6152141686725717  0.9020895703097221  0.9236399612702056
  0.6544985589023411  0.8691166234076735  0.9347092747091497
  0.6631940406969683  0.8647414171882557  0.9843589406312687
  0.7018430805062004  0.8808643764324691  0.9180617077128562
  0.7766719238279802  0.8610710944079675  0.9452138366816315
  0.7353500872892100  0.8853135370891657  0.9573475738107190
  0.8041022317398296  0.8598134888873395  0.9873836272193184
  0.8040672042221698  0.8854238190897581  0.9110360542018535
  0.8530418048856431  0.8774325284526355  0.9255311464472233
  0.8719961834868262  0.9207440306566482  0.9450940755490528
  0.9558563301361899  0.9005516456227771  0.9851515988003590
  0.5587362681343552  0.9764139954123313  0.9924056567770302
  0.5322634035455764  0.9613093508552288  0.9237528552376805
  0.5573735652724301  0.9462549773200097  0.9579466447289168
  0.6249462697532602  0.9842134275183896  0.9254060376367167
  0.6434507011252886  0.9875251064440939  0.9709720621245738
  0.6791041075886297  0.9546519672779966  0.9807970400070665
  0.7148499962818452  0.9578814802057124  0.9418692128993386
  0.7532574788851768  0.9325752074470730  0.9600285812173991
  0.8331678672039269  0.9563495704838675  0.9434561960887532
  0.7924634883732413  0.9333408424353464  0.9238657885022372
  0.9108478059872154  0.9414952342267171  0.9209973700360744
  0.9568992102013830  0.9210874324833066  0.9381849902827051
