generated by phonopy
   1.0
    50.1456102475000023    0.0000000000000000    0.0000000000000000
    -0.2081997877000000   55.2815169076000004    0.0000000000000000
    -0.0232765614000000   -0.1155791076000000   49.8984189377000007
C
14009
Direct
  0.7473620159636503  0.3311506731663545  0.1750587803374324
  0.7256068692367005  0.4574888965238282  0.8788912661692733
  0.7281824786121839  0.2912247675987557  0.7144709423461200
  0.5845191286790938  0.4363665815392730  0.7004376219542600
  0.8081525153327421  0.0398901079126510  0.4596831219970769
  0.8611112265639527  0.1447498388729918  0.6725418342793458
  0.5400688605841131  0.7233022993393237  0.4306737719852602
  0.3066084902186078  0.9760254609150658  0.4586998543696745
  0.0927125578671327  0.7785090025176491  0.8504779751235161
  0.2489205882588588  0.9277302178932200  0.3609668479173305
  0.9210237621537085  0.3833656099630410  0.7693003589538060
  0.6747486644029983  0.7342678000648669  0.2882874308695093
  0.8238734024923891  0.8985257437384643  0.2605868397600846
  0.6153384193936392  0.8667393848794812  0.2410189892993500
  0.9098536597035505  0.1690005977725552  0.4656750192628659
  0.9283054069265743  0.4683358913556807  0.6259426804483771
  0.4594982351003813  0.9264215415082180  0.3105415087268945
  0.8201065116689671  0.3882376384605677  0.9236459507372998
  0.8571729812889388  0.7760720766104423  0.4931438374975941
  0.1657835497720264  0.3138615875509549  0.6398825910669572
  0.1911180021872391  0.4761424552446783  0.8207226375475147
  0.5097454102940694  0.9856075009001785  0.6355147292260416
  0.7813861091017333  0.3970214169064624  0.9982017839520722
  0.6381506255443238  0.8015902754842064  0.2604775878014843
  0.8497522872556964  0.5407988375927433  0.1995999490972866
  0.8766378108444963  0.0507915039176467  0.0643398512086800
  0.7472338340193596  0.0530244080522284  0.9920122471576177
  0.9888030754664845  0.2241781531609078  0.8851389009969265
  0.5720252484705118  0.6805634906538719  0.2090595418068137
  0.4170220312170391  0.4835182847968071  0.1657993085979196
  0.4532230083482817  0.2569561713626689  0.3527759691540115
  0.3334680650856320  0.5412265875430948  0.1611991171512409
  0.7039764380327258  0.4129335116650693  0.3235922789489543
  0.7596056165080119  0.5155097204608677  0.7288006408660821
  0.3448726602370971  0.3850795426436689  0.0391735800775675
  0.3738463608334026  0.8293438527128526  0.8175042870783245
  0.0450648267365227  0.9940932425279119  0.9546880645552531
  0.0153570317835967  0.6153694201730407  0.2302328359209839
  0.2526106346021458  0.9876191151600043  0.0669058028505519
  0.9218419913588910  0.4494086592724898  0.0046149862641442
  0.7747582544952935  0.3416360704823766  0.7665010438056767
  0.4306083589175208  0.2381335668794753  0.0669204311697560
  0.7889609763309153  0.9223291363801128  0.9952711139406119
  0.8806148877028475  0.9810716352556436  0.0604226152689192
  0.9676579859006860  0.7884340499316608  0.0436710572477398
  0.2525981878313390  0.0880314989887460  0.1555486118646500
  0.2841963073673913  0.7833602160528661  0.9059771323905548
  0.5221742566024600  0.7559332244141181  0.2031277706945958
  0.2743949390284915  0.1136024600366377  0.0383930569501989
  0.0157316551953547  0.3653203601867738  0.9149245962482259
  0.2682711234079976  0.9005873286847746  0.4867301593327694
  0.3245444794572157  0.5932234860757455  0.3525937890330071
  0.7266475559243259  0.8576815758116044  0.9951343019905473
  0.7468525354174178  0.4329271656188900  0.5795963242063612
  0.4268250196402420  0.6231405900477631  0.1145160644695847
  0.2157122109878622  0.0623909560974926  0.0563216356315585
  0.0348961785416628  0.1053782232963574  0.6973626507774864
  0.7414399280999197  0.4014138676974663  0.1238745856400257
  0.2212405715178625  0.4060340749669902  0.2736470371345475
  0.6726006978315727  0.0442092962557642  0.0593248951173371
  0.1902103880777792  0.3385314425546934  0.3360587060070272
  0.9600817124847734  0.9197069716946465  0.0297536972434669
  0.3086802698483031  0.2045051367341262  0.3651989960393714
  0.2384848366228368  0.9882468228537445  0.9374103046912301
  0.6039272812131345  0.6672603601491113  0.8657462705168273
  0.0612934270731978  0.0957749888248008  0.8951207202730416
  0.5752851699864818  0.2059128276676473  0.5447028057930049
  0.8536847506958369  0.6148108984218358  0.5534960202743658
  0.6316637768170762  0.6702944095527212  0.8610123129079714
  0.8416985894115780  0.9187973349642063  0.9389015864108554
  0.0039102022645547  0.1786476512059887  0.4985170057403545
  0.8376097026481982  0.0313555938274014  0.2746952366790121
  0.9413251335260119  0.9083610427355967  0.7818674505240405
  0.1066426465761506  0.0065312628461653  0.1355042687513189
  0.5156749932754671  0.5716929731543116  0.6386669954370490
  0.5327133785179126  0.1004780508423467  0.7522006207623952
  0.5866582957161091  0.0120331750284690  0.2633310329212139
  0.6676297995516978  0.7950811330552903  0.9426089383458129
  0.9063358575896435  0.9635349070301661  0.2292780641864429
  0.9572844106399597  0.0412282304123133  0.4619128639882793
  0.0024649534925551  0.1249290232532647  0.6019436615316628
  0.2403547930195247  0.3358353408301520  0.0304265394038952
  0.6687570563715582  0.4426079607630712  0.3457905774838829
  0.0680533137240458  0.5230366898971599  0.9384422331790703
  0.4932519048732490  0.9184768213567943  0.4374184065280939
  0.0097670190475139  0.5846171251888383  0.8960935306552824
  0.2905208455238643  0.2464692187579899  0.9595167005146575
  0.0106202796151278  0.7338402622456195  0.3460717567336206
  0.9186150738832798  0.1439059593009347  0.7512996423154403
  0.9905698284120718  0.2624749779185546  0.2991036212717312
  0.9235595058211807  0.1441857059165720  0.7788859191816195
  0.1729114754025252  0.0326267870410097  0.7264583642471389
  0.0043598657751490  0.4220729699126507  0.4967197243452872
  0.8509356456822961  0.9141656033765342  0.8466950596721131
  0.2446739283998444  0.0195678492481918  0.1914857236645025
  0.1277075451221800  0.1264957710015586  0.0274233244085043
  0.8309472181051785  0.7009761082804474  0.4668541127342133
  0.2752722315435285  0.0841839617220152  0.9111075995566514
  0.3181112047732139  0.9534598291106582  0.5828247431308392
  0.4730618485274203  0.7076129326041756  0.6345489190656001
  0.5390767160859586  0.2325774999362608  0.4884489612873380
  0.7505087249122836  0.9827232016672657  0.1690131448960241
  0.9302381640085574  0.6601363557698713  0.0343289794840733
  0.8535170112172551  0.9151128902058505  0.8754031275928326
  0.1694555008734344  0.0865693539536479  0.1758812184201147
  0.2332147110045309  0.8999292959512858  0.7572215393673075
  0.8284070589427394  0.0554310794601103  0.5703361770947482
  0.1296202968784939  0.7421244897054797  0.2521539212637016
  0.0381580075982292  0.3984452877310293  0.6907460363229841
  0.7604863101468879  0.5030956863292728  0.3793340410972242
  0.5055430759402452  0.5892985202797791  0.0323511104032269
  0.7261784725862743  0.4590774842867307  0.9552064537257056
  0.9182977659262995  0.4895426252992105  0.4604155419971099
  0.5114777901653791  0.0754354557960137  0.5649189232868170
  0.9797335638836843  0.1948146442133494  0.7021515359784053
  0.1430470976557795  0.1005806431279188  0.7701312590280501
  0.6465784385657111  0.2316165955063031  0.4245407459993650
  0.5479376052703764  0.1511755894907452  0.9131704565006462
  0.0795289896097028  0.8705305695570535  0.1634110172945661
  0.0438135603510998  0.6392871084929009  0.4499273098819118
  0.5093009297769645  0.0897068430211929  0.1386449466192021
  0.8340832452111103  0.3528936379295052  0.5743781308137991
  0.5509497814409310  0.5068727006618793  0.5934002525604837
  0.5006739956560621  0.9182675266770036  0.9589579293031926
  0.0914955635261803  0.4127898194912285  0.1089218090614420
  0.3340919928370590  0.1632629136708371  0.1117156270414075
  0.1020364595928878  0.1205987407512210  0.0173845075949812
  0.3968381907554163  0.3095437495365768  0.9505872292110414
  0.4485485066405661  0.1301762338848957  0.6475925107034957
  0.5513119106437629  0.9186899091531544  0.9813542260955878
  0.1938489249119718  0.3076604803036958  0.7788366390630839
  0.4220794417486619  0.8420518186216043  0.8859027408301602
  0.2084668817022523  0.5112550870419506  0.3876517074448932
  0.1772946753605583  0.9392213527567332  0.3431311525396640
  0.7240195080395363  0.4002800123080498  0.0995055976863555
  0.0215002612358135  0.5136588918132611  0.8793363664444491
  0.6037566953638592  0.6638203362291231  0.3254250845156834
  0.4385194416759132  0.5603449246940188  0.0282951532344700
  0.5551323818182566  0.4186565791271651  0.1074533084243479
  0.7330612447983017  0.9691523820543215  0.8826066985205764
  0.4508367495254867  0.4373269808087714  0.6535132974997441
  0.9140671124997307  0.0951491976261251  0.4023970964905589
  0.4341650709657368  0.2650084005501541  0.3001362131072427
  0.0719187035111012  0.2334670507693307  0.9834676597923881
  0.2290713625231167  0.2829008400515411  0.1578613372466723
  0.9233854320186770  0.6575839593831634  0.6633557776916152
  0.6484849823915297  0.0020259754670902  0.6154332873420597
  0.9128922677075786  0.3114334001526217  0.5718020972893604
  0.5222990596266479  0.7192618163317541  0.5146644732784740
  0.0075505025815522  0.6387455370463307  0.6457404580339436
  0.3481262290106923  0.6645058101131446  0.3237088237237949
  0.5216737480950646  0.8244556875409835  0.1727209249006570
  0.3726508000049161  0.9689915850189096  0.0635503310026553
  0.5664747974693850  0.7498121105282195  0.2174542286309191
  0.9666951778803062  0.2506210523367626  0.4883654436110524
  0.5346776451016878  0.5092147805836520  0.6902432809144144
  0.3451844968778889  0.2994311458003588  0.8578648103749535
  0.2406276722723722  0.2798736653695890  0.1099789086875014
  0.3075965150892379  0.4664788493065035  0.3007515432249832
  0.5575907174320762  0.7889291577988207  0.4706713599347271
  0.4472402008843334  0.1693754493922996  0.0265403443274117
  0.5017641336034362  0.3249005440388300  0.9590143138552465
  0.2531459016993218  0.3988063818805641  0.0813100480210729
  0.1396303305891045  0.6045547306925949  0.5877607792867645
  0.0559229503145131  0.9664311813590892  0.8338634406823530
  0.9200635206834556  0.6655752842483289  0.1371928697489818
  0.6480518350074526  0.1603472660212068  0.7683854762586849
  0.0138993950745835  0.0853332369897309  0.2568968911821570
  0.5728308394551369  0.0937848114845861  0.8730557265630274
  0.4823773082778282  0.5221039906714317  0.8301334888329291
  0.3162656698705291  0.9627045550980209  0.8319283793706799
  0.6231213955363893  0.0777499398783136  0.4827008713456887
  0.4639751989240001  0.3935874643977831  0.8118064732787535
  0.3179541820930146  0.6493770808278472  0.0150976524114037
  0.9514375600921214  0.6498659838011235  0.7004429507804165
  0.9020308882650904  0.7710350197001103  0.8069631254303629
  0.7629820776302567  0.1838688114846486  0.8918818721604033
  0.3756782868211889  0.9224213740301164  0.9548238143474149
  0.2454199659299958  0.6394434341726515  0.7762087762411432
  0.4184282790705367  0.7862635277829524  0.5190886675655841
  0.4456356209261066  0.9178264145578483  0.5095423891435216
  0.8221680168639066  0.0576417043905902  0.1524813283062052
  0.6388600431512462  0.5918830782332165  0.7169098152120507
  0.6339781224170001  0.5136087229125238  0.1089037615958274
  0.2729604661923111  0.4417444516827426  0.7643074632808778
  0.2025689978463341  0.0202913375302702  0.2305607761713640
  0.3167430465235613  0.0804796362387000  0.2668915004426762
  0.1039602554008853  0.1029861135504073  0.8600360354820109
  0.5860094973511450  0.6264588194582477  0.1626126052236397
  0.6541629584947330  0.8876258207899335  0.8815712609035146
  0.3856133316635869  0.9044494535498913  0.5871593914945488
  0.0930285935874896  0.5842031338106570  0.4075132626023297
  0.3883456589804489  0.9819850585364590  0.4830943727915865
  0.0538981603867889  0.8475218865671746  0.5425946187554288
  0.5244041867763675  0.3504997103691272  0.0872464331071382
  0.5777772666558652  0.2118887850762892  0.2343698207071699
  0.6158910169707252  0.7856840398104490  0.6316758480735313
  0.9080919912169221  0.7720881914744405  0.7790267032014254
  0.0846414051495128  0.0454723708356826  0.4729631359555821
  0.3456765932077033  0.5811615907593755  0.4523690024764630
  0.5003915971539176  0.7144683356544380  0.9800350580457506
  0.0216638620535240  0.5499171064126609  0.5063771225206012
  0.3378978163717909  0.6421966654516417  0.8124307335391616
  0.7829107092167247  0.8491169114262156  0.5090409223529356
  0.5178876256634739  0.1567455005694743  0.1903609603714997
  0.9984459439759326  0.0264556704083678  0.3290947799468878
  0.0054284263945060  0.1527036067812484  0.7740064098668257
  0.9183119489017795  0.5370858467766531  0.5838755880497025
  0.5308167063650162  0.0762341903996148  0.5204861567342702
  0.4483509018169222  0.9153095460574632  0.4603353250266084
  0.9087139014595199  0.1861378970330193  0.0246238445256966
  0.8414494416234020  0.2641622216591430  0.7881028404747416
  0.9361831396905546  0.5088761359141225  0.3642995026094085
  0.8558912059263576  0.9763334877114822  0.9606832124250383
  0.5411369605628125  0.2901484936634557  0.5100693316911968
  0.2050815000264554  0.7381354630394011  0.5901869423311518
  0.1296218859697545  0.6873075214900959  0.6435200229508534
  0.5356448610297374  0.2841082221072470  0.1468456052515107
  0.0451747499264878  0.7797659006451568  0.8391431851233327
  0.3659396157562555  0.3091386805545844  0.9835704586407125
  0.1554864944690192  0.0641004123326445  0.4706145364910116
  0.7926682924716608  0.2589891722050017  0.2199748956716331
  0.0437210822808489  0.0321543252465688  0.7141165603761807
  0.7838205228624476  0.8557704482054500  0.1439438479797867
  0.7073236997614546  0.9897638440304112  0.4520918995081853
  0.6989776542712723  0.2391962154142900  0.8830179500278761
  0.9476100633030857  0.9167415000735939  0.5681730684773236
  0.9440327596926071  0.2680578655606957  0.1348282361090399
  0.3636599318552504  0.2505529089820291  0.4635325125006080
  0.1632327105589868  0.4209923243498537  0.4196934681667350
  0.5356032665806425  0.2657008274370728  0.9106670445156700
  0.3737256495841506  0.9794138410223293  0.5292237782718254
  0.7618654393430382  0.2397991921026276  0.4616335405087638
  0.6716038274027213  0.2063683367863742  0.4892744062789203
  0.6930805144280184  0.6413193268739680  0.1434403855347869
  0.1941292916051277  0.5094222186217103  0.7121961187662041
  0.6282964877879461  0.2215622327246832  0.1452270639886936
  0.0037033611205520  0.4118829246694370  0.1581883131378397
  0.7676674742752082  0.5209256051114841  0.6805714995178426
  0.2581826294432504  0.6734836308862701  0.2408499979729810
  0.6235041864916906  0.0887632056257572  0.7017077243212133
  0.8381567392339001  0.3973630045586089  0.7762090988966570
  0.1669440996229445  0.5646164744151966  0.7273700103667643
  0.4174113631809759  0.1101395324607915  0.8146608663243093
  0.5727502837145827  0.9956273492970878  0.4133683399017682
  0.7996540001644996  0.5974162255974650  0.5498232125200998
  0.1265375663404939  0.7845767850199851  0.9169598952048281
  0.1225031242576675  0.4052217847839440  0.3467975111917972
  0.0721723558996231  0.5326804799697438  0.1652656798664513
  0.5411726820590087  0.9018448294996243  0.1600790177334661
  0.5150581108444535  0.9223841015436242  0.5365572210499799
  0.9052308125512761  0.6457577063086349  0.8673700774775480
  0.5336378783771564  0.8990288501953410  0.1147827039800793
  0.3847827637222048  0.7090620505837146  0.9241240921395312
  0.1122512846859526  0.8339388428690465  0.7295837779039266
  0.0507993906699125  0.7742126148953409  0.4603164146077998
  0.5941012263113945  0.2269834237567765  0.1111479264889037
  0.6895028715075628  0.9021956400700789  0.1975385601356759
  0.3268002014668179  0.1032838707307864  0.5837654182263488
  0.2787983962562590  0.8960717222696563  0.7246548862629495
  0.3901843589320555  0.5102804630548523  0.5170739524275049
  0.6769998338292819  0.6721354286397875  0.8030288905552038
  0.2298228826370454  0.4928950027362304  0.7904588409754142
  0.4687830451129807  0.9703203724885967  0.0715430123037992
  0.8222849671646200  0.9169230311414728  0.9151779349364874
  0.0802060600134981  0.0438289784605198  0.0081756454750469
  0.0275250512155053  0.5830851473030053  0.7114636105870245
  0.1148590606816825  0.0947325146436625  0.4108059921817004
  0.2801210064332506  0.6068117913501756  0.1513249549936150
  0.6816681895587797  0.6467506851896742  0.0966077567711848
  0.1184570917524734  0.2644510984039525  0.5702256144733775
  0.4264509272131869  0.6236045516620662  0.0664252088656013
  0.2688725986714572  0.0289169736670788  0.7029101572094160
  0.1356837956320561  0.4152521911528192  0.4201782410416070
  0.0736997664954698  0.6433826012285632  0.4887738713815885
  0.0047950827388853  0.0311924386463972  0.9864642216711661
  0.7801090966421697  0.5657725355636636  0.4095488501452300
  0.2148262806054504  0.2473684009823532  0.8529391112198987
  0.0928910479472273  0.6676702288577701  0.5267322664635010
  0.3638259819465804  0.2488576824689785  0.9638911677752841
  0.2971500373497603  0.5067767057229192  0.8246259015014924
  0.1601648982680912  0.3319242301395273  0.2673358632195346
  0.1018191392959645  0.6624792621914211  0.0211918383891131
  0.5832478024449302  0.5806596596239816  0.7154605428395074
  0.4359550106715240  0.3943051696251967  0.8127273461436306
  0.8904964943232887  0.5194981205632080  0.6504024554469366
  0.0060821987387298  0.7660470967677847  0.4897669930286265
  0.5132058430957472  0.7231532677851565  0.4396408737396996
  0.5791932124079345  0.9196874813527738  0.9865567616774088
  0.6221759427125644  0.9941852189196141  0.0105718846254153
  0.1586863898286225  0.0818462829376933  0.4273636911547189
  0.3301825252096943  0.9132406916584012  0.0151440572484566
  0.7836209163139428  0.6317227776986541  0.1585158134945225
  0.1341718490871250  0.9203731911712341  0.0364047544726420
  0.3350965068533963  0.1715091863620995  0.8014479226271719
  0.5353948374965173  0.4368713107688676  0.6210339758197633
  0.4351276669049382  0.3969084514296931  0.3017514947477418
  0.2827733293668690  0.8264860284689121  0.7241253063571615
  0.5116836503269666  0.4186987202253475  0.1318800745614030
  0.7440252325458723  0.1234269882397178  0.0753226721410272
  0.2262823841521420  0.4720060137174940  0.9867131714428112
  0.4116589001864965  0.7215443334688815  0.4471359168284785
  0.3753233267735165  0.4876963751800938  0.3950316907758235
  0.3796166640601940  0.4394002187243910  0.8233366963248651
  0.1519551549326841  0.0067429793219694  0.1151986087410279
  0.0534997947656614  0.7469510851947647  0.2597999410800077
  0.5198366049323473  0.0220245396966064  0.1945510229917411
  0.8084303564720323  0.5003930205257996  0.4391089851435271
  0.6521311760007343  0.2187240929760624  0.4729595606920007
  0.2063978460962597  0.6033669723543172  0.0018289091947771
  0.4688693227916186  0.5850260722282595  0.4874523124744349
  0.5740245476716673  0.5103700177331107  0.4482883240835419
  0.8632100170191302  0.7728748996958213  0.4441843864366261
  0.1317461126775651  0.6023464076124720  0.9328763554235696
  0.8325665432384945  0.6605052908394691  0.0500211778877467
  0.8090889933070101  0.9148921382092895  0.8642756387500848
  0.9274263718652428  0.1512105059425788  0.8382200977594323
  0.5567974792857882  0.7135670861482856  0.7124534816300663
  0.9006172830219707  0.9175618815548852  0.8704364571997399
  0.5276080913517895  0.9728543957723362  0.8699022739416837
  0.2181203448015787  0.3740081977039722  0.7047978362582771
  0.2047985500314399  0.9647204760447040  0.6829003027639952
  0.5597371029150323  0.9270187438467705  0.6494085582242225
  0.5037383359596062  0.3899762927074068  0.3786031902851868
  0.7502819458160888  0.3280909643496381  0.0410782971412216
  0.7258866563749665  0.8596955756158043  0.9453680778722956
  0.5196819696491402  0.0059703698779252  0.2952314484832259
  0.3600366221134699  0.0283818957409341  0.1482445195154506
  0.5229754607908265  0.1074555202992280  0.8536703067322365
  0.3105325391742494  0.7651119834207535  0.6826964606339931
  0.1131637745433997  0.0219015034027951  0.3818585519471025
  0.1725491341907046  0.9625334864024848  0.7271599896842837
  0.7996419730067589  0.0655204636881182  0.7121012861021492
  0.5939486392167871  0.9400012336785740  0.2481857955351646
  0.8634557227865278  0.1655148846905719  0.4484243524416443
  0.9563476601315454  0.9840313991672942  0.6501904387092278
  0.2700186671709123  0.9110818510337911  0.4311631502164721
  0.4614814088001318  0.1609110395157609  0.1396390917455624
  0.6513913687987042  0.7209900579539770  0.1004453074206167
  0.8756578319232942  0.9243432762032374  0.6161853412307181
  0.4698604720905178  0.5698578167160964  0.7104755472164884
  0.6122114845213162  0.8520593493514080  0.1965331617469487
  0.9256389222584882  0.3777732786032417  0.8185362416190943
  0.0821631731398849  0.5900140054261460  0.8783318957404257
  0.2805847966097080  0.8214762217983038  0.6745574191844621
  0.9087416826500974  0.5140617210654347  0.7820567791681363
  0.5465869984374593  0.5155706577128524  0.4438365417479663
  0.6011737196454475  0.2920501611500191  0.6794240162664897
  0.3964866367579295  0.1844165710489652  0.8993795906846538
  0.3497661794957801  0.9956219427963098  0.3207964228282587
  0.3500538712851777  0.1071479929225467  0.4581392213757729
  0.3845978157881764  0.3666490859334241  0.6473941937986584
  0.7574954103324307  0.8807530179512056  0.8318333242546866
  0.5824770123505043  0.9055219190363293  0.1324666518643140
  0.1196233805126779  0.2177912589002477  0.3087570233284458
  0.0334450377574238  0.2610199509994153  0.6289219211370571
  0.0449617840820011  0.8502808898439396  0.4193871117665636
  0.6213357384615983  0.2120011197618282  0.5995295169041466
  0.6327681582935619  0.2896100922463796  0.8054060380184951
  0.1491545674387541  0.0526003412305121  0.5438782526132464
  0.1673419825531962  0.9168392564697866  0.4839184109249657
  0.7791350343513961  0.0590775928963764  0.5774444183487014
  0.1062521325126235  0.7822979113941148  0.8976165127781205
  0.5024240666212694  0.3786073050175763  0.7365719933108189
  0.4699899814253644  0.2567613216588727  0.7217078089180020
  0.8253187925999063  0.7896247500268156  0.7047689756244002
  0.8520680192190636  0.6452996515432812  0.8481169243626273
  0.3031515561516885  0.2423539939777369  0.9033692842308272
  0.5222812968712025  0.6296968063068891  0.1042813425911696
  0.4644341933989765  0.5229950285848542  0.8520027308496442
  0.5858601238617688  0.7738077999838282  0.1734195604635096
  0.4998187188909272  0.0149100501265399  0.2133434811489979
  0.5729662924428303  0.2883435078995694  0.8502385006019901
  0.9798956460865578  0.8762869190418178  0.2343860536864354
  0.5666759236103152  0.4532152862963685  0.4731444402973349
  0.3224614632808557  0.3054252794983356  0.5427940559362426
  0.1411158988620696  0.0193415181301135  0.1599963169167298
  0.6883818053182712  0.2451812174613704  0.2927079055998889
  0.7461724713527702  0.7883584811209347  0.8358647626105022
  0.8745174449766328  0.2537789249371822  0.2398048426131466
  0.3061302641968123  0.9452633244940307  0.2228374633248956
  0.8438918109816884  0.7531853099178921  0.0846956252316639
  0.8334305940951262  0.3227155798917216  0.8120411039594293
  0.8559491146107197  0.5541758691679533  0.4711862059067423
  0.8375087592636808  0.1912309105158962  0.0487952628927972
  0.4810589991581126  0.7764986528429414  0.9916766814151258
  0.9113106548674823  0.8480948543532288  0.0185312918662713
  0.9831306540145286  0.5801303158661165  0.8550270651514669
  0.0423949147483368  0.2150519298455555  0.7332726262465928
  0.5713143195176725  0.7091980181972667  0.0809491784708276
  0.8037736812516171  0.2308578819069106  0.3456818686286630
  0.6310450843636387  0.9367698321348830  0.3231692515174368
  0.8665274350310587  0.4340985419714172  0.4487003631909466
  0.5503790453450051  0.0340398908165639  0.7122829672093465
  0.9238269552146940  0.4443190587986280  0.0527955395398231
  0.6448146592290072  0.0729809718540370  0.4657887623457296
  0.7698284678530209  0.8574654573668987  0.1189772044162818
  0.2535903964275388  0.0890074980935808  0.2322224260144887
  0.3346818336530710  0.3169074596324026  0.0502918558027496
  0.9554601328289302  0.8466194153924755  0.9460007832900648
  0.0390023975703404  0.6224568826878616  0.6020879206114742
  0.4096421041197247  0.5785918683002305  0.8564147283575185
  0.0730659804491884  0.0320761499943994  0.8261216082110212
  0.2865172739985165  0.9891925345687425  0.3790626657653343
  0.7894518942351944  0.4195111923504242  0.7093554756553078
  0.2771803832827064  0.6378628774977914  0.6971713902084508
  0.8011140225886335  0.3337021261965978  0.7754293427274570
  0.8775469311005629  0.0528592923800835  0.5630980960555286
  0.3928510343736644  0.8213715912123170  0.1539301297219426
  0.6758027857545303  0.1410596004656307  0.5969403947886482
  0.0310849714082518  0.9628321848920787  0.7069972245823245
  0.4672646227417181  0.6182676400127596  0.1409986209940683
  0.5425624229997236  0.5322922792568348  0.9891263040142128
  0.3232202513463648  0.8511041094086008  0.4116610292932625
  0.7617155925069374  0.1282747386576562  0.3137812246024984
  0.0213982819471045  0.9391750131307900  0.1708264408265618
  0.2010288251580016  0.0372360754008877  0.8394526819035669
  0.9533571127788442  0.1287703426598618  0.6084681428064398
  0.4895822486473574  0.2850203308386096  0.1638967340871214
  0.1107239765129696  0.7394464238623769  0.1991180195990789
  0.7560677806207025  0.2333801320133112  0.3594067704307634
  0.6592862534600926  0.9499826126844161  0.7788748927801481
  0.5571539419197286  0.5731321379561392  0.6653916638411710
  0.5257611214319569  0.1734837199279046  0.7408098069430307
  0.8178139725089510  0.6949307104072628  0.3335240926326453
  0.1329956520924704  0.3988306368115607  0.6133642458333718
  0.1857617622495931  0.3451983793178496  0.4670951684681638
  0.5910555449675801  0.5089180662438851  0.6999040339054434
  0.7262509899511321  0.5264748873039474  0.9227790916078752
  0.3096738644314549  0.0967152015003264  0.7114463735679303
  0.0718655700170253  0.0158807514863757  0.3175866517892210
  0.1797772951220535  0.1315471644218909  0.0488367167112555
  0.9118532900747472  0.8990794985092877  0.4536935714990311
  0.7536552447109591  0.9257270069709769  0.1227971731459120
  0.6688693168527310  0.1692091354793117  0.9073575328414389
  0.5959717999992860  0.1513903298704387  0.2235453354529504
  0.9386505817264225  0.4634646560612431  0.1504469145479909
  0.1721116836860330  0.7213530534312823  0.3951269442948966
  0.6524931667341495  0.3965909334315801  0.9786101852438934
  0.5736763974648417  0.8367385558498471  0.0729208126723006
  0.6164728235753462  0.1599137481949834  0.7010198147495121
  0.5801982587230022  0.8566617740005420  0.4607445464094641
  0.6013041185073722  0.8007430134149663  0.2267921537580009
  0.0204929941396692  0.6974960008429398  0.6620691677875988
  0.6249301187730502  0.7845311341319894  0.5830608788692222
  0.3952138811713183  0.3926673430036530  0.8396168073442994
  0.2122675149155772  0.1770600874836591  0.8415245792141628
  0.3767146362326053  0.2019659547636138  0.3336168951722565
  0.7300786044453078  0.3207970589021369  0.3516356584746083
  0.2714386028118228  0.5923178626734044  0.2988770269178276
  0.4654517383834159  0.5801085510489566  0.8592156066814288
  0.8057297780919901  0.5185834087299529  0.7124918976769233
  0.0515780109129516  0.3134313786429268  0.3593664865892551
  0.7915290687891637  0.5266132373980166  0.9599450046664720
  0.0594446631195079  0.9052993854132210  0.7288919503724149
  0.7348084369070224  0.7191365834966447  0.1195709132076763
  0.4473819442186823  0.3481737207452927  0.1473547470347748
  0.0627869499418757  0.2875777089071743  0.1164429928582386
  0.6918795104671519  0.3931998828168741  0.9029743538819397
  0.9345542580509543  0.4741724490098984  0.5960234378795100
  0.2344900940522365  0.9170790184402454  0.0542093085830483
  0.3912488756336635  0.6984164637496605  0.0532410177828864
  0.6267346608932173  0.6000704756530416  0.2528246338977388
  0.3529711102705639  0.0770206990484773  0.9179161259034314
  0.3180901269400788  0.5424428701198462  0.9860622590353351
  0.9499228795533937  0.8825489884707638  0.2814836401437174
  0.5066106657941070  0.3100794335492999  0.8674400636629693
  0.5476071262642058  0.3487924596313535  0.1574934668734062
  0.3615092953781304  0.5443809212044946  0.1659495400112508
  0.2049841089490267  0.8032886856964171  0.6160789911676705
  0.1135427671082276  0.3309621621620368  0.0074733518403777
  0.8963908588912282  0.6105570233791390  0.6025544965169968
  0.0990117071983892  0.0343178009349018  0.9634679218999715
  0.3326060026102384  0.7870487749011879  0.3546952183414371
  0.2033930566857214  0.8842581773117808  0.2380670721216955
  0.3532684189673558  0.0753825079883734  0.9460387103434722
  0.3908035272186080  0.1129191213614224  0.9845149274435986
  0.7754620274751888  0.4353188791843933  0.4530133595660162
  0.0875190029570767  0.6656133945711229  0.0962979048694781
  0.1935511678064670  0.6538272906447889  0.4903959167634483
  0.3113030919519513  0.8083426824174024  0.2278834448481652
  0.4529656750720014  0.5562089263807083  0.1307932565588585
  0.7056835076645561  0.3758366467988612  0.0935328601458715
  0.6800557574039701  0.6008961780669616  0.7908127119071174
  0.8112363628205443  0.3285773283478226  0.1176564934317859
  0.4020436701869495  0.7572303214227697  0.1519982031789321
  0.7807624466357141  0.2350221024947216  0.4410012655405852
  0.2095529031421168  0.3341938979381920  0.2597036775088914
  0.5446821889484181  0.7311474518288466  0.2985411545523941
  0.4595438580679617  0.3747214177200316  0.7142025150034276
  0.7637541487062695  0.9919244716106379  0.5701873787929569
  0.8384309947203887  0.9272567459953817  0.1156323292969241
  0.9341557699370173  0.3144691923142274  0.5542885143221106
  0.5348299870814381  0.5843414869863850  0.0347691960373759
  0.1498908543507726  0.3957134118615668  0.9034467435989251
  0.0192054858764889  0.9821036664497433  0.9602915627412196
  0.8702372289560851  0.6022222542780543  0.6444835364453396
  0.8772381094739302  0.6923098750357262  0.4772338464217006
  0.6744418476927140  0.3849025387539707  0.8299207867027625
  0.5937387495956985  0.2771725795508194  0.5603170339907514
  0.1455462438915587  0.0321902212019746  0.7187166379915975
  0.2264170993577318  0.3912855897710465  0.7993767087049626
  0.1586996207250192  0.1433237592525228  0.2776845317944792
  0.1399944589330337  0.2190530705248022  0.1871179171359607
  0.7403106845704210  0.6428013329515431  0.4494112895239892
  0.0401988771551671  0.1816066818429848  0.5425227287020691
  0.6607294737314581  0.1618007785918804  0.8522685408749390
  0.7881028300442335  0.3352816218760711  0.8216887162535391
  0.2292009130006131  0.9545750454263289  0.6125874717225851
  0.3421259980658257  0.2443936067783621  0.0497477904680565
  0.8918130475395375  0.3809191455344324  0.9453376700952095
  0.4847892187218460  0.8961079365894877  0.1151085856481999
  0.7163156508427256  0.9195095188803413  0.9782997726029772
  0.3982016330225970  0.6953487688829249  0.0808677612618961
  0.3389959785842009  0.5161959365487694  0.3824462298860892
  0.4979672092214155  0.1238109998002593  0.4490983697896085
  0.0930684669231608  0.9344166976615234  0.1262691053972384
  0.7849312025140386  0.1913272105771582  0.8036740232204330
  0.4866859662808002  0.0270334716779958  0.1617685239702320
  0.2276400640102724  0.2168874769728006  0.2393609527971655
  0.4006300437116782  0.9783297723923804  0.0250326705052426
  0.2169624095788884  0.4960461966970699  0.7636830867843220
  0.4810414881937197  0.6388875209041494  0.7149180386765239
  0.3282428710236070  0.5111788129767049  0.7051022807742240
  0.5906578836813543  0.7418120820723091  0.8561361944821796
  0.4872890369688211  0.9236644371061862  0.5330764193793527
  0.4770745868783440  0.4845176145820608  0.0544207571664828
  0.9297389463168023  0.1328755279101911  0.6233342190427661
  0.0673989080535753  0.3273891635113025  0.6321668295619546
  0.9493195468348352  0.0321453900679773  0.9235269830399984
  0.5312682325472565  0.2993120943872382  0.8721568163178751
  0.2148015274660181  0.8308322865026755  0.8019943708028956
  0.1536444024903481  0.2187280288849732  0.3440926980359233
  0.2536898636640722  0.0973596415862264  0.6303839333922167
  0.2047435249410333  0.6212870549055153  0.8797033680527137
  0.9403872921988411  0.0611705377650495  0.8823186112363289
  0.2354056585480198  0.6038157985741963  0.0430941028950188
  0.8045258239480357  0.1945217827167039  0.1416191947649258
  0.6133937327163771  0.4392856463857005  0.3494661688934823
  0.3814921543749356  0.1737419172572822  0.5928347937623757
  0.2393885833713563  0.5681803062668778  0.8022826043843636
  0.1870561055060329  0.8009837194562868  0.9728439003369661
  0.1985786319511390  0.1250310462601665  0.0042954805295055
  0.8274646038888478  0.7767034920223366  0.9386145011623652
  0.5549843733227398  0.5165955208033853  0.3950282938746068
  0.6578364076318312  0.8732589115086368  0.2637023412791627
  0.9769303319063291  0.3620298666193676  0.9957880361307159
  0.4870175435353826  0.2792881785147472  0.0176049348196140
  0.0625842275424445  0.2160536966448397  0.0620344296652915
  0.3634515786857252  0.8948193069504541  0.8454005958118325
  0.1864700244954187  0.5737507569020508  0.3923837912468832
  0.8541294189699685  0.1366481665042187  0.6157148854427440
  0.8423741467191653  0.0484743192568583  0.7969089872295840
  0.2446457470326760  0.0779115257471185  0.3361500074970741
  0.5526656151217123  0.1519578389405840  0.6215928131655881
  0.2149536253493700  0.1011249544254514  0.7483546952985123
  0.4159863669787068  0.9945777839813447  0.9532612197470259
  0.5539729726932825  0.1562075760576364  0.0992583102920313
  0.0123443483012378  0.2144089216727487  0.1757621166504290
  0.5144843033964190  0.3685257511503058  0.7136051213257398
  0.8893945693564028  0.8407229332875475  0.2503718167022119
  0.1242960883004295  0.4126439249119411  0.1521045819002024
  0.4844925325591463  0.0496482523086282  0.9940536124386935
  0.0010744943308469  0.8385877686733332  0.7788424248175455
  0.2692585658760904  0.1026999334061337  0.7998817166899141
  0.4638962674731430  0.1973778868133594  0.5896012564392503
  0.7952280789626489  0.5930945296843954  0.0848342815287429
  0.5822887584855235  0.9069356523456740  0.0817742881812456
  0.3783761827683851  0.1656809774808235  0.0776293229818826
  0.1466306071131563  0.2165013334227158  0.3167737222242453
  0.3681805320584216  0.3166537175025466  0.3559599898781625
  0.0921237684490844  0.1262562687131615  0.4885665301427225
  0.6538004934041055  0.2253081364377359  0.8722472079594547
  0.1894965366075706  0.2394551198660577  0.6758830303242175
  0.7239525301121937  0.6009515839178897  0.6702201514992833
  0.6183833950987104  0.0209190837869898  0.9990335317485668
  0.6464560649889187  0.1395609306909960  0.2452347160594031
  0.1594168272779010  0.6053456055358930  0.0596338518002983
  0.9174944141028021  0.6048607826882847  0.6474456022411423
  0.6879509038695972  0.2378941831181846  0.4467788975004263
  0.5072214737057779  0.7220173777360308  0.4676491800097824
  0.9125371966980161  0.7139135994549619  0.8664828870426112
  0.2601461762284927  0.6325838275598633  0.6749425596440025
  0.3434616637855859  0.9642027087818864  0.1017688068702176
  0.6859067629449638  0.5796149632043824  0.3769495126385458
  0.8485090432452019  0.1030432145748987  0.4867299108279017
  0.9498379934895957  0.2512744655400612  0.5369319463498605
  0.6680002847059013  0.6575837425114850  0.9765500197679423
  0.5654057524421202  0.6301710344469313  0.1443262178104586
  0.0374341541298862  0.0430968068260537  0.8005472367746580
  0.6780135048817960  0.9538503998325782  0.2516268404350918
  0.5061147238136077  0.8375759714960257  0.8334925892527093
  0.6344946614511422  0.7336142876335474  0.2466669458077890
  0.5315255869157152  0.7787812198361751  0.6162694380836713
  0.9554463261043852  0.3875677906528865  0.5027696875791305
  0.3178312706633522  0.9641948359174343  0.1132153056202705
  0.0572739056392163  0.6776429158305350  0.5606360020129620
  0.8927864256176631  0.4910449396064268  0.5004038571076803
  0.0649053208509396  0.8741327818965866  0.1869504130310624
  0.7816126475827599  0.9148375820563679  0.8701499972215622
  0.8159456667420584  0.7180427106285213  0.8877577454970529
  0.6006126631229911  0.0049869045243280  0.3179052991599894
  0.4352675477316491  0.8367531143530201  0.8615998225049509
  0.5629462758505662  0.9231355073172492  0.6221933812925545
  0.2052214647301797  0.5365188055845768  0.8906248223112224
  0.3236467307385892  0.1550048013667455  0.2132467366007182
  0.6103118315161422  0.7460746543353749  0.8167507080912437
  0.2231798367312475  0.5821108890298323  0.4203904581864674
  0.9397429813341205  0.1194392741065206  0.0799621241502990
  0.2052077008333511  0.6753853035726010  0.2216826131066563
  0.8124524118512265  0.0921080671743841  0.4566056437268389
  0.9293937122092860  0.4512871287682413  0.7810549939199422
  0.1995845094997875  0.2868939167563888  0.4354879605931182
  0.2233779632725747  0.9419219564686798  0.1503071145272986
  0.9670078852262457  0.2390443008187568  0.3866785122809216
  0.8524405095864481  0.5082420330434715  0.3472750714132894
  0.1960123434044088  0.8542844643893002  0.3814829769208999
  0.0040444964834158  0.1582028032566522  0.3504957245606495
  0.2896861710974033  0.6693631667068669  0.2778228548144654
  0.6807855254944115  0.2572126786179100  0.2691934771875388
  0.8836541660617504  0.1136143727316231  0.2131593470582671
  0.2541454862514321  0.1684394111639168  0.7373705156056786
  0.6637617062889057  0.6465036268103477  0.5113084671451117
  0.9315815304568544  0.6455621058820047  0.8773953470281639
  0.3738850814554480  0.0094859046902407  0.8908664952991995
  0.8610810768647015  0.1225505342386850  0.8305383433439553
  0.5649311422936151  0.0894396517452457  0.4036060766803987
  0.1244045087848016  0.7206498634179295  0.3849087427796022
  0.1597565329733963  0.6073801188784821  0.1445997591428411
  0.5527725419408597  0.4130853161365954  0.2054929197817312
  0.8677112019022870  0.7351592206838058  0.6258976168963073
  0.8143599944415852  0.1237899753694821  0.0515899153681413
  0.2068382648233975  0.7903486040861201  0.0131677750114759
  0.5619974585755966  0.2782609839898962  0.9478779810449065
  0.3997152520208199  0.8413796608653076  0.5385190206837963
  0.0170525706675973  0.8333698314026105  0.6903230750258266
  0.7933499638535009  0.1375611140706985  0.7257679616104740
  0.9394701037218260  0.8474716629200942  0.0672367401898815
  0.7582497378596351  0.0563991932969198  0.1149020622709188
  0.3879753322121256  0.2482686645958279  0.7437830354171678
  0.8638189518369107  0.6715392368825107  0.0879750505818801
  0.2267985171756160  0.9593696007785720  0.5368834157540711
  0.1496111336537298  0.5552187335220347  0.7058828045028140
  0.2053857144457886  0.4279316292833463  0.4437774316586531
  0.7869049611956168  0.9865013328801923  0.0747497810433014
  0.3117913153863077  0.2750583844958585  0.2520596818048147
  0.5421659313340542  0.9191781868557476  0.5790923563345255
  0.7683161666529412  0.3207861859586746  0.3202158553350046
  0.2434687130962666  0.8822296392160341  0.5992754066483521
  0.6455304804187117  0.0189788424749725  0.6875664626335234
  0.8431086785600702  0.7009357050726315  0.4099800742292408
  0.8966885755700694  0.8502269533279680  0.0917855823391567
  0.6879107404617191  0.1265647210237778  0.2113425660473660
  0.9505484145423642  0.4434347997342291  0.0024267268698671
  0.2778639351417194  0.5130614224096599  0.4986610363560133
  0.9205709303754518  0.7750805311493790  0.7212911504257568
  0.0793629908484944  0.7845330108711935  0.9061214195273675
  0.8452263445281724  0.2776203555251170  0.6593819543877631
  0.3949022186384301  0.8549465564604699  0.3892434973591021
  0.6404862365484917  0.4133438614969844  0.2059789912949445
  0.3378687881702019  0.0383243417878361  0.0702056685277707
  0.3731688219705417  0.0917580795164092  0.8799405559286417
  0.9154953388053206  0.4495289809788279  0.9560305900585890
  0.3666402211041266  0.5751185216200811  0.8297821189824758
  0.3949570826243802  0.1831028859834541  0.8478936146819356
  0.6604906709177972  0.1079680926426480  0.9875222371579074
  0.2100710338368594  0.9742908156418086  0.4850478515204756
  0.9145349252209524  0.7463561418715670  0.6499468418125970
  0.1114834225259479  0.0314682116575835  0.7863953675364430
  0.3762264191503361  0.9351785814124832  0.2697863015821741
  0.6669867298053445  0.5141953798991475  0.7627640456408089
  0.9344035094464995  0.6657518862228218  0.2220129141532802
  0.4545148909890583  0.5970298318960668  0.2883025054954396
  0.5552246937400398  0.4031822567793982  0.0089760599140267
  0.3075654932265064  0.5806782344686671  0.5931101050907196
  0.5710347341184868  0.5422781438808683  0.2258589819062407
  0.5381308750713991  0.3779893225417318  0.5087833450534215
  0.2482117747247870  0.2130526624688933  0.3216538287523505
  0.7705881608146165  0.4255299091204495  0.7615015166601079
  0.1675619448438666  0.9649971349306194  0.6520705343514790
  0.3630004683805929  0.5568899146480627  0.9685126889559035
  0.3830959789058493  0.8312116995396934  0.7428264820630507
  0.1279514775072621  0.0319433567468397  0.4371806214388547
  0.9909838591302892  0.3640815104285334  0.9693514409823404
  0.0868450384067180  0.1023456052624532  0.9057555462113653
  0.3177048609129715  0.3750098458960548  0.9409705497607543
  0.4869848587805874  0.8395350087322559  0.0273629016523491
  0.1614466798214277  0.2881137656088120  0.4076541668664262
  0.1803573527173048  0.2157368983436594  0.2504015992089854
  0.2590940939524060  0.3316930246401796  0.2461461277026614
  0.0318978445467069  0.9213097119305590  0.9865659944348750
  0.4606193345642047  0.9591761592500648  0.1572590871024840
  0.9113523257249546  0.2364142437318278  0.9169236054778477
  0.3505599718634686  0.2460458684004375  0.0219800453270745
  0.6263283869074491  0.4455096639381811  0.3737433208712326
  0.7077948902255781  0.9157916695459770  0.0527341313817044
  0.8036031708220402  0.5834974073291987  0.9134236368672581
  0.3804373961534495  0.6329894873814561  0.6322288736119647
  0.1565452845112514  0.5810087909170134  0.3132797898770567
  0.1273220494839227  0.7785678416872475  0.4447508292338476
  0.3069459086735384  0.1703004423393506  0.8046973582496200
  0.4972835291077734  0.1584065996839075  0.0484570163038407
  0.7249306866545108  0.3290732662072569  0.2284394664735125
  0.7921727229359891  0.2313944148263198  0.3928950178657437
  0.8100505788416903  0.5250693029669378  0.9379130180142979
  0.4490388529552579  0.5810622267744603  0.9328815219199333
  0.8263637878939315  0.8540206671444495  0.1695829859973123
  0.8112797316913253  0.1852259453533220  0.8846506250050475
  0.1245758802485852  0.4520821226719914  0.2622472931725153
  0.2402518528961158  0.8584416238749560  0.3594866346846785
  0.2807769415508821  0.3427701026164378  0.0935067196382608
  0.2453710190399354  0.2751528102684252  0.2890603130734154
  0.1192819654932724  0.2485885489620747  0.6431730961269471
  0.9316836373362571  0.9195717091728193  0.9900438821855205
  0.4819902489951611  0.8541730485275496  0.2911350060637735
  0.1713096122876982  0.5345467565258206  0.6339836005524981
  0.8856019810110244  0.4641791206126257  0.1552755050149718
  0.6686144633206458  0.3685556294373707  0.7335310151950702
  0.6176910940836778  0.7152384039048967  0.5350864850715188
  0.6991420325862627  0.8548879371315321  0.0949146508211650
  0.1821381970178507  0.3919727240371321  0.7781931617609255
  0.3454803209905780  0.6472034866402434  0.9355374998611476
  0.4930103353274535  0.6887530905082830  0.1605854075257268
  0.7364322856632136  0.2751227598319098  0.5712987466715511
  0.3769524441737378  0.9923719019889503  0.3276870640012643
  0.0781440959955408  0.0834416630241880  0.2191326425322607
  0.7206592925459868  0.7280709890344306  0.9891873420203228
  0.2162168661792002  0.1472103168236667  0.1415949543175179
  0.7124403480680184  0.3272661159462412  0.9474845777985128
  0.3014244204370939  0.8122141904433475  0.2015926759635255
  0.5728937916399357  0.3237511792417975  0.0144592664328866
  0.4261597715814225  0.5710614028479998  0.7331515061764851
  0.4939871837183097  0.2388654708404062  0.8144133214067956
  0.7413728233541914  0.8584532788716563  0.0694757945001893
  0.0386095659220546  0.6116563757984524  0.1885711076687215
  0.3559088591264774  0.2133133441577060  0.2510396755384128
  0.7683678345807071  0.8562801963481801  0.9192124274972907
  0.0465436258534369  0.9767876509955208  0.6110571807509345
  0.9903924998179000  0.7272065851297947  0.1464791649836772
  0.2811241434285045  0.5663700169665161  0.8292681167245680
  0.2765777505159468  0.3798319576588450  0.9653465205008016
  0.9661653591567002  0.4931966232474236  0.4441292884984844
  0.1761473237408888  0.1269751624367015  0.0211943070044044
  0.6566632156434775  0.7363706583206252  0.8758321492022491
  0.9354765846993597  0.1898622396274640  0.6088843523866657
  0.4797927126115845  0.6788721278968793  0.2089713005339691
  0.0869196075505711  0.8386886235493493  0.8761057690942350
  0.4193348938776502  0.4415852696891511  0.9911769942400446
  0.5985111474458885  0.9916282534643226  0.5258481502742670
  0.8731056484034545  0.1260944890240890  0.5695817203243442
  0.5276603872062043  0.8058154157117933  0.2398645278709845
  0.7524226756900724  0.4300178548474201  0.7395040080542652
  0.0989624026239729  0.1484754411908976  0.1995851416140891
  0.1321423556137098  0.1711623649646608  0.7789305057646690
  0.1718653318782092  0.1050292434397049  0.8093687427335859
  0.6098705640809355  0.1606070419334407  0.9900154664555197
  0.6717871222048645  0.7867349658716731  0.5659017359899856
  0.7800405656386810  0.4287804169472125  0.5485642728314810
  0.2852697574808156  0.6961849392976988  0.8505602322388190
  0.4465834966925873  0.4520294455438290  0.4480916805784190
  0.7827010593149155  0.3988144687061041  0.0476175572409734
  0.5965639835729625  0.2969074636939424  0.2988816483067395
  0.9967149743438021  0.8491587077361934  0.0674184038616567
  0.2508919133298518  0.4044975439784909  0.2256689558452579
  0.2887418610787691  0.2763209871237177  0.0967564280148420
  0.6100239733937510  0.0897637580204613  0.7786165559375301
  0.7077264255888528  0.4433025491696516  0.4283279922493102
  0.8762447578401357  0.6483384671877750  0.7008198745467482
  0.1019914699847439  0.5328702470802300  0.2462077629220827
  0.4524793900517376  0.2883082999754928  0.1320131294785997
  0.7689159894553166  0.2358565407818453  0.3122384983671018
  0.3864368259845962  0.6730775646266880  0.2579399482791160
  0.5576012911521898  0.6644201568825421  0.3073084503768609
  0.2739923750757957  0.9614350574014613  0.5227093594401216
  0.6978265186470843  0.7148696240831136  0.5092599493328015
  0.3153276090195082  0.5400209839606687  0.1830093320472034
  0.1111998373631529  0.6572490355035340  0.9190040561656664
  0.2859212960866632  0.5119549202819225  0.4497515387816099
  0.4338523367602103  0.9785142197005835  0.6436187495258607
  0.1577054252315462  0.6860500513024702  0.6386743423632203
  0.8959970055398038  0.4606724203043842  0.1299256607327452
  0.1110616202752824  0.6009204505619454  0.2592012387436211
  0.9205156554743880  0.2632584293711550  0.2284073211664237
  0.3167318987839608  0.0066919522357931  0.2876535851350485
  0.9488224867050936  0.4051516730585612  0.2090781355823231
  0.9960657690593161  0.3962586259062377  0.6672194431965425
  0.9957074026478898  0.9639871026542713  0.7516541345093130
  0.8979377568883818  0.7043699118103559  0.3944232646844497
  0.2152899136818628  0.3904650906830143  0.6097443896566558
  0.8868593972906106  0.1885651748879429  0.0424956019678194
  0.9262750622854516  0.3970785606168931  0.3088894102886068
  0.5258676530717463  0.9845173046968165  0.9934920575718954
  0.7055991519327980  0.3936407841833149  0.3669457848526368
  0.7929964999506657  0.5985725706702441  0.0364242813438484
  0.2173753265965201  0.7265894243366453  0.5359701042510172
  0.2019991114498177  0.6564596996671577  0.3505398782642519
  0.6000817170396194  0.1510801538804894  0.2519419967132824
  0.0982431375531481  0.4269259286203826  0.1863835235263004
  0.4680222355147903  0.3673382200026241  0.5919246246434562
  0.7203373530580600  0.6452134303082921  0.5021941923908791
  0.2208831370601970  0.7871040677290559  0.9404998053864820
  0.8285169407137161  0.8991035457240578  0.4572120837833422
  0.7607893731517227  0.9864554182977789  0.0858579498350228
  0.9905238014993010  0.6129263081200464  0.2169376972347605
  0.1508550474403573  0.1910898868646969  0.0003522399762194
  0.6972638943361915  0.4768011845416837  0.2756669909155650
  0.2395952367924437  0.6709848058551192  0.1295838835710020
  0.1072175654154214  0.2881726485012983  0.1785784720178297
  0.3915190579296493  0.9706314653938969  0.7667377527085129
  0.9249594079194942  0.9777079463701777  0.0383466186050703
  0.9700324142005301  0.9097220708017334  0.4952118028198789
  0.0885541903619616  0.9718938107425499  0.9130554227957273
  0.7837993860375491  0.8581235865165272  0.0939690316812296
  0.4109452317051950  0.4624710107806074  0.8527787053358968
  0.0019193134897076  0.4480123261338553  0.9432152942313125
  0.1914148426051042  0.9599125417424426  0.5809649126597400
  0.8537379110027798  0.8900338477218747  0.3079527252994820
  0.1159884836596688  0.1819447817844943  0.9565252991200287
  0.6928319045549782  0.4415680142437095  0.4516425706421146
  0.0030634422126151  0.9646184455592232  0.7034005474967424
  0.3812891655612532  0.7233520033483436  0.5899820881450349
  0.8469141686319618  0.9745370611357816  0.8378730747400933
  0.1155977045836681  0.0888993262517247  0.3363524608055169
  0.0197356207318321  0.1532673588682639  0.3273332131102762
  0.3953474118569640  0.9037454504877325  0.6713713482951521
  0.4439921482294356  0.0561250751397861  0.3735555774477046
  0.2932768131487479  0.4042476329674224  0.2504921291314993
  0.0127284140985349  0.6725858841766157  0.2541906451151504
  0.3338960418051663  0.4069350387230228  0.3720432209120352
  0.0214745599998906  0.6657266954985022  0.1505209150890623
  0.7221007472551333  0.7408186862959468  0.3013047310932093
  0.4622968142007359  0.7935321206632823  0.2766922658859778
  0.0233704092281039  0.9219927497661965  0.8747470627174930
  0.3637952167460203  0.6443429536814506  0.0341237124592246
  0.7809783374813511  0.7213407041134987  0.1011292683702134
  0.4252819458026110  0.7071406763989915  0.6237975002547191
  0.5361939362284861  0.2772492130264454  0.2220008275979776
  0.6377421987842831  0.8766892973153193  0.9023932993993077
  0.6269898137550012  0.7257332491247604  0.3774106134206914
  0.9843690772035242  0.7010647298672609  0.4502536709239386
  0.1146022671530142  0.0859214507673741  0.1870578841717151
  0.3128128164000736  0.3991761739123795  0.0837098282656034
  0.8290152595739997  0.3959131128433492  0.1185858056422168
  0.7816233279584806  0.1865224346895619  0.3303938551757228
  0.9207569334209752  0.1233507053437351  0.1247403040519444
  0.0593572679896790  0.5270812328996373  0.9871696588523310
  0.5482925770281349  0.9835716314341596  0.0116324912964618
  0.6427428595413550  0.0829048295971001  0.6552710145149766
  0.1939461527025833  0.2144598887361857  0.3054381185710272
  0.2168208193865226  0.1980081749598566  0.0370047145643110
  0.7999136797051756  0.6739755456972486  0.5657815337846314
  0.4293217903945442  0.2606585268250474  0.8880831485928958
  0.8938191527331301  0.3832578512927576  0.9943032836760839
  0.7554506562765472  0.2939072531210982  0.6645931455544544
  0.1859712915260337  0.1740904704390571  0.6458390844053752
  0.4513280080139349  0.4611352993166295  0.3460439061517868
  0.3807834088203368  0.2487148854301944  0.6658724546259444
  0.1669252434874931  0.2126139119492560  0.0926678569870762
  0.2412194597742597  0.6674175243758697  0.2867703246843510
  0.6050639430175925  0.9569072115350251  0.8350409990349205
  0.2516718188806307  0.4055653560085618  0.1770673415731127
  0.0451290208251459  0.6197118040823344  0.5522466520312992
  0.3007260812828691  0.2249772959997746  0.1330066735839129
  0.6752622222222963  0.0313226437977360  0.8329985816162996
  0.4802099943997761  0.4516907997796100  0.4731277664223362
  0.2238441629456926  0.1064331156796363  0.8321417769136621
  0.1290639860624040  0.8470785532786681  0.9483899591905848
  0.3504801825695292  0.7043747793402344  0.8887676632674520
  0.7877331401222463  0.7528652686533625  0.3353173338195398
  0.2152005259246185  0.6236269659439760  0.6559901996267294
  0.0846083137892358  0.7906295272152039  0.5374022838976154
  0.5827502818476837  0.8513710354319333  0.5574120722086761
  0.1097151448698101  0.6059829711056335  0.0611197217252065
  0.1362753143176604  0.3965252303081553  0.2722699995156644
  0.0612285928228003  0.7459525697888982  0.5530999536169298
  0.4690074237195970  0.2874575311767090  0.0365937239871225
  0.2007235186385069  0.3379962908907970  0.2015257780523078
  0.4566375476162315  0.0555705432409084  0.4865543341225367
  0.8483486960059915  0.2512944674077601  0.9927801933333841
  0.8550031360807908  0.8562341703115445  0.1675827348445730
  0.6722088350980421  0.9393399257704446  0.6662872733805394
  0.6233479928642900  0.7159412995409146  0.5072859328790340
  0.5129282445789203  0.6669788933624455  0.2784592397075348
  0.9830588069944332  0.5489345602756328  0.4723905226221683
  0.0345119477700003  0.5955634709984100  0.9652565577305261
  0.4273654849635489  0.8341738434155372  0.7644610733583750
  0.1787851872768270  0.6752888960620241  0.2117668640602235
  0.1297025709586223  0.7246679577264626  0.3574405297744713
  0.0414731638742245  0.0844311741319639  0.2514172406076292
  0.6573908977901300  0.6574832597759275  0.6593098298580362
  0.7860757383799981  0.3175843351074907  0.3418722609487616
  0.2781236181862973  0.8428130353982307  0.0609051796569826
  0.2148880593195763  0.3392027225918830  0.3486741237577567
  0.0085086525379263  0.6429034102242419  0.7209593844028559
  0.2537321840694765  0.2021384704765533  0.0774436964590951
  0.0790102639356524  0.4582970319253118  0.3172971295897694
  0.9318049340206441  0.7729814063909454  0.9014941266207871
  0.0323448910810768  0.6429369118347853  0.7351671411833893
  0.2251839879550251  0.5326132907439094  0.9433403643263748
  0.0017394853090443  0.0538681025467649  0.5510616325204840
  0.4071927475796578  0.6386295568523865  0.7021817914460562
  0.8127508585405865  0.1181876898824055  0.2370379653665473
  0.1671616197611843  0.8289040339116315  0.6808883291957476
  0.7826840848343039  0.3126922670507349  0.4171450086622611
  0.1519691934661197  0.7930963103479565  0.5678352361299490
  0.2174188006544346  0.0870431169977597  0.2662240143637769
  0.0463810480812593  0.4127277327034710  0.0854603733101079
  0.9371338323550750  0.5924524279012247  0.9694875855765908
  0.6079808255214771  0.0859431140825136  0.3416302051831254
  0.7310638125441385  0.0539737681949414  0.1205239365902283
  0.2178336369772569  0.8797569006925905  0.5868031136729569
  0.5459737827929754  0.1659132361618695  0.4468880332228787
  0.6320785612115531  0.0978317804932364  0.9491788759706765
  0.7634833521636875  0.3906271354181188  0.9256144419659024
  0.3241390712308697  0.3073138535521517  0.9560455464443000
  0.6615667545646307  0.9250706988160936  0.9841274923221744
  0.3774999492845766  0.7027384374104313  0.6122309714490551
  0.5588536843142143  0.6449160389306611  0.5780431387217316
  0.0731404738645489  0.1093084165079714  0.9794056874029812
  0.3372159834875802  0.8028779722371270  0.5774200748920175
  0.6198759732015010  0.1605914637959666  0.7291474454416258
  0.2358227741205546  0.1893098969608077  0.9855939536160957
  0.8584948836868399  0.4665235460291035  0.1597243479788573
  0.6661281857657610  0.1559988809642490  0.6975448008374182
  0.4471691324280573  0.6461246277509931  0.9434649193750582
  0.8158601139866754  0.1126639307421827  0.2652705392635056
  0.7027804856175602  0.8058991187532601  0.2243628603539083
  0.9397659142219270  0.8965269370064990  0.4059680613386130
  0.5106646363602775  0.9236736807029448  0.2123835128570205
  0.9824560706094290  0.7157942598614289  0.9389913207169782
  0.5573915674207439  0.8371127767990771  0.7795693015557702
  0.5302025135205803  0.6523640757610567  0.9289315891526031
  0.6481132807747453  0.9410071683947172  0.6510103023616428
  0.0573187237328245  0.7140776648171390  0.4562762425083250
  0.9869711004967444  0.2639787475619971  0.6479570412915833
  0.9107579879113227  0.8378115943862768  0.4381701978833839
  0.6754198610802149  0.5117210314016695  0.7142419691593289
  0.5480436975624371  0.1485736870026760  0.5628127904225431
  0.9711517893079090  0.2093092865081049  0.2159798732993033
  0.8498894013860078  0.0471706286207301  0.9192105376578529
  0.4129794428936892  0.1622354870923191  0.1453345942494560
  0.6449154675195790  0.3104957676253163  0.9973777277820493
  0.3292361736132710  0.9806722662396697  0.0299264029159805
  0.1260067891849710  0.9614875355786777  0.7448513518314926
  0.7633508263487292  0.4303415976980512  0.7885353251197348
  0.5623099982078001  0.3366258112670992  0.2520254542674225
  0.3822417644483980  0.0933524192012211  0.1120219796338431
  0.0030726885065465  0.4124450447030482  0.1090163479286131
  0.7099895852274557  0.1895641772239129  0.1626571503224088
  0.4115690952773423  0.5076368778962326  0.6449041690113976
  0.0391433405967642  0.8446692809439386  0.5663760275708380
  0.5701353005671833  0.1541063698026675  0.2124522184407441
  0.5343874329698497  0.9069557268271421  0.8147056072208653
  0.0674346997359643  0.9309119935231851  0.1128457357943603
  0.4357194153111283  0.4863144221339179  0.1190003097575841
  0.8395385829793125  0.5952805812753271  0.7116806856012353
  0.6351956040844801  0.7179244361296127  0.4518312639955404
  0.1420217134910615  0.5032972106490237  0.7758310468380626
  0.0559150863561429  0.3158698674396634  0.7060135621528338
  0.6093938620825576  0.7885790129504923  0.0020197197054646
  0.1931896814224830  0.7200902461535249  0.4142004444229924
  0.3360717565322966  0.2439660414212645  0.8666890218304256
  0.7088598497835622  0.6017088286586089  0.7909672158005098
  0.6992932289387929  0.8903114072157216  0.9107814830113493
  0.5213631761267842  0.4066939189350869  0.2546269515245214
  0.7090268614873793  0.7443702923367537  0.2546602231198013
  0.0970256990492687  0.0873676370062545  0.3150218330489762
  0.1825541847102779  0.1162719597843435  0.8925106175328603
  0.4897199397511455  0.9733745236768865  0.7775444017262554
  0.7898805853587749  0.3775977423998830  0.4092917979124525
  0.8325602781491012  0.0484947916982131  0.8235842893400952
  0.3546741004146067  0.9453060759012022  0.2277991095107018
  0.1712621157205688  0.9266867867928357  0.4281350943538475
  0.0235870789282176  0.4664397365063225  0.6382155182063148
  0.2182726387820598  0.3971472890941221  0.0079346248925107
  0.7124676945484949  0.6044626794550172  0.2587806302264213
  0.5933988768429327  0.2124125514477943  0.2904102215762098
  0.0606605551327870  0.0959352903325217  0.3466911571206066
  0.5757521261952222  0.7188311860360003  0.4969900335111315
  0.4173996398059542  0.9057117258698122  0.2179216262057625
  0.1479611016925511  0.6263390616086429  0.6859702056439092
  0.1010749904660230  0.5939813198661740  0.5103126179567429
  0.5086321380249745  0.4603931959249743  0.9617909930156220
  0.9319263752099829  0.2367484740376044  0.8039979914010719
  0.2142281267401742  0.2144092931567362  0.2860851366417662
  0.0422954603839880  0.8080978047466232  0.2119514210100439
  0.1919277014280110  0.9309169426774887  0.1152821342331924
  0.5218693133374031  0.1770505159344696  0.8753701445838508
  0.1983520519777778  0.6252736525879540  0.8328304259877520
  0.4544151179721361  0.4847983609085382  0.0725614301431189
  0.0216452562496225  0.6332770070670183  0.4678646036690655
  0.9589179713346827  0.8281039421731486  0.3643701822035736
  0.6771429574544683  0.7393596160924503  0.7194710145991409
  0.7743737130747554  0.9116795027356166  0.8980588875160367
  0.4686920877200549  0.4052841822699557  0.9605661165305313
  0.9638115043278126  0.3224691293028533  0.5931264322613463
  0.6499559055881799  0.7390005885682470  0.7279320061292957
  0.7368368676455543  0.1219234918185486  0.0189433405932194
  0.4187144231275486  0.3832493121013326  0.7400552619934802
  0.7741056734026708  0.5257830359685910  0.0564504499334310
  0.3823294364839243  0.2522485491512899  0.8776087385589316
  0.2233386523216385  0.7777046545562725  0.4844258718934508
  0.7981814170796824  0.3244979411187742  0.2401490980097243
  0.0161291228603513  0.1822322287676374  0.6727459429508592
  0.7879938453107036  0.6061296005253740  0.2494608259139715
  0.3053492750792535  0.6382259929877964  0.6937717714707951
  0.2422858554140934  0.3841971793073491  0.6077531241593651
  0.2556122085263676  0.8119302769797505  0.2200141113430243
  0.1294831433395454  0.9464010755529817  0.3388991346822715
  0.7964050934624781  0.7626756953542262  0.3819119965262450
  0.8786877741478480  0.0506415325884331  0.2144043203725030
  0.6849456640958783  0.0054724508620347  0.6501024399290363
  0.2775304512410489  0.6529707457178450  0.5496159374155938
  0.2034556779326017  0.4172885276500470  0.5414092385117412
  0.5289540663048542  0.3003622085714082  0.3294601622653689
  0.1913662560952540  0.2792922269074281  0.4841209203474109
  0.0603208719848597  0.7795436447686291  0.4109079873973476
  0.0565570141310425  0.5810158242089645  0.8373417272432297
  0.8156695998277195  0.3293272794696120  0.1459525729481098
  0.5747314866630008  0.7900998643337902  0.9666635361778325
  0.3896833325335308  0.1939456619326229  0.3885138950836181
  0.0301514607192631  0.5347321011868775  0.6065645794867564
  0.3551334163051757  0.6460056059376719  0.4882701399901915
  0.5300049717611077  0.4695307087019738  0.2655653983053997
  0.9613473298979250  0.6044300891724330  0.3013718895337239
  0.2180739261231303  0.0183471588419784  0.1833831837723110
  0.0872387854516374  0.4938986655560124  0.5760256499486768
  0.2198254779846723  0.8100058360801610  0.2641154024630398
  0.3120716357325642  0.6530316108588731  0.4166024283445601
  0.1302355212153505  0.7869762012233212  0.5178208678768007
  0.5232790432773100  0.3950462060394465  0.9097614667245898
  0.9370800916082863  0.8381247166502646  0.6279560007526823
  0.1530454877455664  0.3480137711901051  0.4284569863163976
  0.6129840484217268  0.1578364819440304  0.8596311849791277
  0.4279534172217010  0.7849242922928599  0.5458878934422515
  0.9604209131740501  0.2366045378873431  0.3593301808297026
  0.9452695721443476  0.0274552322819471  0.3422829473078943
  0.1797204385917350  0.0886056763695328  0.2236212657144830
  0.5028215267303131  0.1096952207325203  0.7181035684665250
  0.2938332661304359  0.6979226003900337  0.7644472733219276
  0.0523076878322307  0.3414640196270999  0.5484371325305444
  0.2375099244210627  0.7383630219063432  0.1911139471554479
  0.1646174043346028  0.8604617860984718  0.1191441674218713
  0.7498566764579246  0.3546263386876440  0.5807090869187294
  0.8586605655869363  0.0224317530309138  0.2906043760245120
  0.4180010474271161  0.3905068909211555  0.3743746935814448
  0.4252719506864147  0.1203579532775428  0.5240029996270100
  0.1652526220177148  0.3428325188595284  0.0308627387958474
  0.4002887740075760  0.6375882151075527  0.0002370113011950
  0.9931666731170578  0.8921054035886122  0.3554496370344823
  0.9964559214757085  0.8524069370467785  0.1157354714426988
  0.5388768950097772  0.2101121323466623  0.9370906131992027
  0.5241346376981388  0.2249704429072672  0.8819971481450829
  0.2915171065521234  0.4238514859418462  0.4438162525279559
  0.7964575521213531  0.6380938223273364  0.4399871973380801
  0.9254129742655647  0.9192609115357970  0.6137504003530984
  0.1778988861588394  0.4203366157047622  0.3950422261797740
  0.5278104586146055  0.0790522580436652  0.2787172378620670
  0.0773854814637038  0.8831701495307775  0.2590144031644890
  0.4357792990408111  0.9143997200323736  0.4347358646189581
  0.9755985410524526  0.2726386220433436  0.7215109710179421
  0.6957404123314895  0.8619182520564365  0.6038844344471516
  0.5385676407193033  0.5958863257657537  0.2950004852534212
  0.3501533630615780  0.2993966829306187  0.0651189446314303
  0.9025406173529396  0.6518474957741759  0.3413485329317952
  0.2295189374863931  0.8757669594649362  0.2873787267268668
  0.1113440353358323  0.3043939496858057  0.3982733305600811
  0.9124826502497317  0.8560788455949893  0.1632931538406690
  0.0778769819951809  0.1666465911720545  0.4337814896905769
  0.7118163037475624  0.2592121785323139  0.1297062289304336
  0.4072340128797744  0.3374565322793206  0.0565638108398570
  0.9962776490625860  0.9300093961711713  0.1310042876941966
  0.6538556142849792  0.7190630949873701  0.6005959434790334
  0.5881760067071781  0.0889306709346303  0.3869275321950699
  0.7064076773269309  0.3697560552043325  0.4602926823929278
  0.6527242813059390  0.2114203193205645  0.5389603573126682
  0.2627821248846547  0.0898357757269811  0.2046790743560734
  0.8822851186882721  0.3259252684352018  0.0907658644586457
  0.8798804045122065  0.3953068703505910  0.5755584928624151
  0.1418239933465562  0.1473540484872543  0.4005597016000621
  0.7730309288109628  0.0651428575064089  0.7040230742352908
  0.0158539729187697  0.8456166844676086  0.4175922512898855
  0.8050289174132779  0.7330647147450023  0.7050402467445714
  0.6598658095201064  0.1552921973006452  0.2970712562758259
  0.9154575831862929  0.1172289201144776  0.5189653269842385
  0.8235727292210910  0.7738353114202620  0.4167730048914968
  0.2016073845209231  0.3854719142845756  0.6338632340132797
  0.3087575290427816  0.4758802943573709  0.0612691917917694
  0.3997090270244654  0.7024051109272695  0.8337909654401111
  0.4283856440351436  0.1763304555996070  0.7618985332474417
  0.0270701033861616  0.9757668807236630  0.4384937351886471
  0.8976005277424534  0.8968608892953858  0.4299636532930379
  0.3982532569626261  0.5185951341947403  0.8155460025859439
  0.5767098281749754  0.8651964654963755  0.2649123736065473
  0.7498335653993192  0.2015359438836161  0.7639822726166153
  0.1697511095648767  0.6144620614131093  0.6360659691367558
  0.8919838725703023  0.3261067469361064  0.6067977672359419
  0.9505505412857563  0.7651397960574653  0.4032992934129946
  0.4475224339765949  0.8254858055971293  0.1013930574897932
  0.9638426446968219  0.6229467062881715  0.5387191292285674
  0.0363385208738430  0.6067403610095762  0.1050468888912978
  0.9750453401258811  0.9143468477786328  0.6086543350786157
  0.4914193455421338  0.8242764553966730  0.1240856227875784
  0.9877109557074164  0.9082928863978778  0.7500607874315375
  0.2996570985015437  0.0900639624170212  0.1706812029582228
  0.3703435849768982  0.5097193678890514  0.4640722290001152
  0.9455610223127582  0.3083518784576690  0.0363195609917562
  0.1501355385783019  0.1239794972006826  0.0106178419332583
  0.9813815008219928  0.2985546442838752  0.9430615799420967
  0.4965720143117652  0.0653848291877337  0.9752893285208201
  0.7291904530465189  0.7452922823148477  0.2743472116239160
  0.1408125747246044  0.1868478507265038  0.5568836827213675
  0.7833588624804990  0.7244186697255142  0.5840548522466538
  0.1956172090713072  0.2413410939134000  0.6278873853521769
  0.8543531857130365  0.5909551740703708  0.7358055341561159
  0.8588991378637997  0.1184816507310939  0.0176252280678082
  0.6662438276043682  0.6478721294845229  0.4368114714659267
  0.0263117342388149  0.4690372082992649  0.2457430367745678
  0.5924257215153168  0.5801245523645309  0.5198028545229804
  0.7469076478116938  0.3474633328136188  0.7235564406374793
  0.8036965215172122  0.2570829125752507  0.8510757716195783
  0.1704690517197163  0.1500457917973632  0.1758590854543111
  0.5433970496055684  0.4785032504048105  0.1919778414614744
  0.2642718519280301  0.1523984481818442  0.1352846563821638
  0.3346448538977827  0.8174180824698711  0.6228344216437516
  0.4668155132019212  0.0396335762189185  0.8453259060705672
  0.0857635076489928  0.7094922636681654  0.7357564143633012
  0.3862438082989850  0.5480374726788442  0.0957051159469086
  0.4411555039910863  0.0843079283232094  0.1896100039124026
  0.5925110077329528  0.3477035053616201  0.1749599118741618
  0.3368841473893910  0.7204783334105131  0.4455863266481455
  0.7079498870575200  0.5285145474318611  0.9444863525403780
  0.5679092205348498  0.3993707457098932  0.9833163944785628
  0.4931182559018160  0.7142177198991251  0.8621199832746219
  0.2428300807599343  0.3711199642114156  0.6548041239702264
  0.4931561347689993  0.3200606131911201  0.8888500847166193
  0.8520854418867346  0.0476586758491336  0.8438806698980537
  0.9585495080850396  0.2749116794314767  0.1899413747324008
  0.6631145289506791  0.9584644729144058  0.2271090796313385
  0.0566096310381754  0.9713887638358939  0.6367151760793736
  0.9963852573439045  0.3363064427832251  0.4960844917933385
  0.7876248190745051  0.5146424941384453  0.7339331722258382
  0.5019296749365066  0.5243225173920940  0.8837393917241541
  0.8285254612250142  0.9940299295237582  0.6093528241438407
  0.7887573829281734  0.3963349836134305  0.3647207404050638
  0.2891527499699142  0.7072291181396601  0.9489825130355656
  0.1768623011029054  0.0517286826946747  0.9922890855884555
  0.5808958700066376  0.5401846425363537  0.2524197513297115
  0.6808501039647339  0.9619263809593769  0.9318378996748075
  0.3284327508067471  0.0111399929705324  0.9826481628850603
  0.0720450734037911  0.3529846933288908  0.1876601475427754
  0.8790916448492512  0.1668017270943366  0.2743622722213457
  0.6795359725921367  0.1045077048497434  0.9417219503220989
  0.5269695061470427  0.6425795301800659  0.7321977464980588
  0.3645871611224588  0.0046636334282862  0.2748350707689201
  0.0490489245000246  0.5367643375724327  0.5853514905245274
  0.3808763338800060  0.6600335279401816  0.3588653284256824
  0.5296174591965264  0.7901929956517176  0.4653812484318041
  0.8672563700536984  0.7692975552241315  0.3938567016429372
  0.3202306202985813  0.7490625486654209  0.1691019190514844
  0.0838500874569572  0.9666209032752044  0.4436139775818779
  0.0053328570984024  0.3338579057852241  0.5559340674628327
  0.5658260415414008  0.0864533753378519  0.1886435265965540
  0.2662314480472664  0.3813228922618896  0.7735543013535646
  0.4128140480081615  0.3658534715613431  0.6433141366679067
  0.6050712531341664  0.7137255588366345  0.1152928802650590
  0.6833235397100345  0.2525953368898059  0.0955725241706389
  0.9966249522206457  0.6538787400323948  0.9814466037720377
  0.9834014842654257  0.9781986072630708  0.0387902839650418
  0.3467309818335297  0.2988333994663295  0.6781167183322315
  0.6431267315897746  0.3392690130735263  0.2418134473371787
  0.6206622192940870  0.1028949187707552  0.0521057988479794
  0.6539401069766654  0.4185842885697340  0.2304622900849384
  0.4017519024606884  0.1881197959293375  0.5474655466359988
  0.8880125840174945  0.0391956538552859  0.4894239320586713
  0.9547232041167344  0.1091220032898335  0.0077764907237737
  0.7008710939687335  0.0627137639081694  0.5462713905631501
  0.6130992669597904  0.4164519393835101  0.1563580876127781
  0.6686369716489333  0.4543990901718791  0.0420931276925307
  0.9187934843866365  0.0251313783094697  0.3493307377486911
  0.3057023080587085  0.6953233795197621  0.8107474016463240
  0.3062898853739613  0.3708698990794090  0.7482969740307585
  0.8042813869577742  0.1977148545517831  0.3177431938233434
  0.0544866640765474  0.3448707667919761  0.1012503521666267
  0.0255640148029062  0.7854106737678234  0.9227882401943378
  0.0236971491272229  0.2299959008756876  0.9762965407946748
  0.0507624058474992  0.3972446159500825  0.6652582347638226
  0.7038692804292550  0.9428326794268934  0.3028255668554555
  0.1850909526989053  0.5261081518518818  0.6924261095955394
  0.5648673976284303  0.8345741620118065  0.8287306407770139
  0.5008613869236973  0.5529397681528303  0.0002858823346249
  0.3347303559870508  0.3714822518425846  0.7469592723275574
  0.9785499821038317  0.6572587287389383  0.0273572405511356
  0.7150382635142718  0.1791835562907755  0.4326152683705656
  0.6000885430104722  0.0061213108701566  0.6278348385970729
  0.9224329520575995  0.7634128494319583  0.3992256412948025
  0.9171588321508427  0.7707958855854969  0.8541507488085663
  0.2922858596928713  0.8987409061080412  0.4707969951779565
  0.2503597393247062  0.1120197572850371  0.4615338139020709
  0.7942759846693538  0.0577486434437636  0.0819279463564589
  0.6770255493244974  0.1617906486464714  0.8071400669084290
  0.0302463619638800  0.7158176130669138  0.9263878372121160
  0.0685380208828340  0.0951125090170993  0.7645213498173095
  0.8793064531814926  0.1976241044698212  0.6168863393934789
  0.9106375360185686  0.1415980554442881  0.6673740412812961
  0.9414877845296066  0.6059664667820879  0.2209177712376654
  0.9875110713824764  0.6047683452775504  0.1347432504503701
  0.5712678236163060  0.6511310458557883  0.4775440967328243
  0.4829680064156195  0.2486879681243896  0.4340344516133937
  0.3157816820022945  0.6461347150212302  0.5183771901128751
  0.2250300415133126  0.3192517210084947  0.5571276163020126
  0.2051812370521214  0.9003188456277210  0.7160228913186253
  0.3808939650332779  0.5026895573735617  0.4174696121335700
  0.9874849138270285  0.1257169987310167  0.0734069599394172
  0.5779443463512691  0.5899459341420008  0.9612553267446452
  0.1849955697442308  0.5308925830453718  0.1851667328685482
  0.9574464136163024  0.6439540056934285  0.7275861114022193
  0.0517612820501725  0.9018636673832962  0.6435624772018116
  0.5189438464881377  0.9079481054504316  0.7034657419471730
  0.5455314786752197  0.2864836691083373  0.0978524388938296
  0.0303106655426235  0.5078046978780759  0.4061347459786691
  0.7934279068799636  0.6020535100339828  0.6905944844269322
  0.9558754264925645  0.1795422895168498  0.0178598329560836
  0.1942035050978139  0.0666702667123891  0.0743975851145699
  0.1883252438673640  0.4703808177374093  0.8490524870717041
  0.0690808004793305  0.3493245868470352  0.0548140071014056
  0.6778750266431985  0.0184263456074402  0.2325438550365189
  0.8470367663079259  0.5247934443940203  0.9710783514102558
  0.8751686959793959  0.2551762780698941  0.0648026334068261
  0.4269180021550555  0.3148215264649752  0.8134951039366748
  0.6026044166927587  0.8382193187977122  0.1218104611207981
  0.0063835675413998  0.4139413602877368  0.5452603745615613
  0.2383790823550612  0.6393261511315638  0.7265113478898332
  0.6925900635348055  0.4383952677711457  0.5017057901424947
  0.1643501263316126  0.1196764104304511  0.9373938672966701
  0.2686307297148628  0.8577399905707519  0.3597777481169124
  0.6391424284680660  0.7984436465396240  0.3360940117348940
  0.9265114207198156  0.1952504517821885  0.2267040467579476
  0.1594586063310126  0.2666787973179866  0.9971771302438288
  0.8832187670366681  0.3078963583456550  0.5649545236131963
  0.9848994063213372  0.4424214962603884  0.8451893065520832
  0.3423096103101231  0.2868967667364883  0.1102678619310501
  0.4076063979244992  0.7012771869604263  0.8073272912774350
  0.1665333534185972  0.9143284680522986  0.5132992196000948
  0.1464699431416668  0.1715117909252931  0.6769901716159883
  0.6100236560727776  0.0963633789633613  0.9669625917454774
  0.2474477725602770  0.2416509308271714  0.8166191989144060
  0.7615879089374394  0.6616689468052926  0.7339965830526212
  0.7225343180445151  0.7311560552284233  0.9144077281680528
  0.0298672407640422  0.8389707105410249  0.7326542098587203
  0.9570069812534207  0.4472112759252213  0.7752344968744823
  0.9641845330164870  0.9250864720229153  0.0944594949167593
  0.8508230379053731  0.5356221749068855  0.8956187701216957
  0.8500588173883350  0.2618530947348804  0.1586954967428273
  0.1830195135786668  0.5162339015737097  0.4585375265810904
  0.0932456045894682  0.5167728084435619  0.4952508160800471
  0.1830005698372914  0.3341356747234992  0.2493050193740949
  0.4715490529462734  0.7945550655170304  0.3037701979881343
  0.6478481344574001  0.0276335697712490  0.9187502545368850
  0.0001667911185079  0.3857737084697792  0.3807745897464659
  0.7929491666065376  0.4729122906792014  0.2648851823642418
  0.7140164050642044  0.1788900836263211  0.7884833555372268
  0.5094073305626001  0.3958654123946084  0.8850517238860559
  0.0716100773093972  0.8003747646497257  0.3691279962797354
  0.9907132278356497  0.6619336221618281  0.1118915478458515
  0.4363570905931064  0.9847404406420439  0.4730571128811007
  0.7775535120176120  0.9834487733429053  0.1596126817153039
  0.0640628275803888  0.0494023663667732  0.4921534934936749
  0.5886075434280494  0.1535717588839440  0.1665475333071357
  0.4980689172373096  0.0330327277269334  0.1138610308894465
  0.0515964501706000  0.7786721453692127  0.8113799427302291
  0.0238536083504233  0.3691747726899153  0.7833798010474954
  0.0397584918396488  0.4519871015754836  0.9838732978953764
  0.2157953185481553  0.8717607156713155  0.5597408053123257
  0.4926311147480004  0.5159143850238546  0.5095860298048163
  0.2017661377949591  0.3455993094227823  0.4216174369425766
  0.8551433885051023  0.3933085654018227  0.0687088551699516
  0.2609380045838652  0.2745333391722957  0.0907519652206586
  0.8999127268202286  0.5128546408518939  0.8309615932274108
  0.1651375557809173  0.7038474931441790  0.7637945512378740
  0.9432405649671487  0.3172687079942240  0.2941011220881067
  0.1086444180036016  0.5167731082867435  0.4717852930248597
  0.8635214151150851  0.4650759809546464  0.6702838088268624
  0.4582558624645334  0.2659108452674781  0.5296354145608558
  0.6005852761419617  0.7134182331019887  0.6185773268395011
  0.1981973912520124  0.5110516962913159  0.3609016374343278
  0.8635717926364516  0.0162975933228682  0.7139662309637526
  0.6547757077755063  0.0907533798648421  0.7412008554053950
  0.1543358872671440  0.7220710565208661  0.4781981855936507
  0.2621630995020827  0.3730923581821065  0.7263770129721603
  0.3123838222351365  0.0249386958289389  0.1608513468136343
  0.0131035785082983  0.2833671388983454  0.2054409361707226
  0.4583202903905441  0.9913885622666035  0.3523012747547847
  0.8392515635290556  0.4654944892369385  0.7432820596241030
  0.0256833277704024  0.1695642200985183  0.9203661674599112
  0.9450681988327971  0.7675602928107923  0.4513194962773712
  0.7287813492206405  0.8819617561763264  0.9013076678070997
  0.4482242016641136  0.9891836974286635  0.5278436163054516
  0.8856901614982631  0.9491364084872607  0.3463801913559523
  0.3227087449998494  0.8504925741995877  0.4613214404396325
  0.4724028672077158  0.9173069811375849  0.9192655093394891
  0.8324205554414763  0.3639785366091260  0.5286554536514521
  0.9021986111187229  0.9777527891848081  0.5223750903318994
  0.2456161740824495  0.1853038395401936  0.9596140763454641
  0.2688199022772483  0.6486480663460793  0.5013522599029490
  0.6107965864622708  0.5813299470863086  0.4467710455482334
  0.3817673150947378  0.6770137524497963  0.2303591305037415
  0.9463251634285569  0.5369087691548716  0.5897787350084823
  0.9263617054384464  0.9275810584302614  0.1424458548250672
  0.9777797049156572  0.0482443784510221  0.0681639026327991
  0.1115178587275648  0.8498954498365398  0.0207241592422220
  0.4011273643799604  0.7643313832122632  0.6126996957192410
  0.0350039319124971  0.0289565813756906  0.3560170498023166
  0.4892535128347359  0.3234083860154056  0.3139084590947961
  0.9238020951537098  0.3314236803434107  0.1837242813534037
  0.6125749449938596  0.8601286748184974  0.6520822080680496
  0.8038303664807990  0.8348538750259228  0.4383578370951933
  0.4333179823537993  0.7119748352058251  0.9122114922484974
  0.6289908154051268  0.3036880911554756  0.0437557094289096
  0.8400392942038859  0.0412451524115571  0.4978831519896075
  0.0165077152266944  0.6168083786303183  0.2581497004160137
  0.6644475677024728  0.4442881363374587  0.7762858067379371
  0.5926610595657071  0.0280223578730367  0.1897897552991389
  0.0303420333659518  0.9994677212253786  0.1848701721695313
  0.8287393925342561  0.6951553749841727  0.1497460566702360
  0.8291201052853634  0.4583538467162270  0.9647204345312440
  0.1775282979190141  0.3953448667321595  0.8994725495418431
  0.2249188427901437  0.7401035209460642  0.2476711159010852
  0.3891639698645898  0.5841965464502736  0.4312947295358128
  0.0494956578396078  0.4536668860606399  0.9577036410645583
  0.4464246928313966  0.5123275179717838  0.5265756783357337
  0.2440063280176121  0.5858579573123759  0.2938028621368529
  0.0462374814823251  0.9935134111994717  0.1358475547785052
  0.4381250196008558  0.4429542277840466  0.4992531412889750
  0.7165260404452053  0.9965846569820122  0.5832365918514500
  0.1001080126277340  0.9822993855470945  0.0171846840492202
  0.4390706840198298  0.1609801870589105  0.1566920100166282
  0.4960082754963282  0.3678117960372909  0.5871625318746116
  0.1867363913241931  0.1196414612266337  0.9203391846410430
  0.3230136502828652  0.5705278944657894  0.8544013379107103
  0.1606668480950564  0.7802616323975051  0.8811957961012453
  0.8799359608933113  0.1217687268024135  0.1865917637916477
  0.7955251217312957  0.1249435719760683  0.0969761484034517
  0.1370641549250324  0.1001190894442911  0.7141191656691492
  0.1074819351616081  0.5997907024011185  0.9765541381349041
  0.4784977970980737  0.6969180015360092  0.1050179861719190
  0.6489114944044764  0.3960735152984960  0.8802744262266325
  0.7549754804904968  0.1375375913360707  0.6307930766162834
  0.3743000856768368  0.5109850879375132  0.6134722773124199
  0.8433233031237610  0.4633502251201493  0.0635296834546581
  0.6928986897458955  0.4830034873609919  0.3256371653836807
  0.1227511157689637  0.6632690040219034  0.3223901005778340
  0.8880017172785357  0.1178427101515057  0.0573833265854572
  0.9771874387699165  0.1057328585907682  0.9913571081633178
  0.8771653853048598  0.4329442015409574  0.4719658999497254
  0.8727720101184460  0.2976182693875811  0.4513851356316779
  0.0830362467356510  0.2268320509201047  0.7704295350118762
  0.7397001006689570  0.5454196157071525  0.2565542169980041
  0.5569968523797907  0.3296639844646544  0.2786535705141303
  0.8928896757937604  0.1955969856489247  0.1908153617429802
  0.4657090321354226  0.7155220955997302  0.9450092488676661
  0.4230153042523160  0.1901088086787222  0.4242749600229284
  0.1729410066506194  0.8334678305944042  0.8277730372894232
  0.8042317654940634  0.6952945878263352  0.2770501810339968
  0.4731587430391347  0.1257816248973589  0.6868199199415292
  0.1608992841381326  0.1424920770935096  0.0922452099283321
  0.7734494287001735  0.6631158764747664  0.5665404275693678
  0.5211706352431434  0.1465830214544382  0.5192215976291255
  0.3343460818306016  0.6466814259691517  0.5402203290981169
  0.2330557256502190  0.7913802471856189  0.0942014119900021
  0.5489422607859172  0.9233743330066263  0.9530753821955080
  0.5644258279120199  0.3905065712525868  0.8836053794619948
  0.5911007201336932  0.1570492538008783  0.8774280354386332
  0.1265903754455316  0.9817012254354762  0.9367496805531956
  0.7012217492499432  0.7270833881948544  0.0098566060302245
  0.7413814881594798  0.5139707049377534  0.7506245447729297
  0.5110050045734521  0.7286613553967982  0.3358638000319071
  0.5107127635412267  0.7138134525007098  0.5703067332760605
  0.2834202222465538  0.0159460785046524  0.2540165093372043
  0.3089582696988351  0.7701562618351838  0.7878743141958980
  0.7948896970153497  0.5373065458180187  0.2650746993910599
  0.8079991219286951  0.3270774232695907  0.2131241976479783
  0.7703874688259270  0.0237523712735508  0.4088581849751966
  0.6407014806822099  0.2206805458614138  0.8244814239778858
  0.0685699779955066  0.6921557406042274  0.6523434768672931
  0.1434082168822939  0.2832063014844947  0.2126382904686292
  0.4126819020023096  0.8928348012642739  0.1337911505439719
  0.4741441397357645  0.1789834580935752  0.7192950050143287
  0.1500849820365534  0.2816917452700122  0.3837620811975702
  0.2939702092164236  0.5760298149587769  0.5692400321433763
  0.7282401042344626  0.0841635889653995  0.3443632436822062
  0.4953774053785754  0.8398293306125447  0.7350960006527758
  0.7328260674491154  0.5149306672326820  0.7993320660079107
  0.9172495383269117  0.8004100468647981  0.1958384974522086
  0.9216752653985519  0.6594238478237598  0.2958181063498118
  0.5626930429681046  0.9888785065385041  0.9288969347479784
  0.1547506402890968  0.5169904038202022  0.4538462957769188
  0.9794026272298244  0.0225489234779909  0.3085137550995435
  0.1373415243176589  0.8689593940185947  0.5518318473052047
  0.7521088509478923  0.6006595504076525  0.7661704040709670
  0.7082939431984212  0.9942755801477863  0.5560078814248461
  0.2818614047625097  0.0959508010995078  0.6709844442526792
  0.5729292529199576  0.9568493353794875  0.6869823920232624
  0.9498979585929767  0.9631783556338190  0.3817779261460121
  0.3015432442024810  0.7424181567171788  0.2511966364234817
  0.0126031757088613  0.1655612131222866  0.3985635762293493
  0.5597092469204811  0.7284771917467585  0.8923290246048096
  0.1095796009710734  0.2551191840624458  0.6169842342788079
  0.9110049723008526  0.6933545197349186  0.4420159209360439
  0.4670645733998388  0.1157437863441291  0.9891635617077345
  0.6425387138217856  0.4164479643960379  0.1562616745379268
  0.0390220260078356  0.2181292390662436  0.2850101386530129
  0.9199293913241705  0.2532995206780115  0.7606022997920140
  0.1519553065901621  0.2393385291861299  0.7973054106117496
  0.7955567870815898  0.5213073497712538  0.6857110431238271
  0.4961497500505967  0.6624994725156770  0.3237695110173900
  0.2014962689265977  0.9620402241553105  0.7315173061008913
  0.0230828465231754  0.6566576140324234  0.9913581703212204
  0.5409741637798371  0.6660412657074014  0.2844501229131376
  0.0562654210298624  0.1684508588525048  0.8406499563116918
  0.1285139391297169  0.8081695747112834  0.2987893688297936
  0.0334945617163254  0.1711023481601364  0.9688331660439645
  0.3897645131643444  0.3942193039584265  0.3734396118495315
  0.1219221846595440  0.1723414109685553  0.8054156695861927
  0.7359849426631949  0.2354375958236952  0.3794858354859293
  0.8071367762765743  0.0116595597677215  0.7066499831191905
  0.9498222642644686  0.0392198583336804  0.9988417801820103
  0.2729520544843901  0.1774264795489686  0.5499646117898604
  0.7718344199000616  0.9779467665842915  0.9098202421339603
  0.6918533062769471  0.1929313900940904  0.4738702749183720
  0.8220776467842794  0.0490715222926129  0.9252865117358798
  0.6758739684097391  0.8947304683508457  0.7647135863691725
  0.4594456877720014  0.7214134696998762  0.4573423664684132
  0.4611027752344499  0.0630084267559564  0.5422927234184481
  0.0194065806214918  0.9185159616565638  0.5207607626294412
  0.4026320520748771  0.9494881888890244  0.8921471170375311
  0.3466591148658517  0.1159646667948060  0.4033733178025171
  0.8576541972755576  0.3053345980231218  0.3646674902208582
  0.2416682885942988  0.7707089811316884  0.7543151446740995
  0.0012341667192847  0.4182678620261586  0.2069455890554911
  0.7718275012303339  0.8972445606092313  0.4572508705834293
  0.2348597495387927  0.8062407007001148  0.1678177635338516
  0.9520181477343269  0.6900101950104198  0.4837402108899887
  0.7442940272783851  0.9203728056882469  0.9759550951063600
  0.3758263331609709  0.1089252330332679  0.4984246962023358
  0.0105816196255978  0.6037819743595536  0.0640714763726613
  0.3331554525948446  0.6749916070280969  0.2405195626535656
  0.0830774460850574  0.5975367670956107  0.9632025667989104
  0.1739832528782765  0.0712123850814590  0.4481712221768203
  0.5042250754765206  0.9080277421996864  0.7756140780396421
  0.1198165669019174  0.2516841403247816  0.9636608298157917
  0.5346655498278144  0.8248497739362187  0.1475787833917976
  0.3461046950873364  0.1664301620613766  0.6259223611672939
  0.1134492996485851  0.9255607422940995  0.0816732741590118
  0.3792721737351027  0.5468126975324096  0.1440682859906935
  0.9871722884550627  0.9555615913088170  0.2927109137112318
  0.8482954761944459  0.3856579757871423  0.9224436080323154
  0.4739522067610785  0.5233921674170032  0.8788582510951474
  0.9780669518915521  0.2779247365557274  0.1700248717417790
  0.6099432966760455  0.6504609423056871  0.4463244342031361
  0.2186986159071740  0.9078812620034232  0.8852926593757156
  0.7258174662833923  0.6527763173801227  0.0355801858615329
  0.5092867714523389  0.9552531978117789  0.1629421290913304
  0.2599967777279595  0.3331185651951143  0.4693806276556060
  0.7236697988857139  0.5038973523137495  0.3464025848510527
  0.5416001124780596  0.7092623014631075  0.6648486205829501
  0.5655011682305433  0.2091186294123136  0.6164794747987240
  0.2523561750514603  0.7255676118457088  0.3690096137713161
  0.8870169308764843  0.2688929070176871  0.6958782370109404
  0.9089422607519980  0.2310087202401528  0.4454643648680017
  0.9411460159494541  0.1013091633790758  0.3955075375161710
  0.5460508386132559  0.1491246580722727  0.5335885338018940
  0.1410266926396806  0.0894905919211971  0.4773880116270071
  0.8689019840271545  0.2014637996441917  0.7184572369870053
  0.1448050928375707  0.6820316940837639  0.9014425718810826
  0.7603024385938100  0.7823559865603331  0.9097050581236777
  0.0286822174642714  0.2990090501866925  0.9316576815398154
  0.6959131115734905  0.0545931828299403  0.1527317524732635
  0.0788568728746868  0.1809849367685474  0.5108670002515914
  0.2740931859763009  0.9216740948093002  0.9352594750199734
  0.5306385651871627  0.8459098664880432  0.6580833521198055
  0.4472373651104451  0.7762996494389643  0.8519203675185508
  0.3076903932062884  0.3250952241571289  0.4600713046371759
  0.8379511370980137  0.7166023422711507  0.8702991602643692
  0.5359198999853657  0.4920510894268800  0.1361969293753589
  0.6995619286945535  0.2399787536529553  0.4213592624297512
  0.2014299798822371  0.2835102715354098  0.1506229778419194
  0.9561847958432084  0.7736725708856812  0.7895380943670424
  0.0638103065744460  0.8813261974038139  0.2346616395725769
  0.1042365067781450  0.2449310481156260  0.9174121500153096
  0.2926851834265357  0.2737669640364753  0.2731077595267019
  0.9838996020997720  0.3066446317196962  0.3879792288443268
  0.0427568929844886  0.7170474650208577  0.4099093866187896
  0.5079749744297617  0.3721479973304381  0.5597110749114116
  0.2406497945047630  0.0629870155385835  0.4117411480642598
  0.8456775027342202  0.6691292315651625  0.5816702476332578
  0.8543419808892596  0.8525638919790530  0.0187171305801508
  0.3821046710749007  0.5715626481023354  0.5288576464305980
  0.1922358106601948  0.8146245502837349  0.6362365256429775
  0.2660594771412599  0.8504357498493895  0.4093818087804443
  0.4424384907332035  0.0597673249323917  0.5873320462636459
  0.1829174437300146  0.6074639899182868  0.6118651622633415
  0.4252435503044675  0.4181547743738169  0.1314712481810427
  0.6574509717872218  0.3139946981309658  0.3399023788945281
  0.3569829584015407  0.1700144787461129  0.8731022711239462
  0.3769072053545368  0.6263654592923363  0.0563512588146467
  0.5830856350528050  0.2297811733703301  0.3640703029625363
  0.7717896986750313  0.6966223918926551  0.2421400909532891
  0.0297650666227678  0.5792109036215973  0.7961954676280020
  0.3265660104599400  0.2962083717944910  0.6352983255757880
  0.9165153869869223  0.9197643972860708  0.0140196581553701
  0.8791267477184426  0.4614629413062665  0.2010976943483598
  0.0751139241156726  0.5809493738220148  0.7068581259866623
  0.6240606219571547  0.3804930526686693  0.4139720864861562
  0.7118651232422744  0.5151619840187276  0.6705072507762742
  0.8950976281385351  0.0511578343683407  0.0856459769864802
  0.5976144494098805  0.4135523196707682  0.1808064838940938
  0.6553212295354176  0.2674794886824473  0.2642482423433629
  0.7300928761754468  0.9537844217813279  0.7627930405474772
  0.1874503776663656  0.7194976505497314  0.4419832866355057
  0.5684905614973769  0.3566785900360654  0.1056264052490426
  0.7230516011848168  0.1148064724946344  0.3403423086651969
  0.3424743042259709  0.7995816968028636  0.5280694070266780
  0.9665690822489607  0.5163460386785261  0.9446730438263612
  0.6952697420859127  0.7373980242171215  0.8335376988984240
  0.1117046628835908  0.6086806951336923  0.1739357551756539
  0.3109044520100433  0.0353771017938876  0.4758335836180388
  0.9715703126250974  0.1902887575409145  0.6534318259804746
  0.8148116115389774  0.1801754909771763  0.5041078963124247
  0.0861079517611643  0.8440676729698264  0.9237970136399022
  0.1908138349926342  0.9709797417410699  0.5059185107952764
  0.0906952551691052  0.3843404584556902  0.7389869515913697
  0.9902828922478394  0.2949533661424973  0.8668772362107595
  0.0119211820569250  0.1818572573738714  0.5472511390409733
  0.9119076495484796  0.8477246954278800  0.9697512432290791
  0.4124610473855428  0.5697741888028408  0.7076586202878919
  0.7284516906439552  0.2698206639131806  0.5453493753775098
  0.0912377907711719  0.2911116644890668  0.0468995008222974
  0.1420099048236805  0.1934087772647198  0.5128417381711040
  0.3840448162340664  0.0900537816687317  0.1583392906669956
  0.3440604596266483  0.3040974216650623  0.5239515911845259
  0.0147554307879850  0.6404914226397607  0.4094512478543421
  0.7807127871409649  0.9977849398474438  0.6242514224527007
  0.0789530233276022  0.0969840409112087  0.3681441073901636
  0.1203877862139796  0.8865084666198313  0.5955850291991205
  0.9300956198371999  0.5197173372404206  0.9880113127743207
  0.3923887096351049  0.5438643966488055  0.2453604234492070
  0.9516885270541803  0.0379992314124930  0.4351253859788285
  0.8223214384967706  0.7585528459751713  0.3007064235589110
  0.2440218368210483  0.0895028260868405  0.1833583425042630
  0.6889797355629271  0.7165440925039790  0.4350324712112126
  0.5494247324948759  0.6570772192871800  0.8755570943950590
  0.6260509154342866  0.9360498936342132  0.1989989520990161
  0.5499714577015392  0.5271585651682463  0.9413789013765729
  0.7755090965571305  0.1211877391844202  0.4560612537325605
  0.3871007974417384  0.8988510074717662  0.8304889089119128
  0.3614726836105560  0.2440414533668403  0.7534071880501318
  0.4525424913761746  0.7102067804767593  0.9933035926826221
  0.1756455380412714  0.8455528335230388  0.9262752144052289
  0.8155551890438283  0.1425729559971023  0.7082526351010067
  0.8713613178830765  0.6710768079141818  0.2758604359225511
  0.1726820803310005  0.5372622578601366  0.0831196217895872
  0.9641699382309472  0.6043670135018129  0.1776530008108630
  0.4351247318015583  0.6380365251031723  0.6977164976603314
  0.7665334282040918  0.6982140486617885  0.2151828019522199
  0.9370048374691288  0.5770682943525870  0.8868313073255807
  0.3095324625410329  0.5708676992160029  0.5465881120211933
  0.5165907692047408  0.1220268088858218  0.6718094663851721
  0.4853945527783756  0.9056364198583602  0.8200717111115378
  0.7465441350511890  0.4046815617185985  0.3438744005380887
  0.1543817707288517  0.5724011230625008  0.7517081963424818
  0.6240546885414904  0.5913861032650610  0.7410125267929848
  0.1310060077536806  0.4522860444832391  0.7912997173176564
  0.2274038436440822  0.3959272233260299  0.0336582498154282
  0.5039954096841113  0.1742693268557590  0.7584171644245761
  0.4942012184984674  0.7580549089201823  0.1977274685259752
  0.9473180517854379  0.5115606044819830  0.8903504108109884
  0.0911905972269908  0.7813551614761088  0.4892006103535504
  0.3144151030631391  0.7842605213193007  0.3764233015769733
  0.8642123494637314  0.6638520812935950  0.6020513362859813
  0.0414834066407715  0.9619268590634308  0.7331638472488698
  0.3792605180609891  0.9555182026646395  0.8785547685335274
  0.8905505533852305  0.9215864233406127  0.1853262597667839
  0.9602323286885019  0.6392907810505538  0.3900230972107241
  0.5546772565428038  0.8537026787595487  0.9519062068740847
  0.4385952468452777  0.9841956510188353  0.8902250962192013
  0.6906367851377571  0.0750656662974668  0.6488756675922930
  0.1108115247130741  0.6341064916684525  0.7165251757703890
  0.4033936187594684  0.7677002866298965  0.6878870840147333
  0.0199748261618047  0.2222431275819222  0.8460345217091537
  0.7855252742861826  0.1843538763225895  0.8745796105180469
  0.4036537240849983  0.9113008516083215  0.4830902163472658
  0.1167185800688334  0.4593535748370068  0.9215213383295928
  0.5583046697263573  0.0915942083970553  0.1327031369123620
  0.7491549527908279  0.1107301528447223  0.4164740294867125
  0.7138881161532542  0.7370507442998112  0.7851685711508416
  0.9685280158375923  0.6616997623030589  0.1298149624357331
  0.2867941937741689  0.0380402356220697  0.4631179442549522
  0.4069693936167935  0.7704042109082341  0.7890985914636062
  0.8979809880819812  0.2304370562599050  0.4912749626517512
  0.3347495529353103  0.8269492769025999  0.5168696493610545
  0.4722842545929095  0.5196446785459169  0.8035871266795743
  0.1893146714816673  0.5859773281449031  0.4662830024544352
  0.4086917228760726  0.8987060440079170  0.0781747408644407
  0.3123318478673410  0.6417519908362270  0.7420461507253261
  0.4824533922101604  0.8490923982540802  0.9306791896148315
  0.0176878240389470  0.7183498672777456  0.9741815439220933
  0.8079509415604473  0.0529335000993836  0.7359279067709202
  0.8504807237154832  0.9307796419572917  0.6593744812050866
  0.9260346294782786  0.9810457132989903  0.9389014080484906
  0.4857369959915139  0.3505632870753019  0.1177399784417058
  0.7462842677614144  0.8836577422864937  0.7510675808544457
  0.2665446904430957  0.4062308807266847  0.1531487969496823
  0.9562954601426116  0.6587426162345381  0.0450261057931540
  0.9012415804158836  0.2287244172839542  0.4186080189450347
  0.3416746242808530  0.5723996147319885  0.5003514987352986
  0.3946041746196968  0.1590015424271956  0.1905932350657034
  0.4006705895231760  0.6618163551649615  0.3387439874819230
  0.3869029212048238  0.0407513186383261  0.5095587042897193
  0.1219933283511571  0.2831026297172471  0.3792875045525914
  0.4923818183375044  0.2556050679314985  0.8921091939922666
  0.7295723556187362  0.2113109605548722  0.6695746340523234
  0.1082604087381524  0.6015516480624437  0.0048884540671429
  0.8529916415185432  0.3913975388643315  0.0201754657047738
  0.9460593391921382  0.7385970087286807  0.3152206890490508
  0.5663495955690122  0.1552135355770748  0.1840975565071366
  0.8713147890589649  0.5173875435671366  0.7496011977193137
  0.2320238054694268  0.6313725313709809  0.6777199582660516
  0.9480322560009863  0.1847908295559679  0.7784397226793257
  0.8145302978428298  0.2607846509887048  0.1228249046858978
  0.9259193791994410  0.7104579053446977  0.3904668186846978
  0.5041619229543955  0.6511347486731175  0.8589659494725390
  0.6640557491754471  0.6665502555834321  0.7068208562687114
  0.3816174014890268  0.9071948382233562  0.5019816205253609
  0.3475574522491708  0.5171584268328869  0.6083185649208294
  0.2748650428311911  0.0973299469651888  0.0939930148058552
  0.1602082870877994  0.5153419952306255  0.3295026525896145
  0.2265555722845084  0.2413555912061266  0.7974693516779028
  0.7887144210198048  0.5117426708077761  0.8094811470966781
  0.6643166355892293  0.5020140147961877  0.1483671847246959
  0.4838831207184257  0.2065616149186000  0.2604891853633374
  0.7904696833177308  0.6513854496617344  0.7718682960293269
  0.2236520794284558  0.4032380607520660  0.1277391179058829
  0.8462071596476433  0.6052030967146428  0.6044260508064543
  0.5186280297987684  0.9210315106159872  0.5649838271468780
  0.8174432684833238  0.9496734525416848  0.7514309911665569
  0.7309081816566338  0.7954457163638451  0.7890458763664949
  0.5289106868497688  0.6397962520439202  0.6572712522404367
  0.7357773868633534  0.4865307047732266  0.1596662439334442
  0.7104274758346144  0.2625404818633067  0.2017067577344751
  0.5673546136731047  0.7870182193427384  0.4974705236851776
  0.1976723209896633  0.2595266680796204  0.9348643683127926
  0.3328021847005289  0.0966812751657774  0.6953657057415243
  0.3606095829674877  0.7864432170805319  0.3593867677929795
  0.7795949092833730  0.7508744583565379  0.3630462805368199
  0.6307560247998483  0.5772186922987905  0.5953229707957004
  0.9848922643544548  0.0159015402355894  0.2819929749190683
  0.4276359912032651  0.5685542862686676  0.6833595698207052
  0.5208474586073124  0.2424322645607772  0.4671227645329153
  0.7102832411061258  0.3170392879759974  0.4049378783970616
  0.2395902788573824  0.5141531126792172  0.4675593434960124
  0.0421326728283944  0.1595614435945078  0.7426239365673184
  0.3264558630687875  0.0299159490807045  0.1145778435813407
  0.0768413068474777  0.6752488394389539  0.5810767679072374
  0.4585268712024033  0.5394316954913714  0.9711832625499561
  0.6645440732890250  0.2666263675078500  0.2168077251807742
  0.4402146173139534  0.0002825504679807  0.2701901720940867
  0.2058783348133943  0.0063319190037367  0.3591222784508126
  0.4871284738872027  0.2310077744323926  0.0837676312994751
  0.1099514718869685  0.4784000091214607  0.0720821696673540
  0.6878709396607480  0.2664060146485110  0.5139017276682870
  0.6165516440320253  0.3063912840531204  0.4441265449245814
  0.5691456757922760  0.8496668225441064  0.5821641791149501
  0.4060474156110765  0.7454640928012214  0.2433082482063831
  0.7121379806885690  0.0703011126155220  0.6305976676192132
  0.1262296021339646  0.8111308142872617  0.2232931611302387
  0.5510510677788918  0.5845964269130278  0.8621857408691480
  0.6632215055338043  0.5930807169601192  0.3281603655707887
  0.8629624456359059  0.5555740187353936  0.4221871163152937
  0.2346467732833188  0.7647165670788394  0.6797658687813217
  0.2595350686111775  0.7775786328776237  0.4415939997520023
  0.6608085194950671  0.7281563036079515  0.3420255623992454
  0.4984500597797788  0.5705329048414818  0.7120250973153912
  0.2273850912505956  0.3372203353390395  0.2109357836195432
  0.9025132843675672  0.4670778317508503  0.6359657435162558
  0.6905368309416313  0.7243732857274884  0.0581882184208106
  0.4728132480485032  0.6377529671152545  0.6665256035772306
  0.0858523258266782  0.6075741437676442  0.1038431733973261
  0.6360484593964446  0.5937994751061770  0.9127430120955113
  0.3485223466203888  0.4707714717295188  0.0323559690742061
  0.8143707832773180  0.8746332473075344  0.7311749565763237
  0.0489272345852404  0.4099679645720172  0.5676239107969127
  0.6541421689718204  0.9294127643967222  0.5998614332324109
  0.9791610603484703  0.2998472593658183  0.8103673775813596
  0.1618166652570069  0.6667255263125372  0.0988141872021261
  0.5447382821871138  0.5121621746588767  0.7167222481468160
  0.5227899830266863  0.5937309216930019  0.3182849123902934
  0.9660447240507086  0.0896094147406873  0.9095910865766614
  0.4797865825821259  0.8603287644509597  0.3894392250035429
  0.0492511325572608  0.5103401868146566  0.8088578287498818
  0.1138933156522281  0.0990803172337088  0.7307769900590919
  0.9920792015648487  0.0920241584914287  0.9202031903521565
  0.7656378186742042  0.2076792090151894  0.6350499329360237
  0.7666297943096946  0.6014581359496884  0.7416393282160729
  0.6615536937607905  0.8669431905483292  0.3617500350569630
  0.9421245101951207  0.2651535147448559  0.6782740419542446
  0.0079833739759314  0.9849694330664100  0.5825903048410287
  0.0268245094766977  0.8483818136729341  0.9708136616609374
  0.4192329694318106  0.0293981634806138  0.1937312198622857
  0.5724307127614946  0.1654875684546053  0.7351661150987739
  0.1072004052558649  0.3895643265747163  0.8833465516218559
  0.5456212845407915  0.0276428714179802  0.8881095883083837
  0.6412830981933298  0.7202405825873349  0.4242578512644111
  0.4158980805294879  0.3735848403166342  0.6919950157761771
  0.9835271645610862  0.0454238139045955  0.6714837827193170
  0.0284494309805274  0.6426359473262533  0.8622154091438452
  0.8720761813478297  0.7834586576847420  0.7143439062569023
  0.4822188564334756  0.7910795163989415  0.4063031982098008
  0.6814006974605841  0.7999845957337659  0.8983661237036029
  0.0801758016266959  0.9614272694521063  0.7631331775770931
  0.8032964865198119  0.3953232942364571  0.8523424029346689
  0.6885114294125360  0.2901461935443777  0.6363918672382629
  0.9027600056317935  0.2560232325431516  0.0708913465658407
  0.2492296499054707  0.4207049313568619  0.3703729575695421
  0.0840999899006891  0.3210082644527630  0.2658525356597493
  0.0399558641563698  0.4655848635446190  0.0559920049468562
  0.0160211241643809  0.2624706169991659  0.6516121550984499
  0.9459932087353572  0.1273859319058784  0.1361849798985480
  0.1703485416720011  0.5710104162880089  0.7751217698558763
  0.2266569425513054  0.0824620264185948  0.3147640473260245
  0.4684979620073546  0.9255300462373168  0.2621970370711520
  0.1661355289230323  0.0144515117077399  0.2954873724237408
  0.8390281371258651  0.9831654515801571  0.0335063540207045
  0.9180848614003071  0.4021436631380781  0.1615405538212338
  0.4793915469554911  0.3490009776895993  0.0702397611911499
  0.6561328781966885  0.8542514181978111  0.0218553205335341
  0.5364481288428671  0.8242238149047076  0.1969132637702949
  0.9205305949627307  0.5173071715173956  0.9610737698898816
  0.6994805056186093  0.3901959458405718  0.0482888073669908
  0.7627297479813870  0.6608074946834424  0.5931841094395269
  0.5948545389806454  0.6438241409341229  0.6214369885890678
  0.1822781191471108  0.0555744168542608  0.0199117730411559
  0.6673271422027790  0.5081482489146101  0.4133395293696791
  0.6239496515565576  0.8540143703875038  0.4836337385785787
  0.9282634422211218  0.3822654930013457  0.5039398188426661
  0.9255743108468444  0.5841563990996130  0.7740322223079293
  0.5606846198733378  0.4637762688670474  0.4060565070267521
  0.4816160134311195  0.9059846840977960  0.7920448070578027
  0.9454507371761023  0.7037796101585991  0.4101382956752921
  0.7342507292005046  0.8797178233345460  0.7254046715426538
  0.1422781172389236  0.7295932340234820  0.5330159024318364
  0.4266388820758208  0.2458160029814009  0.0207314714979561
  0.8213146401384842  0.1251950141554381  0.1080082035610970
  0.8514659563094893  0.1927236909678760  0.1311212817818708
  0.8435778367502892  0.2361518794435582  0.3045958473950111
  0.6651221468993629  0.3708550485055996  0.5352510113265541
  0.4120976212007960  0.9594828278461958  0.1514345498488514
  0.4031492774195642  0.9132092114126670  0.9947806595229969
  0.9848663397150004  0.9841287642085764  0.8461738447608257
  0.6808624648934594  0.0044977149441724  0.3397268723316662
  0.0397599592761536  0.6128643116578842  0.2730520042531035
  0.4505833347411375  0.9769317402662319  0.6873440948664434
  0.6551568134490247  0.3908785849422060  0.0268716584321861
  0.3895510247480848  0.0431354602995535  0.5377712214389627
  0.5618672792673575  0.7017183257404377  0.7896780887826715
  0.5797170491888499  0.1524280250071088  0.9515976019056743
  0.1268797678295176  0.6023593986388398  0.5615961366428752
  0.3382019910183133  0.1708530504898605  0.5763461991833122
  0.0142425647591830  0.2408059337176210  0.3755496746980450
  0.3675388795704327  0.5779542133913534  0.8773014562777206
  0.4461766393967491  0.4694321956445167  0.0185713537568594
  0.9320491028069642  0.9545891341013428  0.3293177930249954
  0.4228700784579190  0.4075068147636824  0.2285263389655129
  0.8459044152488778  0.5564443680170689  0.4444863759649680
  0.4449161939842159  0.6994940587305747  0.0690240186627996
  0.7912520975162858  0.7354519917499851  0.6583163534903403
  0.6042775819950152  0.3364029299659911  0.2707311150853607
  0.7701696446964625  0.0034078611334541  0.6731239709605955
  0.5389205256244430  0.9146133922426142  0.6614215039800472
  0.0694950785424626  0.1507471072474757  0.1605287361910392
  0.3955841074273624  0.5929568542749075  0.3330036532970339
  0.1851979179015664  0.9626842170820130  0.6302447285807642
  0.6035001291572163  0.9222206623657259  0.5407935777222008
  0.0001831346481877  0.6944041550655341  0.4977062044993268
  0.3233801514045164  0.1120509974485655  0.4187276660225795
  0.6595046766653586  0.2404544885687540  0.9462737478506655
  0.4079661373238561  0.2481843001798856  0.4418349272253759
  0.0169118079836847  0.6713789216825987  0.2827094886034927
  0.2645734270960884  0.8881694049925906  0.8552928030301870
  0.2665020464972259  0.6405274367048219  0.7232373022691898
  0.4015729996953956  0.3052280955729901  0.4430681907497540
  0.5981438079795502  0.4627322601100045  0.0445215495259217
  0.0170023851108797  0.9501566740791749  0.2539545735070558
  0.6787895014341140  0.5966419493059889  0.9869993869242644
  0.4982163639497099  0.5985481086999100  0.2675015558441912
  0.0434246602858173  0.9693483772488655  0.4172718343239700
  0.3186048769045283  0.1017951960615062  0.0050240237934792
  0.2958087639472761  0.5704629447007949  0.8048792257354682
  0.2805780058808144  0.9810603262221018  0.0263344430139287
  0.3881874218234118  0.3094925689311729  0.0222356981167136
  0.8382820838982220  0.5032049166524816  0.5221991168203747
  0.8784594006377648  0.9648619595602298  0.2285761802240728
  0.3098638879496429  0.3769257503260086  0.7957315250724492
  0.7365878255251975  0.8671593779042429  0.6286630231544151
  0.3542203940907497  0.5097514712815754  0.5607819585413460
  0.5068473587052011  0.4021535427667894  0.2792561266800389
  0.8702522230564533  0.6902620981129587  0.5048070427131064
  0.5306658124525490  0.7660421292458087  0.1560923960281098
  0.0102658658060613  0.3650970341936637  0.4563572931725765
  0.0368955228933081  0.7303494672302435  0.3572394873323746
  0.7079770549246124  0.5123337437982364  0.5199687154896441
  0.5629403642776274  0.5931893933739946  0.3457638672187408
  0.5433581204131076  0.9254615264466978  0.8953185722332875
  0.2584837057750973  0.7415242951664627  0.2115975901597710
  0.9282321236658123  0.5434576452930391  0.5361756819069508
  0.2636146111743980  0.0405592710159145  0.4775454454729534
  0.5823607680930244  0.3829264909900026  0.4362880721166887
  0.6265277153201436  0.1616130478299665  0.9437871460175511
  0.1121311743500807  0.6817597044532503  0.6231440106112756
  0.9681311771639763  0.3973063286023512  0.6684142465844902
  0.3521183016842251  0.1686901779483538  0.0660517679751542
  0.7386288624811581  0.9648322649435425  0.7866704403802768
  0.9652530847259972  0.5464685396524834  0.4937173807201906
  0.5304373103668956  0.3502839619827514  0.1355389147388432
  0.8879801355362710  0.7492774907360029  0.2317726201793976
  0.3371157248797626  0.5365232594581477  0.3112581486678242
  0.6648912462744501  0.9832447911914397  0.0702138018516042
  0.5209780722484999  0.7876097060914806  0.5139240570330990
  0.7869655996599056  0.8757487619815706  0.7288418646171304
  0.5653248630038559  0.8587597892098755  0.4368316023642875
  0.9359389652464140  0.3026674773882906  0.3958472216256247
  0.2716734997518270  0.3399470639160994  0.0665315879876859
  0.4809855053079173  0.0485000005354904  0.8956217241231077
  0.3899612764054120  0.7818544055261974  0.4392769543934238
  0.5369870237482670  0.8603459763071577  0.4376269782668698
  0.9382584631710909  0.8893003269830262  0.3564386583512021
  0.9797399781144508  0.3261742207440229  0.6793779647071633
  0.3554996018634700  0.9821017827584666  0.0197449919250971
  0.3389154415294918  0.0252177002956773  0.8008149326312477
  0.7327067431847015  0.1201920631598127  0.3921931278911589
  0.4274160040964212  0.7855085066931518  0.4710210603936091
  0.3616772223976751  0.8979866900332911  0.5739332068969167
  0.0621727122032341  0.1241491230585003  0.4944636328218152
  0.8347469656764001  0.6531229258540621  0.6805275622539638
  0.8649458564503874  0.3285432390384067  0.1370249702407737
  0.1246818465655621  0.6090022218309104  0.6128220262485433
  0.2235981565734361  0.5071870205347704  0.7151392040006953
  0.3278795303131583  0.0891993098065478  0.1662512682086672
  0.0891950639808984  0.4100454317781880  0.0600261576171307
  0.5391565865984819  0.2051700502730260  0.6251865462701157
  0.9000631872280584  0.4966741818903815  0.4056795792522773
  0.0755632936434988  0.5202589324624388  0.3155316908869923
  0.3595299243848374  0.5160508446573397  0.7844064207498943
  0.7984552472947595  0.9270262888153578  0.1439754924694042
  0.2044075208599898  0.7250492844856299  0.1025866991174841
  0.9430788726180404  0.4129916771015780  0.1103856973279460
  0.5977703863639081  0.1617289637754527  0.7464923998194507
  0.1779229692646283  0.5824128930401538  0.4407206013372266
  0.8044851136596456  0.3624984008155265  0.4803703265613901
  0.8750146205057020  0.7715988538036590  0.8160184343884312
  0.6759688842896032  0.5107519314549903  0.3645670501647062
  0.4011216663235613  0.8356611791049343  0.5912712352035883
  0.3281456589994637  0.3990150631785817  0.5134808766584340
  0.7567717996493331  0.0470581231629169  0.8134758367931366
  0.3578596123699945  0.6542295020040018  0.4147477643698247
  0.2779100325096225  0.0971593027912263  0.6147440610953737
  0.2975814061638348  0.3413143474126074  0.1820473244120530
  0.1962086193524935  0.1373974150416599  0.3919006957798686
  0.3120866313594953  0.8885160599752085  0.5488750822785571
  0.0350472022498280  0.9202633009141400  0.0429552453891598
  0.0820177900115478  0.8515744960877472  0.0684414659363036
  0.8711611486457208  0.0420599943942497  0.2401059483459506
  0.4852561585684984  0.2977993263032624  0.4807944381955968
  0.1865435147838216  0.5313711202813178  0.2608444611491721
  0.2027931913459734  0.5409261328657468  0.1629720126033083
  0.4931582414622083  0.0704084622724791  0.6088115665133391
  0.1483835623565636  0.7418800272029693  0.2304808177260878
  0.6842110422963869  0.8061506835220474  0.7785536942263420
  0.6058965769993490  0.8639686727670784  0.3631209141640827
  0.5362126025283011  0.1683512895893618  0.8281022741740730
  0.1822868749046215  0.3979214925918927  0.9465466803461220
  0.8291830038350664  0.4130746844924961  0.6788705718771098
  0.5706907416422438  0.6386792010611178  0.1188117150044768
  0.1405082506094106  0.6508433408316771  0.4354000600124310
  0.8858249125364938  0.0481868892863336  0.0374673666982158
  0.4523312999513533  0.5783061479074099  0.8336090779135478
  0.9965992939069331  0.1051611483912269  0.3835504853148793
  0.6231291276910066  0.4501496675486610  0.4222619343171358
  0.5715155740434065  0.0178640588102030  0.8914904890180961
  0.5393543841373797  0.7257673390302030  0.8725999505988953
  0.8596746590402073  0.1995106975641620  0.7450974698500883
  0.4762579218491131  0.2664663194265937  0.9104564386443073
  0.5832771440555603  0.7982371602711752  0.3250619647939418
  0.8220062839003410  0.6489106074098788  0.9661557124724033
  0.1877688587479321  0.5298122482949342  0.9117673960131504
  0.3994881622839712  0.7183390941812022  0.5034307806698993
  0.4918940381010167  0.4392199458045183  0.6861158715819238
  0.8755734865331213  0.8363096146668750  0.3546964849146341
  0.1861793935480109  0.9941324053938302  0.0758603985975208
  0.3246998905754587  0.8571603777330888  0.3616320894361338
  0.7784507414411125  0.3288656257263886  0.8950730895053619
  0.8218018212018066  0.6009400705957885  0.6192423058249360
  0.8585623375724848  0.1948047097470585  0.1577876481383142
  0.6324910616730812  0.0763983264947231  0.5687372847510926
  0.1018386464203080  0.9860382773707705  0.0663874481501295
  0.4779355306088995  0.9859864602172749  0.4350844387896491
  0.7143024051639123  0.3276804244992904  0.2551198729541705
  0.2252679145292530  0.9513752604155965  0.8438925179688459
  0.6749305619625926  0.7915101263489902  0.9695016220934767
  0.8122388539486486  0.1200497585639895  0.8369433699320529
  0.7950469033984926  0.2614802939556817  0.1437499532591528
  0.0375432353041741  0.2975675432771668  0.8562323839026499
  0.6752192272376581  0.0757712927400014  0.2913245431313068
  0.8117094508004263  0.4059802267868647  0.7794131062260197
  0.1263133334104278  0.2171342730821661  0.2342230284809644
  0.9923882251811668  0.8857879353563531  0.3066386796564354
  0.2600186241191010  0.5156290890353276  0.5208078242408107
  0.2111091340155346  0.8011696247936069  0.3117860972593997
  0.4703617096677182  0.3139224402798471  0.7919933966112471
  0.1062670259907027  0.1797319879091535  0.9835398524605466
  0.6356256002481144  0.4266040859065981  0.3105369875415583
  0.2280473358096173  0.9401931156765426  0.3185785168834195
  0.3376759070017824  0.1728992728206826  0.9933181362296012
  0.6664278856256644  0.7399479232271193  0.8277000109275148
  0.9140905424181712  0.5975048115038143  0.1528445744848593
  0.3113100056335979  0.7106829393923487  0.0303941606224750
  0.8352434698050226  0.9262145063021190  0.0660507799678977
  0.7472373366526774  0.6682643228526478  0.6918228059109560
  0.3663177795622166  0.9615201729690382  0.1177366677155642
  0.1221574621314733  0.4558619806700816  0.7421859687826620
  0.2061461965203253  0.3797107124455648  0.7293832925937108
  0.1543475027405933  0.2851139018676211  0.1643271615527054
  0.2893086554231898  0.1696985107363324  0.7824945385293552
  0.8037697625711475  0.6104026997059592  0.2270580279135841
  0.0980756256571956  0.7183963432342001  0.3944501372793844
  0.5023883728295340  0.3163690101502197  0.7461701811932440
  0.7130142332215078  0.1352159856932743  0.6938954707809418
  0.1936393902462969  0.0324665540819083  0.7063866481222159
  0.3878088854583535  0.2922229471276502  0.0944798125945853
  0.3307369309734108  0.2685414670404247  0.3051420911554403
  0.8349629644254761  0.7746194297446193  0.4419804188091687
  0.7258616070636895  0.9268924351755635  0.5862134436868851
  0.1622408134009855  0.1430230521270936  0.3063526365251326
  0.0931919657757564  0.9480073501516029  0.2145314706937971
  0.8944584307666653  0.9819879548760669  0.0852431788532348
  0.2138637420390528  0.7911716391379298  0.9670151304842953
  0.7858623290899134  0.0522194832872493  0.7557163233384434
  0.0110086455402592  0.2955419985631093  0.8474073948674303
  0.3964742989379931  0.2702732195431284  0.2685680525615809
  0.2073396927644694  0.2154395228905424  0.2586404053425680
  0.6113990960031467  0.4112721896843951  0.2057344805417033
  0.1930590450622405  0.4734708237106812  0.0644160209567585
  0.5566691584940162  0.2782787302935055  0.2772138876237827
  0.2372266142339091  0.1814233093222363  0.9118762371370902
  0.4467571147615106  0.7783111379147171  0.9559074498843948
  0.4651561232179098  0.5549381295708508  0.1568985339951308
  0.4473968408421080  0.2652305640191963  0.9091574716353340
  0.1459490932054165  0.2438805009342785  0.8244884201915421
  0.6877755244973547  0.8726726040943970  0.3122728561691424
  0.6578414713876106  0.8076738868197372  0.8595941958311890
  0.0660783983237906  0.8307030595770913  0.6534211482874465
  0.4917299194656503  0.1581113533675144  0.1791432283888719
  0.7990335864239567  0.7924132240195618  0.7148579285555250
  0.9092066678898176  0.2631665073511695  0.5868260021737214
  0.4270878501371844  0.3414451274828552  0.1994139636452908
  0.5739070772012433  0.6036959658611195  0.2000183621541425
  0.6654583803513773  0.7166153435270919  0.5454076497690017
  0.1978476203932074  0.1964941295996253  0.0160820389119325
  0.8236256321846477  0.9469783150543404  0.3883931597952411
  0.9313692047369451  0.8075928332732909  0.2179136660337078
  0.5045486671513271  0.7105587910060083  0.0088382655280245
  0.1433454275740321  0.0675735311321100  0.0809151755898522
  0.7642197512736335  0.7376420534771411  0.6663042538784797
  0.0234230374804558  0.0920822821848746  0.3043601064587164
  0.5073618393958209  0.9018217586598097  0.0722552645305556
  0.8610450557187187  0.3831574103415759  0.8972664716270811
  0.6682215212399503  0.8548391667617261  0.5553066808508623
  0.2345043087527972  0.5020100811784113  0.7416806742154838
  0.1229750592590378  0.7499401450747144  0.6126099353601885
  0.3924425806055413  0.9629830712258728  0.1069668555363254
  0.7618176251528084  0.3770601448790451  0.4103126879743922
  0.8249684390455501  0.1932515561862417  0.1225815895617220
  0.9307281770829871  0.1141230784609916  0.4945839492592457
  0.5717273543704452  0.0013998051544804  0.6227140130190314
  0.6382920735425996  0.7334514559186665  0.8971903609991122
  0.4001504113964539  0.8533610207645991  0.2435448609137866
  0.4911009637153741  0.3452597615830997  0.0456643729101896
  0.2439158172848228  0.6749913260063183  0.1572464217713281
  0.5167014586263503  0.0816569377862003  0.9828557185595782
  0.7750245795726495  0.9226537270304956  0.5879515087768489
  0.5056280153774246  0.1584669645209557  0.1055697583640275
  0.5825912115279048  0.5983105284613179  0.2738764452048572
  0.5007963938483602  0.8373776795670194  0.7844596909748150
  0.2023795930535892  0.4020527165403991  0.5880037368845821
  0.8685951959397580  0.3914407799137712  0.0438755172329898
  0.9797882393939876  0.5321479123676149  0.1985342798610250
  0.0863646736406570  0.7902914178112740  0.9816045306195766
  0.1306268762845736  0.4410421664042295  0.2413513966251354
  0.5332108593372028  0.0307253008176551  0.1469431369990812
  0.5861779211330373  0.5272728948153170  0.8979360699973563
  0.5297288434325743  0.2057499480755521  0.5601439102689199
  0.8124725118100747  0.6020486043184089  0.5749827992710838
  0.2171319957148333  0.3422890900902673  0.1539709163849939
  0.8482716482540317  0.8336224025348723  0.3498948999125294
  0.7563564690806996  0.9382922030413858  0.3565504835376266
  0.9618984905770439  0.9873270924407501  0.6023662540796617
  0.5840300772146656  0.9722248428597132  0.1289116073603693
  0.1892668777888599  0.2870514174265161  0.4090772700731363
  0.8528179751142432  0.0156749215127380  0.3176404230320203
  0.7157599631718136  0.1926878505872473  0.1913673724195988
  0.9945390373631289  0.6297740949444965  0.6212219416952295
  0.8174607684197218  0.8714928065710653  0.6817488294062575
  0.0468653037590073  0.3188325365978300  0.3321358282051394
  0.6864482554138046  0.7194929762267572  0.5641420108950956
  0.0428969190928542  0.8435027268610745  0.8992521116956312
  0.7075481054410414  0.4897912532929132  0.1618878229405547
  0.5398849955507604  0.2926735515046951  0.9001928469132863
  0.4832321200685337  0.3248722517705048  0.9806052444485608
  0.2883433186901382  0.6020380969309571  0.0535376560394708
  0.7245174489221416  0.4477918279222770  0.3866270236755771
  0.6009124930207778  0.2084874352965647  0.5808902730202627
  0.6214277849066225  0.2904748353542069  0.7793676879532918
  0.5261632486290615  0.1465174624297426  0.6081777929254528
  0.2214304214262674  0.6354647633058561  0.7034321216434497
  0.9508008853125115  0.1561251417743425  0.7808239445150623
  0.0187611609336816  0.4966045222904553  0.5026305929916114
  0.6369557377366649  0.0135675545334899  0.6609785360369628
  0.4896970085443840  0.7156605292233620  0.5512652562066912
  0.2546553202607255  0.2167510284371813  0.2474213885496924
  0.4391442728010767  0.5461692723481387  0.2277406727894173
  0.9973980922624409  0.8134945687280335  0.3368710503831207
  0.2654893679796174  0.6912050154893755  0.6720423094340572
  0.3598943156572856  0.4820778779839777  0.1160812090505685
  0.1502645562501508  0.6969117886011683  0.8101310574683972
  0.3997134073072408  0.8486559290388936  0.9826515557781338
  0.8747388382936465  0.9194459445586624  0.5880122381559456
  0.8476419751406093  0.0902065692910738  0.4105213859696734
  0.6081796639577519  0.0374936412029277  0.1423114473600056
  0.2989844356953185  0.3670123421987493  0.6525487358758558
  0.7997372090942931  0.7007832864469561  0.3757409032019363
  0.6896286448629761  0.4840904722053051  0.1839149346887704
  0.1743185703124417  0.6755313206921999  0.1835446466036295
  0.7922097088511693  0.9744969214415553  0.2063853889410366
  0.3215853552836346  0.2807049978005262  0.2046164090438938
  0.3440098488105036  0.8511328841998472  0.9857432789886952
  0.6913279196094677  0.8674053771829608  0.4104126210004511
  0.7019273612428588  0.1389346102884459  0.6086046100562037
  0.5525977471202916  0.2476545610018835  0.3996734550828085
  0.8798325247088852  0.4023102488276541  0.2376149395595762
  0.8334783411910379  0.3269132002143100  0.0995846498904930
  0.6285924733041803  0.5794641370053425  0.6440410274346319
  0.0876414131922123  0.0989499258003906  0.7196391101055430
  0.4745412404007826  0.1161309356732540  0.8609970779563200
  0.4339432117971341  0.5160537169054863  0.7722959468538280
  0.1851713119785413  0.6512420651500850  0.3977400110568474
  0.4943434403442907  0.6488329966216453  0.5395124970514923
  0.2069481326718416  0.5267454589435053  0.5876000948368221
  0.4004274748829011  0.2461218884625436  0.0309522927355339
  0.3078668903552055  0.0869917569581743  0.9511510807437950
  0.0313563435855226  0.0461135195738850  0.4564569937263397
  0.8244547242429100  0.6996948454986857  0.3622249078185546
  0.2943365348861251  0.2014186283315280  0.4122363340947200
  0.0737033018380502  0.0067932485460046  0.2046657552967896
  0.4155477819244112  0.2556271231718678  0.8401927795015712
  0.6535904827263769  0.8703034803670043  0.9256912159415425
  0.9634862008812153  0.4336772321189610  0.0269541778804504
  0.8623408281774232  0.1196093221420193  0.0458501922246568
  0.8398282989679032  0.5135978685804362  0.6708760540448302
  0.0518951274641049  0.1210234985575057  0.5955118805888497
  0.1045299330615629  0.3702524065938911  0.2411039138338386
  0.4565133227945735  0.3119089391776066  0.3927076071180869
  0.6777559797210231  0.9771579243915343  0.9869726546143356
  0.7512142185562480  0.9406756957055397  0.4053792911806510
  0.3340812062284211  0.3227700031163885  0.3885501928268845
  0.5810766367872687  0.5069892428088055  0.6732609372241665
  0.2678222252497900  0.5129186289897062  0.4719500076626173
  0.9389598083144832  0.0030532328541315  0.6972337148284731
  0.0817357536128368  0.8128678832063685  0.2403101191436811
  0.2624856418413379  0.8486885809044057  0.4586420128576298
  0.0986310319334829  0.1791386102241006  0.9340995284478734
  0.6051978736793028  0.5106699494652011  0.5277592709476306
  0.5784032998213169  0.9983783949567393  0.9766377620269799
  0.3535022376579638  0.9145659070359328  0.9984637822333469
  0.3125064016263082  0.2833621688765307  0.1778429523203855
  0.5290496116111215  0.3174674118730126  0.9528330799290755
  0.5745713311522972  0.5214721318931528  0.7961246457447593
  0.2359941706634484  0.1968837071549516  0.4940874445497291
  0.8134611695159066  0.9815424392296159  0.9815895982827237
  0.1462693158447421  0.8888304612785760  0.6062313043980053
  0.8788566525940691  0.9518587126655539  0.3959125383244177
  0.3862461749658165  0.3991201870828789  0.0609502057329151
  0.5661551334557648  0.2092865292495662  0.2826298447974442
  0.4016878098347059  0.6470308673654754  0.5051460875237470
  0.8198807882514640  0.9113631830245141  0.8083468827010333
  0.2419518029951504  0.7358359325764791  0.2948685852826382
  0.8445747839137752  0.2981080203938919  0.4515277092873459
  0.0701651535920556  0.0662062003094753  0.0966516529515975
  0.3425096068661802  0.9667122366217901  0.7634619735660098
  0.6656005176386126  0.5853043019004847  0.1097072115017263
  0.5782205365534036  0.7811693886521679  0.6000311640611689
  0.0783530473134664  0.1746886796547922  0.9876994231326983
  0.2433921115909669  0.8785390000013121  0.2635024892555455
  0.4207150689339530  0.1576615402782001  0.2018284710097511
  0.4625629173190643  0.9047924042884468  0.8365144665628554
  0.4315444462553025  0.3782929793358744  0.7150793504008502
  0.7564495713089262  0.6911619071561551  0.2881745415211106
  0.7441475619207837  0.2219454743740891  0.5156606190694270
  0.5828824062021600  0.1607331741263792  0.8209051363158899
  0.5359957740899673  0.3467359212994370  0.0616988306552125
  0.8400635024927356  0.0531259927559138  0.0218700145862838
  0.2975578290053003  0.0980414309084875  0.8400044128118023
  0.9847543216223718  0.0249485630411582  0.9660712208173617
  0.7164359799636033  0.7900315593769686  0.9321529597575653
  0.9701301876853544  0.7965603911410443  0.1383012130828467
  0.8495113836208464  0.0832846828082490  0.3652511399761012
  0.3351102795203956  0.5137535706128655  0.8549365212004522
  0.9668801739371345  0.3058344973232465  0.4342042064910097
  0.7483195803238654  0.9312173716645603  0.6578401400049056
  0.5711768471853697  0.7810505437617054  0.0420295739754488
  0.5065419679311421  0.1274081932452949  0.9246571571256825
  0.4406920196834178  0.5363993956164106  0.3027645629185613
  0.0900099021884135  0.2815767031157688  0.4925282368301992
  0.9321856497552709  0.7808596762405591  0.0020729919144161
  0.5867017612287956  0.9381799225628553  0.9172527261263497
  0.8291383380424058  0.2581519449623441  0.0758901011418409
  0.3363869396250131  0.5546670757287312  0.6375168187135809
  0.7079265876222657  0.5947624317511324  0.0365146170718327
  0.1581124971044174  0.5907480102082543  0.2579438021086379
  0.9753930170975812  0.2968135766832759  0.9147592503279413
  0.8637086465381291  0.3853018127982943  0.9462824294884653
  0.7014559897617192  0.6431618731841356  0.1166453611940492
  0.0047401620979296  0.9694253254824678  0.9185390294074244
  0.8334794402920400  0.4055757185911054  0.7277270637640322
  0.8395412394043010  0.1910059951768606  0.7978098614648202
  0.7634154102170320  0.7179856496903736  0.1230017523734171
  0.2288317184403235  0.3121124237218972  0.5836697518685438
  0.1844069559842066  0.5978917496310936  0.2154607927241784
  0.7164062586528346  0.2923924204344360  0.6385387068031346
  0.4356881316131095  0.5912050807650377  0.3609023208227142
  0.2725836906604494  0.0753817168128192  0.3296987950768587
  0.0791399795267353  0.0407732635472386  0.4456634874095878
  0.3377688381367261  0.9655889529059293  0.8485186284732330
  0.9142295202333921  0.0584495581666736  0.1818787882103248
  0.2697616175812828  0.2543134403937633  0.4889867739189067
  0.9019998706353390  0.2533112130083590  0.2466994718884656
  0.0482413379757110  0.1243193876063603  0.5672286217192241
  0.9849300855896245  0.5814076257405068  0.8833542212035409
  0.2269060545786469  0.0324154317701162  0.7421667397164826
  0.2441318408257504  0.6321939310595326  0.8518052336100562
  0.7142118768064716  0.2938730302947327  0.6888605958220043
  0.0737377003740765  0.2734991979071782  0.3205296708893522
  0.0665122753253824  0.3749928738029438  0.8608302610475439
  0.9163179050767885  0.8347282261533521  0.7739326700554582
  0.2366225856450337  0.8819124972624490  0.1898416495285579
  0.7273493953623850  0.8569531741288919  0.0943620768000436
  0.4521012569549895  0.5140077334455825  0.7506616802180892
  0.7948118357254842  0.0508998628491703  0.2343040991859310
  0.5986013325807307  0.0823715897405104  0.2562994433945384
  0.7432115142494607  0.1916897060719124  0.1995985927416857
  0.3378008122894699  0.5690792236261178  0.5488139160118702
  0.8690679874748480  0.8912520649339584  0.3821607338663097
  0.4688455498868470  0.3620298529968421  0.6404413482499215
  0.2170768406631100  0.4851531180640785  0.8147925779123698
  0.8013364182752313  0.2579457631251637  0.9797304010982233
  0.3720990979363219  0.2469579854672752  0.5894529771919812
  0.3101264451796101  0.9029707094229885  0.0887733107441857
  0.7902468985470182  0.4639987143355446  0.9955568444367585
  0.3138311745597388  0.5114102861600489  0.8022512286407361
  0.2745318619300969  0.7869893257385552  0.9774484269911445
  0.8801789763782371  0.1820641806886125  0.5439666762565989
  0.1196924720184124  0.7878922671508281  0.9445140227557756
  0.7381487959715645  0.9870105861234715  0.0686326874259446
  0.9296490591952787  0.8255354653190276  0.3123305293391799
  0.2270821686581793  0.2829976503792949  0.4385601801797027
  0.3660052785728167  0.0913637910360248  0.1356611867492574
  0.7116915890769576  0.8514344587814116  0.4804218512400219
  0.3959626386145045  0.6648064404148912  0.3117680766483433
  0.0695718371852991  0.0904390578425370  0.3203685856251069
  0.7174545270382062  0.5292704998605668  0.9712593310924232
  0.5182621655806694  0.0740814363229900  0.4085793324524870
  0.7223579810996468  0.8074024278732186  0.3529415355221627
  0.7790594928950668  0.7734049536481192  0.1560214635201195
  0.7919284769374295  0.7067329065992883  0.5310581349899067
  0.7218872153911854  0.3553903094108010  0.7322326694482665
  0.7330196081769885  0.2884046329786561  0.6159841144140421
  0.2747288123868737  0.1633067310718661  0.6870354558288171
  0.0936440656953976  0.0290940937668511  0.4008893773763736
  0.8595952038621723  0.1103598595276596  0.2271625983611270
  0.7795099725662625  0.8645434206002971  0.6058674852553053
  0.2643453867350739  0.4746033860554975  0.9599832784242515
  0.2972231407976066  0.3788506114972787  0.8203384410056577
  0.5580601065560294  0.2959846594672124  0.3268848281618887
  0.9216077428376206  0.7796138712216050  0.0279350083564842
  0.9559924022959075  0.8120949079759900  0.2589307572276265
  0.2478392950888429  0.4834007756113274  0.1793373433569652
  0.6340123233403839  0.4511226698721135  0.3025624843714917
  0.4290115592549746  0.6491741639027762  0.9217091218345510
  0.0298286945125254  0.0395636546682322  0.6604323744434656
  0.5485294708999433  0.9680618895860356  0.6972368832655371
  0.8170898420937273  0.9544706072432485  0.4367217672208766
  0.2356293154661248  0.0178460505221556  0.2659874116767310
  0.0350745177514554  0.7695564274500490  0.4855103711852534
  0.8780774439291417  0.4601270395817584  0.1082169480508374
  0.5836134494804369  0.7125562731563376  0.0344384222302818
  0.5791981774858533  0.5257019795497564  0.0215849636707877
  0.8349068409889063  0.3347714476399796  0.6837649514025396
  0.1099463653768018  0.8068602192947456  0.3208845939586004
  0.8479594406343625  0.5329179907484181  0.1236781994576853
  0.8176202242875954  0.8337301385013609  0.2706868792148263
  0.0918942662156844  0.7413483874016490  0.2202207050632155
  0.5494051461461048  0.2961130611145303  0.4810955519446869
  0.1459252922845912  0.2858505303729510  0.1367230478488276
  0.2318951990370017  0.6499237019437123  0.4588088518111925
  0.2404883811767470  0.6507852054337127  0.5066723442994394
  0.3801911469109236  0.1783998461546754  0.8221988686900680
  0.7479218146024450  0.3704220900726103  0.4341367253949813
  0.4105656512246386  0.1949321118688148  0.3687659387158964
  0.4823157782797208  0.2711342625132211  0.9915054695775189
  0.0238407539097981  0.9633915540314955  0.7553258079591019
  0.4108519102120377  0.8512521344468647  0.5139524286735265
  0.5653778461670045  0.2460693416739422  0.4420640827826748
  0.1315334130380196  0.9465139432576166  0.3098869529174052
  0.6140473882893277  0.3016315959875953  0.3221211361439758
  0.3142834022708345  0.2400466160417817  0.7441237876967387
  0.7394983856561617  0.8539738713256928  0.5303337913980760
  0.4508030835316577  0.7265109048007189  0.3823291961177990
  0.0336762652944205  0.9659715078059307  0.3913340565836387
  0.9539092856257749  0.2415274393242517  0.4332636035420746
  0.2694725147479474  0.3825633117340712  0.8213239211280118
  0.0420327023288147  0.7660365834189851  0.6333025028198739
  0.5087564937287506  0.6712098185445660  0.2503249334532071
  0.9068807758318443  0.5268913235125625  0.2853198117915404
  0.1711830095695489  0.8325477935944530  0.7782100921570779
  0.9838285294569377  0.1751358676664371  0.0241890562004976
  0.3794508007180968  0.3322783526658746  0.2550968902620449
  0.3438084417365758  0.0021862325836202  0.2942765404718219
  0.1601759097601464  0.7136234801428070  0.9387724600750481
  0.8311248669870496  0.7285783299838936  0.5949973913415642
  0.6510804508342776  0.0931965715269212  0.9034719748592898
  0.5134768804711362  0.2316230627526984  0.8331147536338386
  0.6964968752066023  0.8560496658110387  0.5548664945590397
  0.3247882210436239  0.0191034469452586  0.2145253222023914
  0.7957196400661063  0.9441482021664004  0.3853525283838645
  0.5070910203119106  0.0537436485282716  0.9076490290513319
  0.9282808489746708  0.6774500772108036  0.5640863538210015
  0.3776951043418181  0.0418482389770401  0.0474812505173377
  0.0694545451019473  0.8483287868035500  0.9955905809766296
  0.7444254197421659  0.9594314090875965  0.4484786587715379
  0.0101974416163775  0.5502895460130830  0.4801096249143852
  0.1003981321058092  0.5729810363608274  0.7194366788418868
  0.2935039920707431  0.8067716844837969  0.2501915524735751
  0.3984679488621503  0.4094788472063692  0.0834122649296080
  0.8030935354848684  0.3276694891147644  0.0616158296285633
  0.6976077691586550  0.1249869302483938  0.3293890958854015
  0.2130611431562969  0.0688195884090436  0.4179663713601688
  0.1659559013720885  0.3873889858888359  0.7555636571786296
  0.8597674224791915  0.6028912194039175  0.0057202286380330
  0.0096623134884658  0.0836897181389232  0.8751970869963792
  0.2245680666216700  0.0555050928228208  0.9822754276281932
  0.8366114503887634  0.6012995206987264  0.0221676745185263
  0.3934614362357775  0.7191099225122043  0.5314657731562661
  0.5345613124733085  0.6725197350900893  0.2389039563534812
  0.4664926265331095  0.2313819464638378  0.1025521463192852
  0.6680344846089449  0.0136660171924832  0.2843433399706430
  0.9512905377318197  0.6641201057542024  0.1759440382462080
  0.0658901333176500  0.2198374066809729  0.2926481702402632
  0.7282225239176010  0.7284680370560250  0.6010066057893080
  0.0406262885903428  0.7220212324640040  0.0569996623249943
  0.2561360385795086  0.3897963439771964  0.5839799380493789
  0.4495770705806717  0.1324536599540554  0.6198911179654654
  0.2440675312279929  0.5193049894284248  0.3446302200771224
  0.9800553704335434  0.2474939627891654  0.4410761556890018
  0.4024552356810801  0.5410985146352079  0.2718526395983893
  0.0545967272356767  0.9985044433895478  0.9262648914328588
  0.1038362327477839  0.3896146761383001  0.8340357387267205
  0.9825761067840777  0.5138239449087523  0.3482238169047870
  0.8937222063243623  0.1550378120640721  0.3700670460732469
  0.6251374252255161  0.6679333372904028  0.7374756592176746
  0.7100977844715635  0.9185151870672569  0.1016675417378232
  0.6699953627245053  0.4702648280860474  0.2759767362006670
  0.3228716886121079  0.2675126966904218  0.3533498911461243
  0.2281031508616446  0.1255229064475504  0.0436472055902056
  0.7759784765340806  0.1744849199293714  0.3545678976740642
  0.1157238527376658  0.2508826235262164  0.9921489849570361
  0.4769361630245191  0.7711442309342241  0.0673801757967078
  0.9367396130006539  0.9001268693635266  0.6968045469218358
  0.4220822985516374  0.7003894346429297  0.7534490871732805
  0.3843859498611194  0.7479927700831960  0.2246934299461151
  0.0022784073114880  0.4197031679553431  0.0599543952231264
  0.4294718873763761  0.4735827039587897  0.2525011366739059
  0.5310925639080636  0.0788615364327923  0.3069680187487324
  0.7764828905221290  0.2083329251774783  0.6838132535341764
  0.6681130984792342  0.7910807947525765  0.1928456695594761
  0.5286499297494092  0.9312548281480347  0.3417419321700457
  0.4292172339233732  0.3852185385970222  0.4480217545151431
  0.7151378136497079  0.4151711554150000  0.2980006364242811
  0.2149485854922066  0.3041970004370152  0.7603331149102892
  0.1998976762918739  0.0110359860519178  0.3316716171040037
  0.3614454109728670  0.6377954168865830  0.6852659087794358
  0.0076974775763464  0.3426316673781035  0.1105287409383841
  0.2790181732375817  0.9119553486902970  0.1799903808818752
  0.5155735081982070  0.5368932794699571  0.2903319405387910
  0.3708299956953092  0.5998707037031589  0.2818792238199185
  0.2635806603550919  0.4236786136105782  0.3947819173307859
  0.3534526538281115  0.9480557299446691  0.8900420363108021
  0.2239623741530724  0.0973626795783616  0.5889372975262160
  0.1605606233522251  0.2184867823006302  0.1676501077207397
  0.6611587171704200  0.2143530544670729  0.6395524784030556
  0.6211242487724637  0.5931047526450682  0.9863660802850409
  0.1919605767080016  0.1689918069033130  0.6950611770545738
  0.2434341185047985  0.5568688088579167  0.3288870539262910
  0.5651218014704877  0.9468855271907513  0.8993224045039943
  0.0088268331468377  0.9200484741016326  0.0300320441389335
  0.9197243075839852  0.1973081563453463  0.1991465541705205
  0.5746254217208038  0.7942220812656486  0.3735503307884802
  0.1384000655631375  0.1149666141580957  0.9267048051709557
  0.3062824101605746  0.5463799273755735  0.9608197838865210
  0.1184401911034017  0.5319300218955131  0.1487699588090831
  0.7739158808719151  0.9827202577529280  0.5232593127369237
  0.3505963931673515  0.3758927896410404  0.7697265347816724
  0.9419913323769274  0.6621306095496189  0.1194488099400837
  0.6252316634875696  0.2234053408740569  0.4794164787038172
  0.6629922676045306  0.8831285844141835  0.7014465897947614
  0.5795067579512817  0.5822900608424406  0.1550595428616728
  0.8837182120131973  0.6315030125585666  0.0370903188798572
  0.8089396917057734  0.5992063786762069  0.0128306400809883
  0.0373401194887905  0.6078208659819374  0.3006553718411565
  0.6505664374972474  0.5774114806169274  0.4735693976497206
  0.9117925918595371  0.6656428101620737  0.0808343704243612
  0.0856920668378996  0.6004236723121453  0.3023227413043830
  0.0479213522460740  0.8383641111201314  0.3733086758371469
  0.8431943883562600  0.6863036419344305  0.2382219928619628
  0.9919108994768917  0.4311203846791807  0.0345022118265809
  0.0514762293437138  0.2233049363294008  0.8078312351004124
  0.3721867849103790  0.3975063507785521  0.4926422484586458
  0.8997605954125434  0.2372445032036610  0.8415795649242996
  0.6532673264198960  0.7953672749364100  0.6622430189873900
  0.2679160214190185  0.2071997315026645  0.4039878943893683
  0.3822768037937056  0.0777979488959357  0.2323493218187005
  0.1620134297722098  0.4258629104137867  0.4685222397364722
  0.2232564691475444  0.4047506782721352  0.1763654754469790
  0.8243796804098320  0.5612858996047038  0.3909101734135846
  0.0929014464537712  0.7886150668642575  0.9535611991916391
  0.3233738279704482  0.2429311120514875  0.9234798613064834
  0.6701114503736050  0.9431313258659547  0.6950584635417435
  0.1797040852122262  0.7047392920522321  0.7172342022436361
  0.4796153546230293  0.1604447982864360  0.0942694526227973
  0.8325795425554706  0.8699335670730577  0.6579432755372443
  0.0162644685773889  0.0355343832922475  0.7081438200299965
  0.6830077781049658  0.7368145203102920  0.6919110552000868
  0.1016150562759964  0.7009530848580935  0.6882637672924834
  0.8694522063859502  0.8482138012331163  0.5138618506532961
  0.9808383480197610  0.9834969573993376  0.0924603007113367
  0.6776361883721621  0.3768819905113178  0.4120643567017947
  0.4711784017342555  0.3279554893378054  0.2921577218348627
  0.6093406398704521  0.7321451016105638  0.9001965464293017
  0.3338488754102363  0.6982384831951770  0.7021348059894041
  0.6739447141292342  0.5801026551537930  0.5730104722496028
  0.1053013364726895  0.5133850461861039  0.3957792355035747
  0.9997539980383988  0.9944148289061640  0.1475506923213821
  0.8754816896971291  0.9387619007125132  0.7035258200030277
  0.7500855731300097  0.9158618142229494  0.8007569007324091
  0.8355546859091735  0.6388131221220380  0.4081214361806927
  0.2531370479182918  0.1201344707800093  0.0557501934775376
  0.9557007359326553  0.2615842982467582  0.2630380777472583
  0.0683497720081198  0.0809098350303282  0.1710870037918180
  0.1361456150266500  0.3328455385348686  0.9912558464378449
  0.9134877486316396  0.0405691613369343  0.9565037373146068
  0.8454610593226137  0.7841267773738370  0.7234759190481075
  0.7950659799764833  0.7790537119945465  0.8436312892510327
  0.4939743691889060  0.7669374995481399  0.1224048933820093
  0.9063606508635014  0.1954084495014088  0.1437301718708641
  0.2085217467731648  0.7822653057958263  0.8927809768004925
  0.9284291260772067  0.5489469655544502  0.4601563273711686
  0.6800123274535740  0.5831757598729225  0.1345072638149077
  0.2709796066068414  0.3272358444873036  0.2713117487129747
  0.2372950975500381  0.8196831929827474  0.6536665087670097
  0.8314885015116892  0.5428353957495390  0.2215150186181327
  0.2247446466896225  0.4758024648478082  0.1115150084604361
  0.9418183282559279  0.0559406444467062  0.8069311464612098
  0.1148751260015076  0.4973833705443216  0.1151039195684932
  0.2675757784983354  0.6006183518743741  0.6107511610347774
  0.4139957498149965  0.4612298004541584  0.3780355550654143
  0.5344018883427057  0.8430576972804904  0.7071394475254775
  0.6116483117651159  0.8584396274155500  0.9495260813605232
  0.7416092116019117  0.4827684747054601  0.2121914366308786
  0.9394837485213513  0.8675342773059106  0.2107199070400978
  0.4236372866485481  0.9756390913176327  0.0397314228026998
  0.1652973888952821  0.2782540330517299  0.3600930446801089
  0.0043176644596328  0.1224858385690356  0.5071512231999880
  0.0758168750674667  0.6408420789487415  0.7470954249380937
  0.1744413210192624  0.8492858612402174  0.4521552261639647
  0.6220872500469976  0.5843930955718536  0.1324105528924509
  0.9937298763164601  0.1800506464308304  0.5252692822336571
  0.3826917217027032  0.0685248795391360  0.2964336509032043
  0.1334001453773603  0.2226115909851850  0.3632259475521454
  0.4667470823034243  0.9743976019268847  0.7604731293666334
  0.7065036532752182  0.3195057248799852  0.0756817751022327
  0.6144430883193382  0.0853074846129908  0.3980925613054227
  0.3492929124998159  0.0349203527573204  0.6007477719369543
  0.3333505090844346  0.7824114681644014  0.0236505202995195
  0.1447008472175944  0.2922192245969273  0.4299211709850785
  0.1466298709684093  0.2180170590582529  0.2146792529313307
  0.9046405124438067  0.8009398289700047  0.6836468875414912
  0.1653940724057738  0.8530234185418080  0.0712363580986008
  0.5804192198342365  0.1711207751552604  0.4084481699800213
  0.6122804844717725  0.7841334417374434  0.1801477590146334
  0.9821471720219007  0.6457024180405108  0.3723998314094983
  0.5584632324254923  0.7129450547380005  0.5805789565430934
  0.5206989681686967  0.6421640004992577  0.6090291966553594
  0.3165528255833645  0.2686767212835879  0.4019914263224265
  0.5191498580144940  0.4447975139438872  0.8859939280881309
  0.6924386215548766  0.3175709000892559  0.3831426246965818
  0.4575790947999969  0.5488945189616419  0.2056542134694139
  0.0833673343525751  0.5951520845011109  0.9348880103444465
  0.2354742237081899  0.9534067523714259  0.5629079717950416
  0.7172788229328286  0.7995499904892476  0.7405241265486719
  0.0768683500347720  0.2956698844765176  0.2495366018619975
  0.3388322662072901  0.2314996982154368  0.0940419183593535
  0.0830129262379447  0.0495883489845718  0.5751176332025636
  0.4374360359327680  0.9727509329859962  0.7997928922322589
  0.6461276431348544  0.2224670451380381  0.3012803776161679
  0.4164167009297836  0.1833552683216094  0.9915664534736980
  0.3817898786932836  0.3441667407502722  0.1807359327609127
  0.3334147847199323  0.9505949510032983  0.1839437646603532
  0.4548044638312695  0.5709830150014246  0.7346033337402091
  0.7316383565091077  0.3274256502881245  0.0866758931861129
  0.9932226514709093  0.9813284800530777  0.4829918064155578
  0.2839598097659013  0.3041978897448780  0.8928299182309425
  0.2219383187448626  0.4735209697056827  0.0626280392551461
  0.3135423351701550  0.7318267476266993  0.5561629925519074
  0.0471159487429441  0.5015951308471938  0.4877508389672001
  0.9654664938778427  0.2061214159964131  0.1885361799087423
  0.2679555708204162  0.1517168266113115  0.1633062053564057
  0.4628081526220878  0.7146376417008380  0.5600412897829603
  0.8660602247939435  0.1880267111901542  0.0857240892810774
  0.8961178790919360  0.2358489253525788  0.5363551926046981
  0.1776488212594006  0.7243736126768394  0.0936052963087189
  0.4142380156781664  0.6018238662005595  0.2605188376054625
  0.5791792996379707  0.4390201984547011  0.5986455951098495
  0.7415238216174158  0.7017886976819713  0.1774226925116292
  0.3286332805738169  0.0140777672034083  0.8420407779344500
  0.5061210431892994  0.2313398324914930  0.8593608597807113
  0.4912093654300308  0.5913120595096665  0.3651889716736571
  0.5295297925193919  0.9904950191824171  0.5579663242388763
  0.2326527931251230  0.5426309623391096  0.8955590788516432
  0.6259091441965817  0.2943949122760215  0.4893178505412066
  0.1423269004790040  0.9031632002055190  0.8503684145379026
  0.1370955921372978  0.9695852478276484  0.5727451311770424
  0.4364368528489970  0.2574899515449457  0.8598077276469626
  0.5980703119298229  0.5109742275741340  0.0712750008059460
  0.9175975128159349  0.6420276262529186  0.7936492827446968
  0.3476182443084708  0.8143546434098944  0.1814885828608465
  0.5044610518345310  0.6125499816466020  0.1724573546256865
  0.2689314856947823  0.0104708668143322  0.3004538584422540
  0.7295994241501900  0.9086498448290011  0.4766922080176113
  0.0398012177841047  0.8493140628778859  0.0436197073241440
  0.9012925072506939  0.3780633580051005  0.8701833730285609
  0.5104860404427760  0.5763214287132107  0.7866162623109600
  0.3031755698768275  0.8008983997707553  0.2761055078158163
  0.9416165760045123  0.7737510014023147  0.7424132966267398
  0.1646627642221662  0.8744679115696696  0.1651469628784963
  0.8467767105285784  0.6799322024729190  0.1339009043220794
  0.7509309676414750  0.9177195479209563  0.5454160889141483
  0.8115643431787367  0.4731778152136053  0.2201366021980478
  0.3191969854243898  0.8922628982121813  0.1730658244058194
  0.5507590056441446  0.0396388005689195  0.0144500496879518
  0.6225324827468754  0.3746043509623562  0.5111837477625644
  0.4262531942173181  0.5196632931370448  0.8206520000388513
  0.0090921061450736  0.1825722292259396  0.6232638260308275
  0.9408737747345816  0.4880491262758710  0.5082140464542922
  0.7401209044589556  0.9358616221232916  0.3797605596213195
  0.5430073157207120  0.2168670072822408  0.2002293516047931
  0.8542458934098294  0.6682214477294200  0.3222023551502345
  0.3753984143088465  0.0345118648825542  0.1001998739928504
  0.3082610500921724  0.6739917312892965  0.1027702073366810
  0.6706652455450938  0.9125077895950983  0.1784362178111610
  0.3977231561144775  0.4492785970652802  0.0044321149188338
  0.3248479567437386  0.6526572910685023  0.5661626260197128
  0.5220836431042692  0.8620803521406414  0.3148247406318341
  0.0990280419415809  0.9116376663715825  0.9108676240172471
  0.0376729769978516  0.7178547387397507  0.9539749798371896
  0.0100088487627166  0.6000196140798140  0.0084153673190383
  0.0318814812623951  0.1214019838353846  0.0400263690217047
  0.0851270292183484  0.5306460081340109  0.5419212166574194
  0.0400258228181170  0.4478286576565487  0.0302192154000442
  0.6647022226594194  0.3724401818201727  0.4860005370165703
  0.6429764807777176  0.3807688455196546  0.3304487486985702
  0.2717640155374342  0.9816170365318374  0.4250560749526152
  0.7201309068246371  0.9894041320956822  0.5087671822166590
  0.9344273433411339  0.0672837717851963  0.6623700350358928
  0.5284317178571286  0.7932296148908486  0.3899170718072618
  0.7271811513275055  0.8588264183302475  0.0448097041469720
  0.3698294674839234  0.2058048696879308  0.3061321726259911
  0.1394738636945018  0.4263628399006110  0.2211476041711361
  0.7303713853189749  0.5170506813965395  0.6486560353828299
  0.5507916888044173  0.1689495879931050  0.7526878947185172
  0.6414763315392311  0.9183728381403875  0.1797849072372533
  0.9797166845711615  0.2064924667116997  0.1425395139048436
  0.0704209947697476  0.5339736511016878  0.0899083044214545
  0.9579502569302056  0.5204122321438058  0.9934201134086047
  0.2837895258957905  0.1892632814971685  0.4865230164969833
  0.1910989881990479  0.8285021205954047  0.9759106989101045
  0.1440001504037297  0.6706540611500644  0.1452063523104080
  0.6124771120389267  0.1545548485957887  0.3102029990033481
  0.2552668981193804  0.2774638343281366  0.2402704886294865
  0.0149941014208524  0.9859883870432212  0.5340566328017673
  0.4578980030430722  0.6032185020693104  0.2394266723143329
  0.5458694534754382  0.8461593936759192  0.6817739784996900
  0.4384243918242963  0.5062903511585110  0.5746566927461392
  0.7179630250284647  0.6491942888021429  0.0622219091526011
  0.6832222381636864  0.0550000179393583  0.1776970082172448
  0.5078419717693018  0.0715031750406536  0.9288286800803454
  0.0682068284364482  0.8339658315279648  0.7046958370344870
  0.0615553509660519  0.7433338444352776  0.3143075759490769
  0.7786854034008208  0.2774452854567523  0.5965354841636198
  0.5737901170624168  0.9374881500133528  0.3205001008141592
  0.1401375883213254  0.7904748113030415  0.9636555290466365
  0.7222696945023890  0.5970847065875855  0.0117235936419224
  0.9723972727611452  0.1246977406694232  0.5634982870921410
  0.1304674198538682  0.8356844109557633  0.8523728527972566
  0.4401961236225381  0.4008459647800646  0.9118272456048525
  0.6794642276183727  0.1229278563119956  0.4392951994604897
  0.7928385292828336  0.5137728301567023  0.5354306522889499
  0.3169546890528381  0.4375691800872125  0.7518203682332782
  0.5388374197739731  0.9373295173648962  0.2453640868919351
  0.1202063735635203  0.3835862957909557  0.7358682555822980
  0.3007949956512599  0.8456706849890305  0.0093638937454786
  0.9222529438139425  0.6423842899955002  0.8216977145346382
  0.1672917714976435  0.3265625849899453  0.8989528096271900
  0.0817645046990158  0.8534332586635391  0.5441573275878941
  0.5895218794623004  0.8720074408971190  0.8795472609021099
  0.3291646099337658  0.8273425805691209  0.7960448736781340
  0.0403438827617447  0.4501913256675972  0.9102041340569472
  0.3752041041109925  0.5112520978690830  0.6883873223094810
  0.1109163265855412  0.1788134831777620  0.6332410339383883
  0.3767289672978553  0.0951375928210719  0.0843052545462857
  0.8560578116168924  0.3342546798392523  0.6664823476976666
  0.5754793734855911  0.9290257203174735  0.9415054985741290
  0.5431803590339371  0.6525874644493997  0.4823739411473518
  0.3239620140296695  0.5100409326778946  0.4809506194968467
  0.5746761144374458  0.3020528418345501  0.3496270537505761
  0.8627797154808616  0.9582123059831199  0.7648656933930339
  0.6980212408672298  0.9343822330035977  0.6537523391418227
  0.3281013158141024  0.1677437948331353  0.7531173411910949
  0.0596203371951078  0.6493427408179648  0.8994653749658220
  0.4666772095827784  0.1832054534172858  0.9825345861401321
  0.7917154757747698  0.4376567858068712  0.4299142409057822
  0.3928837308608433  0.7735016196721717  0.0450052442103191
  0.3978560154367424  0.9857720363864134  0.9982383402205639
  0.2071512432528315  0.4060923049949243  0.2490348404728990
  0.7849255162278470  0.2017643934564842  0.5818130076675766
  0.0082143618529148  0.5961078786203740  0.3380305620717022
  0.5991498671026061  0.2210379804276241  0.8886688465092265
  0.7497522597581500  0.5403858090508593  0.2834477645004904
  0.9671387068036792  0.6049692555154264  0.6498114487451648
  0.5197997199607638  0.7746433272125961  0.7418788087498134
  0.9920011699088586  0.7088859819078472  0.4230530535718217
  0.6934587755512713  0.0093245493870093  0.6769905584017905
  0.6200802577689360  0.9313527814782676  0.9608668775630348
  0.8217463102475103  0.4234917319036331  0.5750895541565773
  0.7935773417237199  0.4271044944053072  0.5735260477036491
  0.1322211626730075  0.5848833283184023  0.4620160556346204
  0.3749751422519119  0.2481017976091233  0.8012349399269932
  0.3437141639337742  0.7746763480155379  0.8464845660287552
  0.2139192629751106  0.7890097852513519  0.0406810861589509
  0.3098307647215063  0.9572368829660743  0.5561068224355056
  0.8936793825619764  0.7153811224172431  0.7780490449701916
  0.2417374445744170  0.0303986955877760  0.6945946873241265
  0.4332284470076903  0.7776384247873747  0.8995356517416128
  0.1793856069357873  0.5267734538703996  0.9599909439977935
  0.9238326611838438  0.7424391449857837  0.3551078326173664
  0.8756413525932598  0.8682011164963684  0.6361547715496245
  0.3019281298454473  0.2175230136808122  0.2359402071376064
  0.8603233627701787  0.3265985592467855  0.1090618820366745
  0.0317627949904167  0.1682250030662827  0.4189239067093280
  0.0988657711166151  0.2916206168286083  0.4454573225607006
  0.8157987095789623  0.3977937227947212  0.1437094710145646
  0.1794672509621753  0.0334520844185653  0.7544113481230704
  0.0348866810476837  0.8856265058674746  0.2825593535860014
  0.4531518168883722  0.0337553098444434  0.0990414455049224
  0.8957775147585788  0.5358338417010344  0.1830008908979853
  0.3696470392939070  0.2893903303336023  0.1158915266878504
  0.1830533389315907  0.0609388602855346  0.5788591605690538
  0.0717484598864455  0.9827729436529277  0.5402325920117127
  0.7369617303554884  0.1896785223149205  0.2739953527800131
  0.5104922284687002  0.3649644515436228  0.6120578377068661
  0.8863212924578824  0.3139957650693536  0.9611485838835808
  0.5876565359650423  0.7212160617900099  0.4411983699821563
  0.2169661881797846  0.1202784565429155  0.9593539117896250
  0.1433279265987456  0.0869967465364452  0.3310549402502056
  0.0149247064271800  0.1400229439203188  0.1106694977028172
  0.7954023686435679  0.6236327858783928  0.1828729872462089
  0.8501095824085044  0.7575458603411250  0.2949017987598441
  0.5897549581389655  0.5774427935527495  0.5688342497472390
  0.1372834463772391  0.4772443964448096  0.0688019771585621
  0.6259057654153084  0.9927049993444409  0.5333646088712474
  0.8373228463351563  0.5824110956118672  0.2964500241674759
  0.0218106301072651  0.4468795958993984  0.8887050480570602
  0.6401861325795211  0.0877693518246415  0.8176091581365944
  0.3493780619341427  0.3993672790961288  0.2997496036632824
  0.7030172638099833  0.2521389128268897  0.4941253976560663
  0.8829941288469650  0.6396558820969546  0.3838804617019179
  0.1387478976430050  0.3940671612585583  0.9294581008249028
  0.1610679764356512  0.4140631719632274  0.5663613697917828
  0.9405184980545039  0.5275106833375774  0.0908906469694458
  0.9332428359943177  0.9898413746809248  0.6003359232163433
  0.9372973967930305  0.1969554994755638  0.0843446060937255
  0.8353533063225745  0.3281155729581800  0.2082019374796420
  0.9328327660249763  0.0458494679915021  0.9046895424955680
  0.5462313537485467  0.2073737279349233  0.3026909253148410
  0.3433457355916251  0.3018210301754493  0.8083007790358476
  0.0662877995916933  0.4565418202831833  0.6795515092840128
  0.2971343234033018  0.5730656494758204  0.7555551559072661
  0.5933063204062756  0.1594687775282689  0.0362611483193299
  0.8401570321517767  0.0562832565837122  0.0973175920876949
  0.3062331664930128  0.0413731686848990  0.0344907852120280
  0.0335792315592389  0.0511555712591477  0.8269236496554598
  0.7144604089621066  0.6629183979079447  0.7729937024288787
  0.8376785134166344  0.1516822171184662  0.3786057975822268
  0.6706626216641339  0.4532117751849756  0.8928439988374017
  0.7475844235506289  0.0520122416322451  0.2182020238676096
  0.2763830437302943  0.3382196292739690  0.2003489616070148
  0.2362952740311813  0.7320666347537997  0.3225561038335753
  0.8427022567024191  0.8964279511722844  0.7658480932574706
  0.3796145335484732  0.8317562989836642  0.6935285012378214
  0.2990560177297233  0.1064816043115202  0.0495459708470265
  0.9822693883996443  0.8550240898917565  0.1397188652150379
  0.6820489957800427  0.0249367227192912  0.7208664295538098
  0.4147582734514534  0.3879313858634477  0.4714568898339598
  0.9524096441245438  0.6268512540093480  0.4409161666518748
  0.0192579632697068  0.5597929572298738  0.4324157790838925
  0.2529636507518647  0.2033224973914100  0.4501754540168083
  0.5776769795776501  0.7249249935600587  0.9369140364621522
  0.8229158958604599  0.3307878289804889  0.7575742920271057
  0.4376829493331145  0.8571864422765773  0.3651464573005535
  0.2315978442397420  0.6628963566673481  0.0740380270287235
  0.2619328482296148  0.7700405085685894  0.7739780642793278
  0.5464158504809149  0.5755221970937323  0.5911299261170458
  0.1071256562275501  0.9770112209351972  0.4937798035397170
  0.8125252097523158  0.4711004155820869  0.1447068551213063
  0.5547328490392311  0.3431967243755460  0.2049896533349254
  0.5065475805110704  0.5093073717624264  0.6854602435941743
  0.3989557872156267  0.9187901315654798  0.3583605509089549
  0.2959174856251170  0.0054048189819730  0.3070950768827370
  0.0711341519463090  0.1750095569180927  0.9383871532775722
  0.2730907123605842  0.0180960786636651  0.0983961707510228
  0.3824023093396375  0.7939982412091782  0.5608902625741201
  0.8346271749121269  0.1433293319102964  0.6617248302240890
  0.5654683979602582  0.2131497883336622  0.5208737882547028
  0.8971892355699986  0.9759398028684566  0.9874510665662214
  0.7568808063784526  0.8200724883745094  0.3106645507015844
  0.9869716336563598  0.8384615559325701  0.7544649069342891
  0.3810513468565856  0.7832039129440670  0.4876465711344559
  0.5611565414198443  0.4010044371185157  0.2793400231258406
  0.2655413963906225  0.6974163760338695  0.7651485219936278
  0.1902697196526845  0.0000617242907269  0.4067358772497310
  0.6339222368293461  0.5276572644139965  0.9562531361880338
  0.9207027526797344  0.2315516231550468  0.3986366687256176
  0.2812418879330666  0.9460375880878724  0.2355877430641062
  0.7120207058564927  0.3428241601269233  0.1286911164062624
  0.4143115048982695  0.5679032839798343  0.6576058319797436
  0.2496633514451145  0.8472315042173960  0.0163639007484279
  0.4299831361145990  0.9832906136943793  0.4454549537481707
  0.2801064667381928  0.2351721772920473  0.6800579862533843
  0.8380889508887063  0.9739000877234167  0.2021858991683921
  0.9954885381148935  0.9177827099368985  0.5362292387140980
  0.8953484384697427  0.6537712235732261  0.9680940784980034
  0.7749290182543760  0.6628362617387843  0.6896100163606927
  0.7945478234349796  0.9280122683155553  0.0944348989470647
  0.5058061112455803  0.5779618339035099  0.5641762965505617
  0.2103745837722472  0.7284339848926977  0.1308476266182263
  0.4604729017015648  0.7769506892948914  0.9076551013880202
  0.4001291867921911  0.1770253787324941  0.6136732576282997
  0.1951240687525900  0.7895563029850069  0.0624880492484743
  0.6227110001556144  0.9492367302031579  0.8833832702201402
  0.9690040356425770  0.3924721020124250  0.3317324727396059
  0.9107329850455603  0.0575568714028539  0.7682182485152484
  0.7887617855220521  0.6486106831900759  0.9347930734686727
  0.3701464198386803  0.8992179729991706  0.6595567274604508
  0.7141085208826805  0.3690755803235378  0.8058881554986108
  0.7241248667082464  0.7949521039603695  0.8176068995479979
  0.5749433077428884  0.2454095564100969  0.4160669083708037
  0.2869005064565036  0.9045800396744521  0.1060897405709265
  0.1356646560843847  0.9030966050611361  0.7650157863250233
  0.0983106894445330  0.8106851017995349  0.2181013713798771
  0.9335377037204465  0.3233676009460255  0.6902856469862262
  0.9987439495647047  0.7837675335556465  0.9312328163747193
  0.9731615948761033  0.9773697377717560  0.8211768162666500
  0.7426982228364131  0.5002500243418054  0.3248059226132076
  0.5541966461178099  0.5484503080974003  0.1742129739792651
  0.3037187124864828  0.3009333475692571  0.5884899366583723
  0.8090531318103158  0.1712833049721113  0.4557275177073611
  0.2738039796287863  0.9584154775461515  0.6641937982319495
  0.6278943224146747  0.6480465299596099  0.4679479189341281
  0.9265232371944871  0.5176150601781153  0.6841599879672173
  0.4947788783879982  0.5935173487751576  0.3161510071029747
  0.4268770320895596  0.0285287728482834  0.8901998008285482
  0.2736269212893700  0.6413159962454889  0.7724033470503491
  0.0250930351163427  0.2005074371333619  0.7171700639388935
  0.1937463999979716  0.1416274289676002  0.3447476787085735
  0.6559355644671072  0.7154606967717406  0.4709285825135833
  0.2005316667051224  0.5357081264577376  0.6362616206264792
  0.4466748438409781  0.0363430780288278  0.7137181990568607
  0.5387133000710683  0.1055943194435169  0.6768854448508672
  0.1938977892371834  0.2466736112964046  0.8340228224858111
  0.5080029512227898  0.7799518519089897  0.8954151885209903
  0.8987213767999161  0.8433764574483219  0.8966308362567580
  0.7555096785494558  0.3150538667192909  0.4221641857290274
  0.8763022973083495  0.9906098706997477  0.5932059638393901
  0.3690278605750172  0.5717519199023045  0.7312007229237826
  0.1554075097003320  0.3963259460562490  0.9519452962889704
  0.6644591106694497  0.9264247921783177  0.4483112346290929
  0.4240741848287186  0.5775307195150161  0.8322026145126206
  0.1747776415092208  0.4063178620786092  0.5895612431473964
  0.9469131295006213  0.1752607132183406  0.5088761475930327
  0.7653430558759652  0.6488077646103944  0.0802844846647691
  0.9551578424979532  0.8426774253025758  0.4638972875854203
  0.7133081761017869  0.5136989920471332  0.7458087889811477
  0.8959470481026025  0.3181863232314051  0.0167357883632073
  0.8844117579037523  0.8320198023655700  0.3066416817555638
  0.5062467108796441  0.0558495960345657  0.6598817818478504
  0.7194364232768201  0.0599615053238807  0.5013114529987754
  0.9174235549719654  0.6632396048876900  0.2678133793514534
  0.5239707079468792  0.4125645525452419  0.2055006955792065
  0.4476473343326248  0.7556003270604539  0.2124982299186401
  0.2074779867881854  0.2039578884073282  0.0630836885619585
  0.2693620694566684  0.8036564244624159  0.1241142721923177
  0.3842865844955753  0.6447174253908265  0.8295881008110365
  0.0500894757441459  0.1475244961009883  0.2068329301753166
  0.0225040083057708  0.0451169297527629  0.6333544744064533
  0.8786997098578643  0.2292900408362735  0.3373366523098873
  0.6669900095637692  0.8000789361328910  0.3418371716606183
  0.4824790149582641  0.5197416024322384  0.4833207627301956
  0.1563282661505642  0.2516768985798963  0.5990011995634125
  0.8142733840803795  0.5181138085072448  0.3162566817939220
  0.0486760923014927  0.4687143239774686  0.2603275489794257
  0.5926350622201489  0.5910097192729614  0.9367513800058397
  0.7911138079419134  0.4042361690978833  0.1940187730614745
  0.2437045261373558  0.9411445254871421  0.1308523532208927
  0.6133468459345449  0.4261262922141447  0.1073388440761462
  0.6575269516673414  0.7290439533124510  0.1978535039822860
  0.4253669383888542  0.3297339730288643  0.2734880521372492
  0.8440642964151762  0.2296074763557837  0.4810677935501428
  0.8892517540666279  0.5974856851273669  0.1393409652654715
  0.7084514665577081  0.7317378732839664  0.3547882894266312
  0.7777237892274749  0.1903246255595816  0.2359527285764275
  0.6234840380851674  0.3702034850520205  0.6097972169817719
  0.2654666379789085  0.7295208471344663  0.5460203545530585
  0.4503366643280289  0.6146454530665386  0.1645860248649103
  0.8993183333238588  0.6599785045363268  0.9952435138677174
  0.4590375934243268  0.8447617438078376  0.6377287793372873
  0.2502677358068329  0.6169827410035789  0.9942517369526656
  0.3015335673075843  0.6767290594364422  0.2039818578762600
  0.0857258571631381  0.1819682894776097  0.5613660872696811
  0.8295517462923182  0.1903181038690207  0.9940626748500810
  0.3648740656671005  0.5115156720910751  0.6617958625348407
  0.6079601990704936  0.4396172903708471  0.5986563830268108
  0.3231632381564427  0.3247241509405476  0.3399251070695714
  0.4812781170407222  0.0628573382763729  0.4977579416095392
  0.6617544211066698  0.0276656079278643  0.7409001003851060
  0.2407462981622596  0.1014734326292740  0.7599528443445285
  0.0596953234389407  0.3646949740608649  0.4486855430820987
  0.1917278132848926  0.3100131982763465  0.6490244097800818
  0.6819024392153897  0.7890419535072821  0.5924963000714014
  0.6076785455087504  0.9263359197341973  0.4444151713040661
  0.4044344039370787  0.0405355659904508  0.0404438722300932
  0.6172792342988904  0.7426971518035014  0.8438277183205036
  0.2252960096983689  0.9171312179712791  0.9410310827408427
  0.5923659708048971  0.8010023713480460  0.2763798351450467
  0.7584239780329365  0.5198069586577529  0.6535504149082598
  0.7646563055925842  0.7933446904715211  0.7509862436079677
  0.9484581122901269  0.0585654330680330  0.6389613995547092
  0.6846527142687246  0.3197835639499991  0.3347957782160950
  0.3436135595237924  0.3678823063012934  0.6742969159405371
  0.0785703491116874  0.5794858944275215  0.7649580650572694
  0.7788973246992441  0.3922503732647213  0.9494496360526116
  0.5646536078231180  0.6446676234516587  0.7009789858005520
  0.6339990054611948  0.6723409212658487  0.2471493959637761
  0.3087624775008967  0.0867156258401635  0.2196450255003848
  0.7655803509493162  0.0759845125001811  0.3080752502237213
  0.3006833299090104  0.1804279352254037  0.0256400298293494
  0.7150162198355173  0.2454236949075420  0.3006809818710374
  0.5721638877986399  0.5336092706236213  0.3002066441965401
  0.1685914312284556  0.5257734069004995  0.5570685262534143
  0.7406373494152058  0.7618042629165539  0.2210065576179620
  0.9857162123337527  0.2615107606223726  0.5706518784803906
  0.6835533153739153  0.0391904547424696  0.9578859775031409
  0.2281292690462074  0.3430758891158882  0.4319488684984271
  0.1948370736959942  0.9192447647361202  0.4429122619615150
  0.2412643078580123  0.9582154924755146  0.7660618795903265
  0.4635846225197487  0.9145945900544682  0.2120157717463670
  0.3233580756943803  0.7401979931167979  0.2695960550733247
  0.2561290536441257  0.2457819935998499  0.8916969244166377
  0.6267979691459797  0.1480503438175804  0.6010430117524361
  0.1446288929797010  0.9734293040876743  0.9172395814212877
  0.1241557456400906  0.1877632147030824  0.5337429014184234
  0.3224705958911442  0.2955091173618928  0.6637355953372135
  0.7698586250947214  0.9258858034946758  0.1461483891725116
  0.9119152159731206  0.1993077466225485  0.8129623656141802
  0.5751635950583265  0.4422361452905111  0.8300751322745051
  0.2144519226019937  0.7721246260753980  0.7626618079325085
  0.2708234556479601  0.5858823115655845  0.3496169291812860
  0.7681365271610444  0.1291619631060279  0.4293466898570133
  0.3461693053298628  0.5144992356329876  0.8805180772331941
  0.0988877389925812  0.2881514469149438  0.1509319888352187
  0.0252490986555028  0.7200613636637702  0.0017870867193475
  0.5285054077363900  0.2491043210597499  0.4165487813541946
  0.8294354773302057  0.5562160746166376  0.5425931597913665
  0.1164648687480723  0.9858085770424638  0.0415915949679920
  0.1112687953392680  0.2750679197513634  0.2782756948138292
  0.9756127437019274  0.4430075979590609  0.8723844547930377
  0.9081656845904188  0.4000587364015978  0.5741920126922692
  0.6545283272093233  0.7827454852149566  0.0644102157628032
  0.8115076096929361  0.9867016666379135  0.0300959842410033
  0.4641614519113965  0.5827355813738812  0.9088986457992665
  0.8012992601052642  0.9803836518255878  0.5296495673138896
  0.4401312163057540  0.8494921415894580  0.5639513014457265
  0.5552221617007798  0.2237508012069232  0.1531176384474071
  0.4108255726292459  0.8551114712299245  0.3159580951790114
  0.1419961915318313  0.3950383573670148  0.8053300796999614
  0.2240555369718860  0.6595184722552977  0.3323998225416422
  0.7582383622346963  0.7254756975926254  0.9480696364160303
  0.6550269577617646  0.6016956302146147  0.2547722988151652
  0.1759635993600637  0.7416835015628919  0.2399363718306994
  0.1998208900518152  0.2424388648460404  0.8067098628968190
  0.6504879829955297  0.6676602630542630  0.8821509586297315
  0.9538540234561049  0.8487490695117329  0.0915133949574892
  0.1795107528290056  0.8505004851862364  0.4044160983376071
  0.0325473662376079  0.1576593992913048  0.7695225323259491
  0.7371792663851282  0.1225175468716469  0.5196449437080137
  0.9136065336795510  0.3307204920024290  0.1275798942236673
  0.7905302850917397  0.3259066272848390  0.9781588462940939
  0.6644313013240507  0.5947006004694365  0.0115323594264272
  0.1589389934970371  0.9459722970641380  0.2692098504518104
  0.2502917063717809  0.9436125769453255  0.8553719498265000
  0.0105440249878229  0.6834882991756873  0.5463441303428319
  0.0654702767656349  0.2191009532819926  0.1909225100277120
  0.6097683073282394  0.9002587169847004  0.8182783737292106
  0.4745191593781856  0.9235818121421557  0.5581143930586363
  0.2922841061739875  0.1014966148635781  0.7840116827918723
  0.8918295760250263  0.1161758247653407  0.8693442362203930
  0.8320316386195892  0.4682500474444458  0.8187164337011567
  0.5112013099965443  0.1024749397368869  0.7709080431591945
  0.3821634125928151  0.4372207065593061  0.6772684409538872
  0.8454178101389187  0.0458782903567463  0.5255223483681927
  0.2207793453048432  0.8482571055679099  0.4320419536121218
  0.9463594846006383  0.4054033633921471  0.1594941174375983
  0.0198280654456894  0.4576718246883267  0.6645839047807021
  0.2022527537461603  0.6624863970289895  0.0341044198639782
  0.4840768657956389  0.8509578579172992  0.5867531902474651
  0.7049149553543275  0.7355484518222598  0.8605342075790274
  0.6069764344006799  0.2922160975815569  0.9308926272392440
  0.2423985769495470  0.7972531455530126  0.1204399810243169
  0.8661004517526446  0.9724065162075617  0.2048351754944627
  0.7281945212143699  0.2623623941264084  0.4974811452642032
  0.1126152357925561  0.7198507525835544  0.9499082678186515
  0.5778548568068790  0.9913211807701198  0.5462649514813748
  0.1202690440595816  0.3452130272153696  0.1749356016850652
  0.0353246350914379  0.8910522405945099  0.3790304743646006
  0.1197012952187132  0.4194717785421216  0.4439307311050654
  0.9476671257258658  0.9793558916115770  0.5029627057188841
  0.8141279830622331  0.3144502541110983  0.3368562022172715
  0.0790482758547828  0.2182363673870515  0.1434596087891589
  0.0090688804172482  0.6456981614363179  0.3820018129992999
  0.8747306861022307  0.5226886385721542  0.9770512420618036
  0.3897314471523809  0.9990341828789168  0.9386027833562213
  0.8425109646688502  0.8378491309203246  0.4662996462683611
  0.7094038231621326  0.9118580393056909  0.9303897515863836
  0.5588956197976916  0.9917390536013023  0.4611617159399454
  0.4217827222203334  0.2534569555680034  0.8119847655010203
  0.1752046131401118  0.1083640869075539  0.8372265071596601
  0.7482712729117997  0.4440710736810849  0.4043426952102541
  0.5211852402825072  0.5806210388107961  0.5404642346217607
  0.0384249675996470  0.9072690780863824  0.7740679248419562
  0.1744491208990640  0.7784565688474587  0.4270734875709525
  0.4847935920321059  0.1034406855268582  0.7625648589689342
  0.1951750421346963  0.7170147104808735  0.9731520062915695
  0.0207241148420656  0.3188944944336896  0.3231767968466880
  0.9082929219017687  0.6679586107234609  0.2113031740176816
  0.1451872783391534  0.9739791972479093  0.5236929196619651
  0.0970251479744189  0.5136967761793474  0.4451368314441391
  0.7340777585430095  0.6557231012918021  0.9420103081560007
  0.4268319329651040  0.0945592783512673  0.0766019493477800
  0.1901009908700746  0.1474007670075756  0.1308121669776671
  0.4868376562051600  0.1921138741862325  0.3647958950909204
  0.6374665107929267  0.3705612332575395  0.5849801320647907
  0.3308914342337176  0.7067373709569794  0.0107028148660739
  0.0161195253131916  0.3241499605558857  0.2958988503911216
  0.1152823537682654  0.5139905916893528  0.4228660857239697
  0.5136248940362746  0.5704192092399930  0.6879405947282358
  0.2099693485008678  0.9007063129931594  0.7732779078266029
  0.7911309696200755  0.5850678189218407  0.8879989294915804
  0.9445440331571763  0.4472850132350931  0.9529630740278485
  0.8086348351386191  0.5924496817366829  0.7622121303579942
  0.5939137390352696  0.7952544183554169  0.9462642204946867
  0.0088973459584202  0.3924097366758680  0.3044624022850906
  0.5947506143939366  0.6624898940472137  0.8920797281287924
  0.0534484415418787  0.0411218368938938  0.8441208237998228
  0.8388708008302008  0.2598126585769384  0.2062369092866161
  0.4366402237601848  0.9980680635687966  0.9340176901835168
  0.1833025326611294  0.7846988250385648  0.3794246612029563
  0.2019172645230393  0.2143555965957571  0.1287286063716727
  0.6911536826739095  0.0586463771556194  0.2489684415754883
  0.2382102367294153  0.9933929919748565  0.3924453362830864
  0.6420544542025197  0.1069080513314183  0.0338875019689740
  0.6091311546715223  0.3963014770061650  0.9563778776153679
  0.2307251285714725  0.5408254127957752  0.1683167653164750
  0.5863002504726613  0.8522309780221039  0.6539470867952931
  0.3991245039514493  0.3948371957505883  0.9381151566835129
  0.3841175526588944  0.8994905649465410  0.8018254876963884
  0.5183701132509972  0.5204341438452311  0.7864900859684218
  0.3358500380420099  0.2122178692598519  0.2710492253649633
  0.4983018796230755  0.5138580540896928  0.7336222525548288
  0.6270301397846791  0.9961319893128148  0.4289694775043835
  0.1272951071232881  0.8609835122695121  0.5250446378413368
  0.8910552932428082  0.6436455869912435  0.7843069707050704
  0.7803662330539991  0.5888684813297265  0.2913952848516889
  0.6002738517368700  0.3850630613501087  0.2982211684618540
  0.7298798749509096  0.6682860666120567  0.6704091434593646
  0.9798622917841169  0.1270897711406986  0.6193748470986036
  0.1339527519144780  0.7909880335074090  0.9915325566081057
  0.2090183573232089  0.8219673110183365  0.6567190483713241
  0.7342274899430927  0.8745699570455767  0.6773107088261947
  0.0249050167856866  0.9768440489119772  0.0077774092097894
  0.0853540525594992  0.8529306131845114  0.4959400964366640
  0.3909418888342248  0.5593098645886374  0.9727807921249819
  0.9795752829717308  0.9868273540223670  0.5797635719905128
  0.4408495959609781  0.7033957474769442  0.6705875178485636
  0.3340477174945127  0.2860585006941979  0.0836002534510822
  0.9707873219473634  0.7735567552780147  0.8368687723780773
  0.6469011722730391  0.5904676173085911  0.3511696056317509
  0.8845533718240902  0.5961773457444395  0.6883546719763706
  0.7594142254467710  0.0802853734276312  0.3801063140633900
  0.6336334040578936  0.0823837178306527  0.3531985236246517
  0.1513418723096347  0.1471435026518606  0.2210217765370413
  0.6976268176472257  0.4579292443807114  0.9608775151746325
  0.1594585433820897  0.5964063855212653  0.2299194512420120
  0.9920191759319132  0.7860995592705554  0.9589257018291717
  0.3088493560911393  0.2144940417965441  0.2632958394213518
  0.6924263506144848  0.2414527968873753  0.9104601662173238
  0.3274769629714656  0.6432686651223615  0.8389534155835037
  0.1418664582717665  0.9158047335354637  0.5255098630026588
  0.7519581038414145  0.6398805639820792  0.1247778852026086
  0.5942876546608153  0.3945869530019140  0.9320829354947854
  0.6219435527900533  0.9538686406680961  0.6921016123400209
  0.3447557421773710  0.8388332891638567  0.0326837405817647
  0.1914142717161648  0.6644738837846627  0.5640512585206436
  0.7694366317550491  0.6005121840101417  0.6497839889572762
  0.0925326490305570  0.3847837255816840  0.8595699826391535
  0.1650620763122885  0.8730246407166864  0.5617973514351221
  0.0053052881576505  0.3671215229843037  0.7600108862637247
  0.8984744960932592  0.5180512463957404  0.6783106242756660
  0.9510462682767198  0.4036069813171081  0.5480667139803479
  0.8092441074534543  0.3000897924618260  0.4869308731071378
  0.0572651987285986  0.3376003658422307  0.5763674223006482
  0.4566806024345006  0.7608641006589659  0.1638924660160175
  0.0798428609163120  0.1440338818892627  0.2451758584831006
  0.8323049052409389  0.8350571090643094  0.4401755179342042
  0.7575738765811162  0.5494302832430291  0.2340543477856801
  0.0442576365463339  0.9469707890098958  0.2130695085404255
  0.0237431390043961  0.8635225494080544  0.1636188026356797
  0.6287511926439240  0.0933440230456939  0.9212246956640511
  0.8030747924177967  0.7190552659141747  0.9337971401093002
  0.8911887758131642  0.9008317459890065  0.7584380829230419
  0.9482366720231881  0.4525007348854545  0.7266116516691221
  0.2848971860822599  0.1799311403366650  0.0990751439674348
  0.6652927388888555  0.3418920044222895  0.1884875519150772
  0.4813452604365211  0.7077644574953020  0.8140469811421306
  0.5531216230831488  0.0184225087919775  0.2289370874508625
  0.9686259896411686  0.6166980366953375  0.2582018764178877
  0.3927374659443645  0.4549538026004845  0.8365415916708010
  0.4661541946984796  0.7660360854082298  0.1155330544079505
  0.1063624477148820  0.9178389301045435  0.9957148434308717
  0.5162976790802039  0.7090064917395266  0.7777388367445697
  0.5792068403648054  0.1647512542060198  0.3602247482518836
  0.0438903271289807  0.7114211907483735  0.7748544407443738
  0.0867209386834842  0.8354105506226341  0.8277748549822866
  0.0443688005892450  0.2912625708344526  0.0613989351811959
  0.5099030708499936  0.1585169358775524  0.1337208875962746
  0.1844212305531586  0.9021260368263980  0.7608430228500931
  0.4051266062697068  0.7065367708874040  0.0063709235035464
  0.9691818840376186  0.8452468978749200  0.4892127750676420
  0.8648403055633660  0.3177366832577344  0.9794307122439798
  0.9609053517439098  0.3025225873871817  0.9627287481789354
  0.9306513057627728  0.3125456597887529  0.5263155017554656
  0.5063890949929101  0.7193314874425580  0.9107328081224108
  0.1001909266249116  0.6702661852096490  0.1815315128783823
  0.9687728733404062  0.9919387123789003  0.8680833565905484
  0.7661974943490094  0.3311240631736359  0.1527014459017890
  0.8976617793725671  0.3816895038319021  0.8204368549455087
  0.2203769023227922  0.4714055083783079  0.9368447637261901
  0.0113064337734107  0.6055126214395767  0.3127418149156954
  0.6385197411742382  0.5234680092348183  0.3353694617236974
  0.4177652312747641  0.6666712515682003  0.2936193753612211
  0.5698841903425674  0.2391999919702032  0.0286643535095929
  0.7555332771370101  0.2091075629661004  0.5371323494931441
  0.2075240715429205  0.7727155033363563  0.7904219400066220
  0.4701062259701032  0.9748784130561867  0.7321701644618079
  0.0165560357728767  0.0522356422469551  0.5037609414315173
  0.7459233598657730  0.2083421475659310  0.6135179160330143
  0.0854461885565091  0.5160231237460524  0.3420163116051356
  0.4806585429368782  0.9074337517776324  0.0313767037780249
  0.3485767952088281  0.7249237722207066  0.3898487510052689
  0.3863973963292083  0.4841975939480824  0.1264491201189717
  0.2567608959949720  0.3821615579305257  0.8459437713387733
  0.5022094856285858  0.0360397297239950  0.7269959063290532
  0.6247614126422859  0.7807321685066664  0.1323229944067711
  0.3962475969606811  0.9820268343050125  0.4093035958814570
  0.2156816975152595  0.1705491822981461  0.7669447933366518
  0.4767871414168783  0.4520612225895482  0.7334207852495710
  0.5801185305021705  0.0900660993796423  0.9285686477932262
  0.0440329416378933  0.8382076562289246  0.7560001259177933
  0.5636846636791051  0.6542035312777651  0.4297374878104384
  0.3297609867445149  0.2982364471570781  0.8814983788347553
  0.6335749865295027  0.4004175793807978  0.8548291009632160
  0.2471670260583109  0.5132898897743349  0.4188423069294816
  0.6232213948583452  0.5195708676863305  0.1628642675060796
  0.4616595961182303  0.3073253332540292  0.4429737128063569
  0.4505170495184237  0.0378410266162393  0.0393477920102312
  0.2525333495531954  0.0326393883037185  0.6194990414144143
  0.3922582311583943  0.5073890962949636  0.5918431711608304
  0.7589521491557955  0.4106820435778135  0.3193149390142666
  0.7114310944468254  0.1235511169820058  0.5081705821512907
  0.5578520274663848  0.0339034133350679  0.8407754612902728
  0.6977200769620131  0.1267479602274021  0.2997110553477055
  0.7634303287295727  0.7125261514967257  0.4376257277262449
  0.0959988160304804  0.1540955238310108  0.3815004023227164
  0.6443102143016560  0.1542610097018997  0.4410864305636554
  0.8496411769366645  0.5879936734250735  0.7831977672237115
  0.4674012555918034  0.2756374735425940  0.6756121900794220
  0.5926298959516441  0.3916008905453726  0.8822377489547998
  0.7199433487648343  0.0416805942438498  0.8475898234933024
  0.3853290185001041  0.3888374021743807  0.9142078080060041
  0.5103922532055668  0.2036745754762092  0.5807000004584837
  0.4846431732555982  0.5090738991350142  0.5575779532160550
  0.8706072923808034  0.3798022077790847  0.5534977056985093
  0.1382269054842427  0.3525038622495950  0.4754554874698711
  0.0498737804951435  0.7764397520627128  0.7079790031845917
  0.0075103825317888  0.6255046085406180  0.5185581898357576
  0.9947755071665350  0.4582203024417272  0.1848768110572366
  0.8488062803217461  0.8489543893770732  0.2300548142483716
  0.8553118540357220  0.5966780608376981  0.6878518985311574
  0.4839486592285549  0.9231333261210530  0.3627461467787003
  0.1062373957410387  0.0844848615235107  0.2884794790386500
  0.6795633157261021  0.3679386014886921  0.5595770766777531
  0.0717575215048687  0.9100133100406198  0.5724822290595147
  0.6560186494708794  0.1714258616613220  0.9818066793091492
  0.8415221249080721  0.9564368806165656  0.2633909145780602
  0.2536644687183437  0.2988128439563729  0.7243643520073832
  0.9032530854394892  0.6686898549464444  0.1831967957023480
  0.0270116845471629  0.6593513262405916  0.0194809396308461
  0.5399983278378351  0.3639636965619571  0.6619928707809792
  0.7731115027498855  0.4289445259636398  0.6198997895829076
  0.8391383036320682  0.1182992481589051  0.5326362050305289
  0.7991415048584651  0.2389115386519607  0.4973932106143002
  0.2765204343231705  0.7892426104277712  0.3455184365966745
  0.5440724612667690  0.1720386559654635  0.6950716282875208
  0.4340402756043373  0.3879252959243606  0.7636363297918225
  0.9263781122848392  0.7126154489096311  0.8170826845416536
  0.5865452522652275  0.9627201411817097  0.7890462551360111
  0.8343929613563981  0.8313431501469803  0.3742935186647595
  0.6195056141253700  0.3092451762807548  0.3696891423159446
  0.7558446348706523  0.4144218411309468  0.2704062871580423
  0.0021428979772082  0.8389590873846307  0.7320291339412059
  0.7795334151906166  0.4676172309938296  0.0232209914596025
  0.6599718371264762  0.4404173945298910  0.7499222299351841
  0.0777623540061789  0.4571121097189984  0.9533247347855277
  0.6415032650481809  0.3058789634823540  0.3190748933323592
  0.6867516230617485  0.5189977780860209  0.8160440604508842
  0.1657864197194401  0.6694487315850604  0.1270313830567268
  0.1324395059566016  0.3564119595125805  0.4468685295989019
  0.6735008290042346  0.0856038940871457  0.6950880656820808
  0.8493499050820988  0.3258866052401455  0.7667447809873136
  0.7236099233272945  0.4351813790664766  0.6242552502292928
  0.1312430854536289  0.3283960626427995  0.9639327702958487
  0.1798795771672607  0.7695530217339752  0.6957570788634739
  0.6366474563033471  0.3746101896187814  0.4866288755625099
  0.5588810789908245  0.0965869890736358  0.7600680724443843
  0.6545304599391053  0.3034207456753164  0.2945625976316253
  0.5556546110292789  0.4563654115190759  0.9518018889395525
  0.6404673580576979  0.0261692978618530  0.9459675237192139
  0.8972326735624507  0.3892155878173088  0.0427231073726334
  0.3285435102105879  0.9668158065035327  0.5386090535965747
  0.9925837488424194  0.6503083164175941  0.9535667083842317
  0.7895114801741353  0.1942632003736778  0.0580718792637073
  0.3640601317468729  0.8909466698503015  0.1387776167546680
  0.0017263614340779  0.6413796643419427  0.8524235958879978
  0.6374772090792634  0.7256006793301767  0.9698666557035143
  0.1426575236426883  0.7219565623897328  0.0588801076777248
  0.6046164960851673  0.8692566676484164  0.3146344560456260
  0.9595927708227076  0.0547833504925070  0.5910838725536479
  0.3693051795016851  0.2497092937587132  0.9350681723654359
  0.8031396119913988  0.3878372554999757  0.3869825459622080
  0.0218194959356163  0.4406423700187304  0.8126696108473761
  0.3477265838797701  0.1929141586284865  0.4282488674977840
  0.6597974588204747  0.7858999949355356  0.4640333259638803
  0.2493060391783727  0.6566811210498364  0.5547083512717774
  0.3462198540274605  0.5763293733036663  0.6230433521113284
  0.3783929090987531  0.9000851985236435  0.7446113943287320
  0.6227869456576762  0.3724923373217322  0.5604701831318001
  0.9413818611097090  0.0625485213924623  0.1751638624244329
  0.7385410469954584  0.2522031101231659  0.9213715059269001
  0.0371879924517828  0.3255555330923844  0.2772249040048967
  0.1134793017589983  0.6723711936310618  0.2664902813173769
  0.9925178242290335  0.4564232643511247  0.6690915586260239
  0.5544482127485250  0.0934168588973017  0.1045776770305125
  0.5432431826900385  0.7173240786985869  0.5337252214995245
  0.6571575154686224  0.4419399798355537  0.8476953098015273
  0.9356828189455973  0.9240544256300111  0.0896360442919910
  0.4006390465204092  0.1168891637763816  0.5386524858344320
  0.6983799238649440  0.9272248698963284  0.5774626894686969
  0.6646364315077307  0.3156414390735702  0.3878309135237705
  0.3010576614100093  0.4062664697020552  0.5143439420804821
  0.8270982132469459  0.7767488091342206  0.8064937257880768
  0.0663453463637508  0.9680870539600810  0.8604776727216099
  0.2044129863050979  0.4266384732078067  0.4930153143873126
  0.5150077940968093  0.0407931709255996  0.6808517548906121
  0.6843583311567205  0.7299298224583574  0.9562370214489875
  0.1679334305514275  0.7188543578737384  0.9652457197117771
  0.8883478009211148  0.3719063725824440  0.4800091046953726
  0.8863925461809781  0.9950454695034574  0.6200224908654400
  0.0004241251072107  0.8396308086979293  0.8265762659032484
  0.0111299649248221  0.6049984790113091  0.0921052840519488
  0.8268669352378816  0.2285288181208713  0.4269320281790465
  0.0364107033172393  0.0114629143385252  0.2831213313118890
  0.9743769418455123  0.0530647263158800  0.5432888030750412
  0.0009547251324920  0.9107499822932611  0.6201539900219203
  0.5875657626706025  0.4575026154463614  0.9889769305438969
  0.3866237084859167  0.0341625704809573  0.6668707628100612
  0.7906395792648918  0.1227654162508999  0.5410831199623676
  0.4988061470464664  0.2003923274610245  0.3159830478734355
  0.7578207420107886  0.1231443516568486  0.1878988222393599
  0.6705065751163415  0.8067329342673381  0.7325462825913911
  0.9951139310222874  0.7135309611052708  0.8907820156685871
  0.1847888936429105  0.6572842440552886  0.5170990854883654
  0.2302881988585276  0.9880403746288806  0.0504743076758514
  0.8929720571792522  0.6014759618620175  0.6609598981718801
  0.0390396676459718  0.9786084344469490  0.4636479369994722
  0.8987584507532598  0.7713296223175493  0.9381804353049471
  0.3168109062718423  0.9633806063043736  0.8043752698880616
  0.5832645346520374  0.7489636622311813  0.8107447682963542
  0.5597212720433004  0.7037170353397105  0.1277859606726431
  0.4327143200112279  0.4572350971075408  0.4008921029136329
  0.2702825166900087  0.6328198097103954  0.9235208004793768
  0.0601135578288266  0.0515511949332284  0.0497497724947841
  0.4392536380613103  0.4852903826352626  0.1478216357758607
  0.9073405508128483  0.0710825976073216  0.6664232235798527
  0.6148718170797901  0.9428106366898050  0.9121973254669632
  0.4635023497350092  0.9864455378498053  0.4818420926326096
  0.4630233491860412  0.7312541389125473  0.3266052561775055
  0.5915551868931282  0.0981680027734652  0.0129866473085864
  0.3095420247380113  0.5125178225408520  0.7269598631028691
  0.1822942120057921  0.2654979357645869  0.5302777134689639
  0.1940213733190782  0.7375549987549070  0.2858356898603854
  0.6240714318359430  0.5278910121040801  0.9295054550307132
  0.2012644030201259  0.2455283900205030  0.5789666108673628
  0.4716153740161719  0.6237912656088415  0.0886137363494550
  0.7801013945840979  0.6599271313738100  0.6156750324766113
  0.2182610581682775  0.2723122696487343  0.4864420560159499
  0.2983814068826872  0.9466750009326831  0.5998910313646052
  0.2512263971335673  0.6592354176529466  0.0303790809863659
  0.4627283745761940  0.1776847557685827  0.7923203608787998
  0.3677530378015210  0.2446255163674064  0.6405164448177041
  0.0910776694644816  0.2254176102196626  0.0268788251923283
  0.5114227045569153  0.1438225747241258  0.3481005965677323
  0.8809445815115268  0.3167427966565424  0.8028957019664371
  0.4615174321293796  0.4579997192119558  0.3957040527607170
  0.4569913768447625  0.0456702983232718  0.9897949664830910
  0.0066217786578030  0.9607661796542463  0.3369986636449346
  0.6257591989918820  0.0178361102015642  0.2235135588950202
  0.8506295483287601  0.9267548043344758  0.6308638864750969
  0.0770724258309028  0.8155271393122079  0.2878014996413020
  0.4408101296823477  0.9631309191482427  0.1117649322108373
  0.2256658618210212  0.2713673125748773  0.0566164457741077
  0.8129211794511298  0.3960626347162314  0.0952017865722574
  0.3803163916565104  0.5188700895320004  0.8372458424416296
  0.1062095190270398  0.3662104345009478  0.4404362316056382
  0.8843111164205278  0.4039621249257230  0.6732933029791219
  0.5934381832310678  0.2204523314839035  0.8122167768602270
  0.3309436166041171  0.1620712588407189  0.6794908480433474
  0.1300117189753671  0.4042255542961696  0.0319764911187293
  0.8821785561202793  0.5877490251425415  0.2787577401473703
  0.8943727609969977  0.6708941429481570  0.1270965566648137
  0.2807230999642349  0.0910841065668122  0.1486201749049211
  0.3884699031394165  0.3960899189746706  0.4218500535313806
  0.9537749789149648  0.8631941016674902  0.1871508296016252
  0.3987081732166193  0.9734589535649096  0.6805347608788430
  0.9453888544220037  0.2241382956425682  0.8489776590495043
  0.1411913325114165  0.1504570668678634  0.1367543516462875
  0.1505425528824024  0.3078300285422896  0.6859555258200672
  0.1552161721626905  0.7215577273979583  0.0120463549907360
  0.5242856042787444  0.1461835998336378  0.5786798081929561
  0.1258646648309012  0.0404471988769462  0.6366846059724949
  0.6090235667638746  0.4425212189175297  0.5486973111148841
  0.5259293754152475  0.2822301773499096  0.0470951984056655
  0.1379445325798911  0.7628100051434452  0.6573731031629348
  0.9136500775696177  0.2298064037850025  0.3713369760900500
  0.2554042796994315  0.6585552071316991  0.0025352128522939
  0.9995915362916906  0.1707134168083151  0.0457193151319747
  0.7488845126724627  0.0573834874856698  0.5399793695595990
  0.5790927622112664  0.0844104558410802  0.3016902663548379
  0.1012564249319035  0.1749583708073052  0.8585999318633879
  0.8708200856785576  0.5289863908055218  0.5964694540153677
  0.3689608024256610  0.9820792720224915  0.4011631676144382
  0.1791578780374000  0.3361259709280314  0.2206674326444608
  0.0967527367540858  0.0838222998457203  0.2404965458922243
  0.9456283583188559  0.7780151543811261  0.9482588468199069
  0.4084456919217186  0.9675158825216924  0.8396761318692647
  0.0787393557108636  0.5323033719954243  0.0411956714012620
  0.1221535792737315  0.8105993074510551  0.6109799738958474
  0.8505659260039005  0.2523736499569928  0.8613632619034068
  0.7898943141328281  0.8723432314357865  0.6797197130102767
  0.9170075003957522  0.8544712919978783  0.6183416460253517
  0.2128799102414375  0.8308249257173360  0.7525181678979024
  0.3906037963693883  0.1611573718411158  0.1623995599964298
  0.2128476476634066  0.5598879614031471  0.7054017491806008
  0.0611500806624722  0.9828523382409078  0.5140137813188642
  0.2216574605306867  0.9222834223676843  0.4018296055639355
  0.1601119988992379  0.5262881336610056  0.9065155582680069
  0.1927896403406857  0.9605802211008740  0.7788322281016810
  0.0463384857593212  0.5778307854409654  0.3948147380099750
  0.0260052365922125  0.6596291940784311  0.3380078459210880
  0.9062748215301422  0.8865709504641039  0.2530568757251697
  0.5826186010451363  0.5118060222443250  0.3991004349228772
  0.1561938001818687  0.4610788701246881  0.8890339843309829
  0.3513634128657467  0.7781203868999638  0.8742853847627513
  0.4640059962758585  0.8383563517107249  0.8597802297817153
  0.1681965023172707  0.2361970723580624  0.7160640950289586
  0.3036600007880055  0.0829052193541183  0.9232376652558412
  0.0785394164411692  0.7189234399478425  0.4752909231374771
  0.3071287168437711  0.4029530731670236  0.2749841897221536
  0.3815059206061810  0.5747389115433759  0.8057196311209046
  0.8927797020624748  0.7767417547359459  0.7321059059127745
  0.5285283190408410  0.2722428246636761  0.9986953266438907
  0.4925088815944154  0.1852072720317006  0.3930393751450593
  0.5930091417102312  0.9980948843831303  0.3934623424544314
  0.5689043851389350  0.0855169303970012  0.6458496278256118
  0.6287022964823372  0.7264109695545216  0.1981612055152578
  0.1493155652055189  0.7907999784998095  0.0372816684296680
  0.1554937473821412  0.8485963144471629  0.9982505249753707
  0.3306983858006426  0.6043699541510653  0.2545722964861843
  0.1288948156883518  0.1450291528056017  0.2381675502552063
  0.7718455065193474  0.7716509871788030  0.1844632211992941
  0.5938302317620607  0.6595062246734315  0.3512331146580380
  0.6983520905029329  0.7402781821420165  0.7384417840173437
  0.5115054383705175  0.4208198459620876  0.7537861419409075
  0.8971483847695585  0.5866707993360890  0.7639573840524797
  0.0073340428395615  0.2400663151210818  0.3479924628810370
  0.9946911477131821  0.1545477206318128  0.8007285491326969
  0.6815125252644628  0.7822633926619691  0.1468515200681779
  0.3265217653299531  0.5698920352681210  0.7071311145961211
  0.8450460119006583  0.4061891542422357  0.7016224610986389
  0.2811039077524284  0.2711848706443384  0.4453305850781384
  0.7836962819850969  0.6592002726265217  0.7163666376810384
  0.5894641592183766  0.0369529543160705  0.0806771137383368
  0.3995594466147839  0.7825649386360470  0.4660278801425259
  0.0399953167632698  0.5126435793146432  0.8576108564367372
  0.0412897857755320  0.7752700294081406  0.4328822026799799
  0.8035425709516144  0.4628539386805945  0.8907625180568247
  0.1486058571607010  0.5790631534955721  0.3637301879777071
  0.4355311881261848  0.0630347512777858  0.3172757541629982
  0.1683941150920717  0.9944216597104645  0.9488375264777944
  0.9085077221731103  0.8271439180464646  0.2918796589163297
  0.3811600742298487  0.6984034863119293  0.7138196391446984
  0.8907752713749434  0.4537196140080882  0.8137778102889064
  0.1810258249645810  0.4764708323860004  0.0900333697067452
  0.9933869963020042  0.8802834457574606  0.2585353939992920
  0.1854249473482465  0.0439964092476650  0.8884197484362892
  0.8259683413231795  0.8547795510937964  0.0189031227858675
  0.2848042063187411  0.7312447692829981  0.3328722423197004
  0.2485638445198499  0.2824798356988390  0.1372680025904588
  0.2144064340887032  0.3234708122304114  0.8905621229298272
  0.1002194735511411  0.3440754737236386  0.5402249544951717
  0.7713670881446202  0.6638026766566895  0.3785302881757123
  0.6655549291402094  0.5106883969075723  0.6875052923586934
  0.4687368842532113  0.7735030710275004  0.0397623686729873
  0.5247535850822398  0.2467098197458396  0.7066516885840491
  0.2113973308494777  0.9544023381800250  0.2203373540497750
  0.8335850711390325  0.5184138555319642  0.7182216704049323
  0.2716248564560866  0.3046255958767783  0.7064531873046326
  0.3074342390303803  0.6753263246874840  0.6128065688449538
  0.9322998443676330  0.7101428703067331  0.0302121356166057
  0.2431750413617751  0.7773891472931588  0.8574887964570892
  0.6201871504558691  0.5054566182691000  0.4303155642428002
  0.9066215931827099  0.0225903549822027  0.3015456826154411
  0.0176013418074578  0.9125221609504849  0.8191252823267107
  0.0291543406026179  0.2775882275772065  0.2601196425923927
  0.0526226638260229  0.2983532756713152  0.0143776284153557
  0.4968395132976877  0.1114769513671477  0.8438193012201438
  0.1217114276362478  0.0955287536829041  0.4585439616547228
  0.8296934665840376  0.4015096876150693  0.3390049055686515
  0.7845581428953307  0.8290456106140620  0.4183276834094045
  0.1399879886707807  0.4132183187761976  0.1753005052308616
  0.2403381984835644  0.8680764727169390  0.5455441290431947
  0.7758548998416563  0.5708009139917031  0.4579536804268391
  0.6272559371103827  0.2207828380580021  0.7767129966259898
  0.4257774984987944  0.4505814901341084  0.4289431379924714
  0.9279460169734902  0.3302652563219785  0.2117169085695874
  0.9702950887816639  0.2750798208295360  0.1426751466592291
  0.6128678626649642  0.3585280999119327  0.1244041196525761
  0.8739367065214171  0.2263948870190519  0.4122429695755038
  0.9226907486415746  0.2246167312654885  0.8291604700272507
  0.8332492099861933  0.1207765609841364  0.0062152070667250
  0.8816212366596700  0.3860689624438116  0.7969924387715096
  0.3172722475991349  0.2446308869587299  0.9516556738859432
  0.5715528002629379  0.4261744476869186  0.7796524584991831
  0.7445580919268061  0.6556282498758154  0.9154282534889769
  0.3788487214605745  0.2589776745738498  0.3636504600006550
  0.3339147363921243  0.6103209919641110  0.2050442923406904
  0.9497652619527358  0.2356370455727768  0.9823688834951180
  0.5798235804760670  0.0939579202343713  0.7398326377052462
  0.6471054126954179  0.7312543233191117  0.2947093036827558
  0.4816457149956986  0.4144805200116932  0.1806042227761093
  0.0907016420757582  0.0463335763631261  0.6021564498369046
  0.6266888184295701  0.3104370422345625  0.4181248673640177
  0.6189229875491642  0.5927502099039096  0.3496882059887624
  0.7323725806521150  0.5460504450438187  0.3061877775942259
  0.3517717351760641  0.4103121979969020  0.2032695306972289
  0.1336243678353306  0.3836975084853833  0.7105808691908493
  0.2203973216362579  0.3877792122258730  0.9187843658381294
  0.7677511827557900  0.2616792689731161  0.0132068168497039
  0.4034579650520617  0.6790893069323509  0.2113764629129583
  0.1168741276507215  0.7587654282222496  0.6386236293335517
  0.2539220564620202  0.0317495756228242  0.7498410690469993
  0.0941481971843876  0.6590456352669781  0.9650025096009486
  0.8721685400277472  0.5830689575518599  0.9207307220968569
  0.3373362045979020  0.2988744863138716  0.7306205261837587
  0.3958965411218499  0.8564193678020250  0.3399694110785373
  0.0497902402396955  0.7684589372516305  0.5096252575006366
  0.1345418878638116  0.4639468805711738  0.9441604524347996
  0.7732404233368287  0.8589086398018588  0.8679933196696269
  0.3155440800459675  0.1330185943135296  0.3387876181228602
  0.3641807126502957  0.7726721108114309  0.8267718953481851
  0.7872338654614324  0.6596097131432505  0.6644705184225680
  0.6346179084218150  0.9433488898615981  0.2743082665021793
  0.1993963941105672  0.3269016600241087  0.5484541891832023
  0.9820128192841325  0.9770390005134082  0.4576097476857752
  0.2057653846242655  0.1308984000599327  0.0599942864670250
  0.0577033722270574  0.1811967519604551  0.5654038905566260
  0.0900954799803044  0.9787306609031339  0.9673554418681330
  0.2576075275070202  0.2549814062940991  0.9937291051628173
  0.4839153117432577  0.0683502869526093  0.3119790813299375
  0.0655033529100211  0.6657349655392234  0.1145064511389379
  0.4187741219135717  0.8329314768331396  0.8387382584657320
  0.2626560623162089  0.9138942274543977  0.0942426966648246
  0.1219739379251889  0.3464121458453334  0.5221903750604294
  0.3489058670870506  0.7998056494024141  0.2577553231908642
  0.5083779112511801  0.4091082370918218  0.2295806429118100
  0.0873630914551675  0.6063904561666995  0.5326547026106055
  0.1441969399806904  0.3461287299899695  0.0509221715656452
  0.8721394559131539  0.9021557510252073  0.4805349750647878
  0.5792331725443493  0.0059231061637159  0.9153638726915810
  0.2011865035661149  0.1093373850611817  0.8484661538647035
  0.0175291721837821  0.9690672489609063  0.8031123441012009
  0.5253307734436579  0.4729322032301654  0.2376137832103125
  0.2545004406668883  0.8277949241310874  0.7258880616081810
  0.9686567541810002  0.0533447745143853  0.0945452381144615
  0.9666085742637702  0.4917705377374273  0.4971140354360768
  0.2255050560109829  0.7238874311578147  0.3777851002360619
  0.4210898699632409  0.9866321178132149  0.5193508041277932
  0.4160500383826140  0.3890454510097753  0.4231203963869157
  0.0939185592715183  0.9140307361820822  0.5566369013551006
  0.4167312241292631  0.7872292980773551  0.3690437892028489
  0.2102739561691226  0.3902164723781978  0.7762944122210192
  0.7506437390114840  0.6924225450962107  0.2602808982027166
  0.0184336788914500  0.9296263239457562  0.1147122973404544
  0.0638893186731875  0.9053972479288088  0.7860803856124743
  0.8246515266975329  0.3941761543073419  0.0213285858080748
  0.6995265623819286  0.1197792507611372  0.1106581145766162
  0.6671365582791247  0.6744627641736451  0.2910837599510822
  0.6555567020027807  0.9309370014344357  0.3734652880137723
  0.0292653153712504  0.8380132867364699  0.7796701444302966
  0.2277159231989301  0.8647152108637254  0.3350670413199801
  0.0836289948037352  0.1433358594306968  0.2733111306998982
  0.0153514425548386  0.9096910973168567  0.7907145063907037
  0.7553095213172077  0.9201586437691129  0.9500646395066951
  0.9403799204975996  0.1405114741651729  0.7077385045825222
  0.2085685848593049  0.2561318823730556  0.5317006443255237
  0.4746011743722997  0.7766146046755593  0.8597583172637783
  0.3732267661784566  0.1687463724323528  0.0208016895544515
  0.5768863357220021  0.8285237716730686  0.1728036537743945
  0.7763478121296380  0.1256657078852198  0.7701064406064175
  0.1100523040064754  0.5346055855467425  0.1973429002288522
  0.8769479225346618  0.1961496372827418  0.7674508975487218
  0.4636094686128540  0.3973600078764880  0.3026757564975496
  0.3776009122145061  0.7492056559900003  0.6073583741769139
  0.6885041200447899  0.3799339647617213  0.0712169951604442
  0.2457281675403539  0.0590312523852131  0.9636484406456906
  0.5795135201509541  0.5877536324162408  0.8627577249241064
  0.0180929900647458  0.7796724617846100  0.8476071547037578
  0.2493892340973201  0.1033209400658303  0.8439234147393815
  0.6585891111336852  0.4638181367311205  0.3015369168066377
  0.6843600049566071  0.8569819873951224  0.0211805207960506
  0.2715741431725743  0.2772267912060326  0.4193651110694799
  0.5065844979563499  0.8418563121519499  0.7091935186199538
  0.7148963300902362  0.7538772598135310  0.2290265532114024
  0.0925185465671011  0.2192469092869464  0.1988449570393812
  0.0565830350814876  0.7100572933065976  0.8314864795977125
  0.9930468536318874  0.6842351095345923  0.6024633513445280
  0.8651696604959637  0.9082653613713875  0.2354831405514191
  0.2056551199266772  0.0829921223622032  0.1446926344302482
  0.3930176199315989  0.3998908073528319  0.2762396122652649
  0.8752128019986311  0.5277046583952394  0.0529783922272278
  0.7250332808836397  0.5723225165089991  0.4038737965858465
  0.9692200713851320  0.6647873195700197  0.2895086098426563
  0.2611813342385132  0.0515414629738028  0.0464703088668020
  0.4912761421758381  0.7041653242899902  0.0572497973045331
  0.6124125721256533  0.4375540595626811  0.6957939317345498
  0.3160684840743455  0.8407828996655929  0.0334453480797387
  0.9593082152598764  0.8354508005586700  0.7508965794443478
  0.6785667860891886  0.6666487668503820  0.8772881031492210
  0.7099268167845156  0.1240977191095048  0.1941927707588934
  0.8104411133137914  0.9852353161260711  0.5561522988263073
  0.0775721404065479  0.6413303137446943  0.8547797667347493
  0.9545056219257511  0.8999598504263905  0.4308130469392157
  0.8172755874877179  0.7758488671509617  0.4638058578347964
  0.0690403026670172  0.7613437970547463  0.6261303697619742
  0.9455453029432535  0.9498480663671337  0.2366486564382573
  0.6281349696513223  0.7200505346048799  0.0186755472585912
  0.6815543717704502  0.1257055071330428  0.3792325348750266
  0.1821472379749721  0.8120951293911753  0.2327637457712073
  0.6873807291551004  0.4135732492409214  0.1787924381159004
  0.0029192512117875  0.3388841851343277  0.2140292543804649
  0.4655711058716833  0.6669195189623593  0.2850728320221937
  0.1051738050163309  0.0371725786687379  0.6559814117731394
  0.0204033273476464  0.3281700416511614  0.6416497552753081
  0.2878706841627501  0.9528244905292256  0.1500338904394368
  0.8204447441446689  0.5368758282132110  0.1179614113094244
  0.5660731877497832  0.7912962234489750  0.4220957967886030
  0.1513710427760905  0.3119912261257990  0.8161530578924021
  0.5161501366446125  0.7770782113534427  0.0270427720702887
  0.3926854484210678  0.2324883974376842  0.1074820011170320
  0.6026313295648982  0.5761862360196378  0.5939633024646315
  0.1150551876235475  0.3164977225994018  0.8814629668910983
  0.0361994530921958  0.3337611129637082  0.5946949308564164
  0.1264256834986366  0.6726843899987479  0.1916572956337605
  0.8809140892132058  0.5167327125814526  0.7767873376588115
  0.9557420840062026  0.5806055104014946  0.8141708467902129
  0.8385185709342075  0.3201702663681707  0.9699096650822819
  0.0674836164606377  0.2304343234447717  0.8539410768345292
  0.8459733497165116  0.3662663594806019  0.5531141885368956
  0.3559268720677496  0.3825030414094465  0.8662512885221365
  0.7158681650112172  0.9382322268158152  0.3283492212540072
  0.3806934142111195  0.1032856025606558  0.6915983859746455
  0.5382106855002874  0.5679634314657851  0.1333358579618890
  0.8149729061110087  0.9243831491308442  0.1673458826506236
  0.3273192011002577  0.9371327656715569  0.2662438807246978
  0.5301904736680493  0.0364807419658482  0.7325251556694877
  0.1262183223672457  0.8983203504776500  0.6507693728841977
  0.9452053520938024  0.3341817016528378  0.1658118887560361
  0.6140661967884207  0.6000127978755798  0.2276166608441145
  0.2703007118886714  0.3075220771095720  0.8096048423986817
  0.2999562299648764  0.1679431447956296  0.7566655457989613
  0.0533442670780116  0.2336962086342123  0.3370852194936358
  0.0109818157643796  0.9708924559715955  0.6552068261084462
  0.2953809013891382  0.1224360264380940  0.3810614785959477
  0.1565537237376596  0.9442501100085167  0.2977892990668156
  0.4264470219858064  0.4156299053848429  0.0829245184134230
  0.8672697791821100  0.8563915285332337  0.5621445387883253
  0.1478011224242134  0.9104827102342044  0.9064600174300605
  0.4641643673413684  0.2030858516896440  0.2806739431460942
  0.3379229296415560  0.5727250435756468  0.8297570540600469
  0.2579281326186345  0.5358719933586049  0.6416744574607929
  0.5522266123541133  0.1523174354640855  0.2586470388192803
  0.5742702260949043  0.0349575410921643  0.1060973664638526
  0.4778002903567417  0.7266738156468701  0.3732553996000116
  0.7668599065730156  0.1348046779013022  0.7150061316480765
  0.3515281389262480  0.8503017845545120  0.4628516392239934
  0.0320306049345779  0.0803612212037390  0.2035718148240834
  0.0837436451985691  0.4617523039877546  0.0028690308239774
  0.1987636620169073  0.0003744615347041  0.1019499406654844
  0.3740604979080723  0.6472573692768052  0.8559765281005663
  0.7725869960378782  0.5212596338493903  0.9061106636755505
  0.0883734104533468  0.2118369472351139  0.0705073814942435
  0.1976075010506143  0.2766120451102335  0.3052190775626609
  0.3822074888066830  0.5078821005805708  0.5653593600875789
  0.4539556377711140  0.9906614408139319  0.5553174046375352
  0.9295175886121788  0.1636863132751486  0.4131650248425743
  0.7057707744143904  0.3151521331164900  0.8622352033581917
  0.4102824575231769  0.7643680460859693  0.1018338311749767
  0.0153736304528191  0.3063326083632070  0.4267766865837611
  0.4548467490864377  0.3421084283209326  0.1957634465772565
  0.5193965392319266  0.3917134451870967  0.3542088522297112
  0.2453948955382010  0.1496650845406221  0.1804110789810717
  0.3903720046041922  0.1772670801811266  0.7946373882007346
  0.3623787737683626  0.9854061163897044  0.3739601814497914
  0.9797218118951767  0.5804002412947096  0.7985124147870762
  0.8279232295920860  0.2519901808104582  0.2533013243521939
  0.3457639494372196  0.6464553430410980  0.8606804326529943
  0.6022678033975294  0.9430012539729529  0.6511130511081793
  0.6060894264740631  0.0908590824216258  0.7497032370245340
  0.4811157964204792  0.2693392182302330  0.2853919463416250
  0.4877620814503849  0.5900712364435136  0.4144393838574239
  0.3276765411653811  0.6467738708212741  0.9889449535788153
  0.8041870996349533  0.0493182391318969  0.8290622104009062
  0.6683899977936141  0.7925470319491901  0.4161353013193711
  0.8679162156682714  0.8622518163851129  0.2172457170142887
  0.6982469133090680  0.8575696649068000  0.9962875850248627
  0.6228374628878696  0.6481317263335677  0.0348150089117849
  0.9849533748366228  0.1749568192044836  0.4772686872049762
  0.1141688256699080  0.5235739430584795  0.9223196802580161
  0.0117520623453451  0.7804525135451681  0.8754499427034058
  0.7457341139016077  0.4888239833099841  0.1324798097962481
  0.0266726524440318  0.0769689183039187  0.8289016983011140
  0.5021052078997911  0.0760150377768694  0.2671934118122289
  0.7630796915656795  0.0534054544860384  0.4681832750886921
  0.8684815806820032  0.6253022268634217  0.4533771526557865
  0.3999151343806655  0.9842253489910638  0.5379983669125328
  0.9350555338334644  0.6035491308018666  0.0237817980060973
  0.0998418152602334  0.9793304437243651  0.5432217308096017
  0.6063845446564081  0.7274966442294967  0.3577328035641120
  0.3477225235436491  0.1004931912691839  0.0450315143813567
  0.5784316631165233  0.5888303122887882  0.9121230185033572
  0.9980560501892094  0.2137057448629188  0.2230787936166437
  0.0707019260503394  0.7994266812499529  0.5594938155226213
  0.0136346072417576  0.2938864449095546  0.7178215414945368
  0.3311168464393109  0.8730417640048388  0.2602368066253312
  0.8899135069712664  0.9701056142490603  0.8145357601559597
  0.4647472095538360  0.3459051733760445  0.1696663940508860
  0.8828255848059211  0.4516833779292610  0.8412973235166594
  0.6208000321872216  0.5176999891943345  0.7794376300491397
  0.1097318607576640  0.1844032454071166  0.0321574449483742
  0.3837417530488845  0.5700614555125552  0.7064320964560163
  0.3985918413478792  0.0597873452849271  0.9434474057940949
  0.2549771695597637  0.5605066901055692  0.6823427480239396
  0.4746881743463486  0.9181218735455157  0.9475283026308111
  0.9136102190258721  0.8415289220605712  0.8724148786026957
  0.9128108891197998  0.3113625487945284  0.9707472908205280
  0.4965747178699257  0.9742329116513639  0.7211664731287112
  0.9084694994939911  0.1796146871581263  0.5396460163120589
  0.9967356293402629  0.6399081786236257  0.8245780562981607
  0.7271461657923777  0.2554615516240351  0.2548521610650087
  0.8765958069574715  0.9225281861623910  0.0393403372650124
  0.5822614502189151  0.7213627897170126  0.7014680934821094
  0.6873089120812538  0.9446443984542251  0.7394847268822266
  0.4417826802684562  0.1266131867916980  0.3677802782271060
  0.5122137646279880  0.6523989860701660  0.9072935508542743
  0.5485603765991098  0.2818051950391814  0.5768919278973622
  0.4040376481688249  0.8279339068912124  0.0787129470956548
  0.5507282574020421  0.2970610883001936  0.7982919869612221
  0.5243317422624788  0.7749684825709173  0.0544974972733143
  0.5424053628294577  0.9122717687700138  0.8701642682148153
  0.6174630509250072  0.6475277592663191  0.4943235261781813
  0.8686348332755200  0.9484424448319480  0.3692375789101354
  0.7051752472663961  0.2927148127264389  0.7877943577546934
  0.4712880033767566  0.1878344185044057  0.4126488201100724
  0.5500170602514368  0.7806857528407773  0.5945992023723945
  0.8232250515186180  0.0486769700290509  0.2286568240618068
  0.4672933681821032  0.8384012853294288  0.7369448688526918
  0.8788143242394219  0.6280290270810525  0.4276307376921380
  0.1211844425483519  0.8793921866403234  0.1872633784582736
  0.8242517084809703  0.2546659563199984  0.8701466223651322
  0.0184268027959556  0.1657298544654617  0.8714530144590659
  0.9498912208787023  0.0997491886364050  0.3686962030394144
  0.4543511203156574  0.2273198241052186  0.1509009722212067
  0.0714863415516848  0.8938676614815749  0.5980833628668796
  0.9045618229743798  0.1959761805978036  0.7632966116131531
  0.8171287157680732  0.4321971844780192  0.4724942273108170
  0.7404972557237252  0.2577124917819531  0.0489887131103692
  0.0070130348863805  0.9317537832420836  0.9460241066743478
  0.2259726288815735  0.0399643167583156  0.6118563643893938
  0.3890872313963196  0.6400786074103741  0.6059240221167943
  0.4810751927868934  0.1070791099304176  0.7356485772791901
  0.3870815869939785  0.0284382797389754  0.1556996120398141
  0.6506059824309911  0.3682191012551548  0.0969679725933021
  0.8157410724099670  0.6565881383349854  0.6600403159290581
  0.7562909460526911  0.6337949819399412  0.1521201403089963
  0.2556329218977269  0.6552168463063793  0.3689574016961549
  0.7962084273338386  0.4149063220370022  0.7574557251441071
  0.9897412777955381  0.1469456263311380  0.7508073762171763
  0.0736225764455762  0.9142143363788989  0.8987462860495018
  0.8850601737847981  0.3314902501773858  0.6322420323455273
  0.4486733980468163  0.1932005100552022  0.5362021256305814
  0.1657724224133189  0.4061414282020986  0.1272178885652805
  0.5838251522818219  0.2866374816969439  0.8768080398424075
  0.9395232904284723  0.1604705790806398  0.3870331026742985
  0.5286957550013610  0.3281282482109211  0.2851683320420630
  0.2742727180743815  0.7005620480521604  0.8959292589173294
  0.8478392843503220  0.9896684133950343  0.5883193721358646
  0.3821230573468249  0.3835818144869670  0.5135959624692124
  0.6129868040968015  0.3862848844524525  0.3697897647426044
  0.6382367006256747  0.8134099368892900  0.8402598096815089
  0.1912987264920440  0.9113869767047145  0.5267021292360694
  0.6487146371910087  0.4393893219642617  0.6333751203511933
  0.8453830636330742  0.1608699433046190  0.4265935405002868
  0.9283924933819967  0.0773812225252637  0.7287019523684335
  0.8258947281649295  0.4706104617384491  0.1942660568484700
  0.2710219463410027  0.9739907215564225  0.1096179216986654
  0.0200942733411690  0.7126262191035247  0.4262888094021134
  0.1987675794724074  0.7461342517944268  0.6165617419343847
  0.5565875269760426  0.2743951130593963  0.9987296523807871
  0.4836493740120504  0.6739810138883823  0.2380163270268827
  0.4381703803401387  0.7135007747248118  0.9398812968113199
  0.1787273732291408  0.1414104480103416  0.3695581622139866
  0.2090139853250734  0.2513340389431832  0.8803426969268374
  0.8718248122859553  0.8602761899015581  0.1897067532704539
  0.3758982060172641  0.1103530155882201  0.5263774596304006
  0.0784678224744180  0.8794632465670792  0.2108039698238353
  0.0831356550059965  0.8493079773737319  0.0200997480752289
  0.0390686012865534  0.5136802951627382  0.3582197769095067
  0.7170523827071484  0.2105255038512147  0.6207852104226974
  0.1712424421995997  0.6991444568836873  0.7910548538478287
  0.9989701820466456  0.2857016669040474  0.0756843487308713
  0.2919976982954701  0.3340956379061736  0.3792454932014378
  0.5049219178146511  0.3898142617777637  0.7860460698959355
  0.2629706694851628  0.4270812415675703  0.4438187636295633
  0.8200208362509553  0.5280025847627000  0.0418070092081390
  0.9537282287236215  0.5644350679201803  0.3909932461859940
  0.4202132721403928  0.5056179751909462  0.5965017877051788
  0.1911436399608517  0.0572411516377999  0.5071717829696529
  0.4221921902085796  0.5796825085350371  0.8824518439146689
  0.7183550286609367  0.4800555041568479  0.2559326702504263
  0.3418067598820968  0.1963539414159713  0.4005579660741307
  0.8247833795813861  0.1264132097143260  0.1360934557561558
  0.6812612243437400  0.2769606287749899  0.5619768461002975
  0.4716568229195131  0.8441271594415897  0.0040434369524194
  0.6201911671162073  0.3476132369514410  0.1710580419523295
  0.0603266826721544  0.2348559923821948  0.3647278007490086
  0.5647160753602042  0.3046156434069486  0.3764775678254366
  0.2796280080733830  0.0215275516461292  0.1255157666983323
  0.3056517723296956  0.3261135102591600  0.3177609859702471
  0.8765331836001335  0.2744065225859804  0.6219395475986290
  0.4095651136628777  0.8243508011031403  0.1766153883753940
  0.8486976581672353  0.3380921592381045  0.5919202758082703
  0.1200752689786375  0.8832078264509996  0.2355260517306826
  0.3892345782285814  0.6370625876006113  0.6804638768693834
  0.8024207602999157  0.1266440683203867  0.1530394590164141
  0.7836559676494176  0.6510078756134389  0.8833143361722640
  0.1206194032699651  0.4097797330579375  0.1053437916853221
  0.2445044548767849  0.0438447946230704  0.5649254144744517
  0.4270702682583231  0.5219133999031395  0.8964365896211662
  0.8717419313988367  0.2741585464112705  0.6499532688699433
  0.5622849835220437  0.5380754143244397  0.2738696914838540
  0.7925585788256641  0.3376429149577208  0.7204590318760319
  0.4793234773591917  0.0554954441328858  0.6515111138208436
  0.0407096467180171  0.9122819727042736  0.4760168138725166
  0.0905343338854102  0.7064960161722025  0.8675993893524251
  0.8000279868613608  0.9867018572540288  0.0042187948933378
  0.3997745477730691  0.5585702093553868  0.9995402712513068
  0.0224457067128353  0.8745980173777973  0.2106633761908234
  0.9110746891270414  0.4837069219987327  0.5494062734578427
  0.4152789359675457  0.2207182879173533  0.1907011204479380
  0.8366411207267143  0.6011352445952808  0.0519418082812599
  0.2715879786887079  0.1667741275134581  0.6376968244169924
  0.8567773396019496  0.4617231686264512  0.6980487626970394
  0.3962254689306887  0.0520726558837238  0.3797433426429405
  0.3108812922139469  0.0133128671771546  0.8622956000614171
  0.0913397804629848  0.3945166964641860  0.6388803949841027
  0.6646655553413208  0.4435738648034770  0.4491556301209142
  0.8117095911338242  0.0782437285611705  0.3249648154232163
  0.4365098896561447  0.5220091609689210  0.8472557026863723
  0.8114625135254846  0.4585187039093355  0.9412746375519715
  0.7909299721196793  0.5774766357773896  0.3144279725493680
  0.0070138484086739  0.5802709519081816  0.8395543183904131
  0.8792436958176559  0.2992832315916437  0.4786135534638408
  0.5234375618261220  0.2136377818897292  0.2204373451939078
  0.6505688215895188  0.3955649585775825  0.9293093526248993
  0.5969612099952272  0.7782766807725086  0.1249982563132389
  0.8216836308738353  0.7854945576784303  0.5369306998173787
  0.2307545239745320  0.8823421948622875  0.2387192992000851
  0.4199024271784846  0.2316861597659772  0.1149330414087935
  0.0144616271654422  0.0972235192539924  0.3306872171761958
  0.0509855080012096  0.5294392027494995  0.0359289704597329
  0.7305297404314778  0.1098207658587341  0.7750834600248097
  0.1056549151776910  0.6637093170249360  0.0496588956674910
  0.6669880726306571  0.9995480591741748  0.3887617245792869
  0.6086123960255808  0.8554799377375498  0.4599545995366141
  0.1507204166557225  0.8512310098845483  0.4031443586442267
  0.4379168523040004  0.6404311460817125  0.9695275607910858
  0.9586087650200463  0.3010274808709817  0.8297768983761811
  0.6432435322819923  0.8480455545100581  0.0958543485309971
  0.2762735796467341  0.8497647427123752  0.4829496688078989
  0.2627914904487845  0.4814268929868746  0.2779310646558783
  0.2280530913122419  0.6622606257896722  0.0458792418424776
  0.9522408201323228  0.7760062394345472  0.9206468877772721
  0.1470258300024566  0.3972685794359641  0.9790696026059671
  0.8535998844533176  0.3266218139843954  0.2297771000382821
  0.3999705730060483  0.2674766787029531  0.6607538134858535
  0.9647167625266260  0.5099093768482921  0.7925933975859750
  0.6917395027383562  0.4470929129133390  0.7857581389292662
  0.0135518340278676  0.5240546630722626  0.0037966821601409
  0.2788852640554064  0.1960178588729943  0.4588941771599839
  0.7222838305367494  0.9339019137738281  0.6705661424217925
  0.1605849137173455  0.6058498341559964  0.1731242849755549
  0.8231377923953943  0.1175571837203279  0.9214693006086534
  0.6391463123338168  0.3691759255259102  0.6835038830104475
  0.6801852341836148  0.2309224887388786  0.8636514646647520
  0.7999539120272317  0.9271186227832265  0.6307326839212009
  0.1653219508428003  0.2641267904210270  0.9702915409093256
  0.4643197675608102  0.6394965190654225  0.6181950401777970
  0.1788953856977704  0.1822456534860401  0.5978292786640147
  0.5089639297072529  0.5833432533562328  0.5150119652505473
  0.2051781215893152  0.7903989548541867  0.0894901053994363
  0.0986570002632805  0.6329699271484402  0.8380807887362611
  0.9115819266743904  0.4596390819472576  0.6826456934943936
  0.6811752024631489  0.1785224783629475  0.9919236130867563
  0.3376652216391083  0.0995019931902711  0.7520399723857402
  0.0265621165191189  0.7337297333243663  0.1797682886746284
  0.9531433250393555  0.5281423255833221  0.2689257773228061
  0.5071048511170254  0.3926801964742030  0.8355179640471729
  0.2591366121743720  0.2407834433538125  0.7605716695629898
  0.3479596086891977  0.9804611294239837  0.4201789104014929
  0.8440412528068781  0.2012516413798549  0.5703869582628481
  0.8167207370528043  0.6470016621003124  0.9380875566106184
  0.5888248057509757  0.7163446085903137  0.6742541370299936
  0.2889330644331739  0.2747945694991668  0.3970245214529668
  0.8488295259021176  0.9149986115281518  0.2128474093189284
  0.2320701852637332  0.3832686310068393  0.8944367827710817
  0.0482187130312138  0.3886368976170005  0.2778116841198449
  0.3763750857950721  0.8313509724846312  0.6442387651628015
  0.5224088683142850  0.1737423445399138  0.4321119818830448
  0.4692347225608798  0.1572857336669261  0.1961353180793009
  0.2252247315771477  0.3279611498790072  0.9469683089357226
  0.6984287178909058  0.4378265693461919  0.5796635507853073
  0.3676395686663134  0.8577728688053337  0.3388255070989089
  0.6178076172172893  0.0828615498527469  0.4262538463704755
  0.4655861715534804  0.7732508346925406  0.7284897211950726
  0.1622813818308863  0.6677115854008840  0.5668403148266913
  0.8007003209390406  0.1882510245244997  0.8266554147036329
  0.5983900277243772  0.4528238780423050  0.9142532102461598
  0.4634254947481135  0.2546567916889581  0.3791302450608668
  0.7611282576136503  0.1847815952575395  0.3117413102691988
  0.2275140148930751  0.9187144138700718  0.9694546526693967
  0.7519054887405000  0.5845468813013263  0.1102673502915925
  0.2840385183153159  0.5913245236548081  0.3248974064737624
  0.1397936135815694  0.9660148243739775  0.6479479568354092
  0.3343784505345070  0.6555399135179659  0.3986707780227904
  0.0961904252554621  0.1835391718427374  0.5341642855112992
  0.9180038406334763  0.1648618398603947  0.8605737639425759
  0.0793097075874863  0.1701558173032067  0.7120837224193980
  0.7297121607757874  0.2876757971769692  0.4934563584217434
  0.2168047393696872  0.2386891676824878  0.7215037443360618
  0.6176158706161390  0.7154742173717433  0.0673231066538246
  0.0176816110772169  0.3106002432921448  0.4543035687824721
  0.4175177902004904  0.0527162613664651  0.5765312210777239
  0.1295552342461912  0.9676874247807720  0.6216178319943723
  0.0559815782494704  0.0513494395652660  0.5671972459755967
  0.2174146419839089  0.9102616291940473  0.4863270343354601
  0.0782838035094666  0.3943596257911981  0.6642716183329200
  0.2019292217457686  0.5733956738603917  0.3167591446080505
  0.2556413489458067  0.9180469859739410  0.0089858548937155
  0.6246801297452479  0.7915721185789085  0.6581886500453081
  0.2191617386240401  0.3426004225102133  0.3763911181925256
  0.1536449399185388  0.8317893060226954  0.7050511649261811
  0.5391745858629330  0.8549801746621900  0.5350939502379094
  0.2543241209997055  0.3047779226983002  0.5923361767614831
  0.9938082708376522  0.4452559117314959  0.8942482317067333
  0.4944149931589920  0.3321482868999190  0.0040875734210067
  0.6840153074478548  0.1869519518654560  0.1501576566855720
  0.8202301046887464  0.1837596659645923  0.2983911337669790
  0.6977265719837233  0.5100049543360210  0.4933037403596459
  0.7207881252731770  0.1150855867890664  0.2823186004668495
  0.1544555714337633  0.2893219378603209  0.4557034628369754
  0.6674512222519777  0.1117651399567395  0.0444383444847924
  0.6709467714992513  0.6041253094421429  0.2315393222062787
  0.4035186005062218  0.0333357516467973  0.1069089262459483
  0.3621399651088539  0.3659020737559766  0.5794202625156898
  0.9911121601219112  0.7421734559922900  0.2967894156824885
  0.6231274392063506  0.4408750209125114  0.5739127433226845
  0.2680835013024201  0.2201040217569858  0.2005691224905433
  0.4783636334149697  0.3188566009980303  0.3395880102164426
  0.9226441687658056  0.9879422760529238  0.5739985255997813
  0.8748699302252901  0.4936644892970923  0.4768830016379840
  0.4986120005995371  0.7252186632030533  0.3924151389335094
  0.1888392690973367  0.9001167913945856  0.8177699608267562
  0.2017755505357421  0.8073948270496748  0.2859061930962573
  0.8096434646991283  0.5940872562451046  0.9616746747008624
  0.7807503380403980  0.3285624182698559  0.0793212629630954
  0.9848661360624714  0.1655622723664130  0.4031555533877053
  0.2806493450987714  0.6978880202510130  0.7197943715379678
  0.6896892948903215  0.3217523604344030  0.9633553652274442
  0.8595570507353093  0.0628428120130120  0.6074819772916278
  0.4151965570569473  0.9616411575382457  0.1234263682320168
  0.3122515380801318  0.0982826718160405  0.7397268026885777
  0.5102789351735193  0.3992057119192772  0.9348870684308348
  0.8416990550356211  0.0476744244753957  0.8708225455851065
  0.4588849798343695  0.5696986380561107  0.6353950420670665
  0.9003719526795815  0.9763211890332678  0.8894420533727180
  0.1365754828798075  0.9230065918887275  0.0650387036120706
  0.7737705831789506  0.6445154789725547  0.1070647480167685
  0.1691847387309263  0.8324046192673278  0.7290438189117662
  0.3274643867762548  0.1525514584442213  0.2411106976159144
  0.2676916238482416  0.4794461766686523  0.1359927595796642
  0.4758636561867281  0.1962417238254575  0.5435746558195502
  0.7258740428070328  0.7818256104333849  0.4997694061436223
  0.6103930045083701  0.5257230204969977  0.3309157434550392
  0.3887742202564090  0.2528547572364795  0.8492541547841131
  0.3644299881506383  0.9109382538450788  0.4112290075887889
  0.2495528287898737  0.2794662168915999  0.3653280863018914
  0.0112053453542274  0.8441651172729725  0.5632886832565354
  0.3173436246311366  0.0636993244893208  0.3515909977409128
  0.8277752647078418  0.9154516550573434  0.8868172567801942
  0.6542912659057696  0.9962985331768373  0.4366308745614185
  0.7705858286635116  0.3422769053988010  0.7378429774692384
  0.4626706227924889  0.1043746804321613  0.7801984537547445
  0.4751499696991001  0.1379615474038546  0.6070408991879813
  0.4631773164433454  0.3349015448258355  0.2440762284513653
  0.7735167978691879  0.2557150146064702  0.2404716913973043
  0.7782145573261897  0.4203219137333407  0.8100744384399763
  0.6456850983741250  0.0318417151593668  0.9923135532975732
  0.9971939300845781  0.9170388273547511  0.5645279730239569
  0.7236396828541443  0.3545753522059139  0.6326829260745946
  0.8741568234613784  0.3697637787930554  0.5047061737856503
  0.9095938260887084  0.5122658267231300  0.8578951961072528
  0.2136444493573553  0.7609424356292902  0.6607649300705429
  0.7574094901907450  0.4274145453535034  0.6636321832430059
  0.9052782511277461  0.7693565580653461  0.5509522783542365
  0.3837456691256630  0.8092192639114769  0.2157225505168714
  0.6898577668124670  0.6481465597934045  0.0695774867002235
  0.9725451474625262  0.8065307063024212  0.2363790266526564
  0.7957697123869704  0.5975616662294974  0.9870672768508816
  0.0634306880204975  0.5694602048682521  0.4400695306081007
  0.9002257960498261  0.1277256111569187  0.5817336203826819
  0.2977158432306941  0.5545238064071598  0.6623401162522562
  0.5954384521676156  0.5816468700624553  0.4705589335268482
  0.7796129499145429  0.9004600796407985  0.2388296453817322
  0.3945572077682246  0.8000833876429144  0.2410437496029088
  0.8208962719023480  0.4287267349020914  0.5230836739053418
  0.5984091350113285  0.6433969757624224  0.1139746982184070
  0.4966309021028560  0.9214250210367376  0.3882300223617653
  0.5134448062344791  0.2288607309533498  0.0932432158984647
  0.5785818034659507  0.6865230677328005  0.1804199457950794
  0.8101036739611968  0.5984118059769493  0.7131372748388772
  0.9378879158196016  0.7718245090173806  0.8735518645274570
  0.7630773592601868  0.3568356096430710  0.5554964824558356
  0.1275917000547453  0.8338869607128157  0.7539512934662553
  0.9855841877053518  0.3279471787894151  0.2586039091962217
  0.8463522436949636  0.5823067482528692  0.9316497694654771
  0.3597795618327190  0.3857502359967823  0.0656138771468440
  0.2459290005439084  0.8869527568831550  0.6271559573675435
  0.8843912184253859  0.9814258821525124  0.5445170764613487
  0.8165877342308993  0.2328925705062350  0.4757691527188551
  0.1086264745610156  0.6987055411748913  0.8473502688089161
  0.6205035102663209  0.6519424319220969  0.4200107968584471
  0.3828230615222895  0.4122359141166815  0.1069791627399017
  0.5366756316725791  0.5168854881303603  0.4171709954575866
  0.6914695670523978  0.8811386922757952  0.7019773440864566
  0.7201958554634512  0.1318703589249580  0.5639788874901204
  0.9600450115787555  0.2006181066306560  0.7559588881382442
  0.0309430294027575  0.9255697495173999  0.9584773529540713
  0.8178548115614219  0.3885056673340258  0.8750700669397334
  0.6611397272060506  0.4172351103417745  0.3035765505699253
  0.3047586094359231  0.9167295630230354  0.0033616625250077
  0.6438003982283524  0.5792616280513205  0.6202676809989246
  0.0081563678295118  0.7719778728053822  0.6688659342427332
  0.7518592193130434  0.7885402537477402  0.4297954094853437
  0.7884190854196742  0.2638640862340340  0.8052358803225047
  0.0122595419737344  0.3892616829746892  0.3547103771383710
  0.7740460851758935  0.4585355315176842  0.8939464966954739
  0.9173527491224382  0.1203757464828914  0.0967974635835753
  0.7418393637910121  0.7434337718651467  0.3215358711070923
  0.3296634746784303  0.0420713125727936  0.4306725354731359
  0.8944300219926097  0.8887335151554361  0.2808167071885561
  0.6909343508759710  0.5884604377561646  0.3291004755181313
  0.0070961420022004  0.7949358757442795  0.1106225483194525
  0.5342820998856933  0.4961702317401812  0.1072240065698285
  0.9587745950169476  0.5262502503494332  0.0690809306864761
  0.4455643634579963  0.9982700324556026  0.2975354132670307
  0.4273881882925432  0.0376988467627272  0.0579176016299889
  0.1307821298668473  0.6737503435204938  0.2199316758653564
  0.3715262230712874  0.3053480837765432  0.8605297104425494
  0.7869030535938163  0.4093256024009780  0.3174233700625961
  0.2113451672124046  0.3338543351243194  0.2892042735465712
  0.5684645977544652  0.2866850953407643  0.9006692247325851
  0.5506836093542642  0.8402355651914875  0.7304806660409210
  0.5792881944953480  0.9043531081364009  0.7803256120923248
  0.3653234275237662  0.3775210175774688  0.5343536341961101
  0.6647058543236599  0.0780172298873369  0.6376813650093313
  0.9998023659010544  0.8445432180916679  0.4411367347627351
  0.8144700144243527  0.4679550056389144  0.6664029323557707
  0.5167974601790846  0.3199512410855271  0.3096047756400534
  0.2640706552201481  0.9971573107730038  0.9280027961971015
  0.1747107118716274  0.2145772827767779  0.1200181079379915
  0.4432639121427886  0.3266521487753655  0.2955705934974422
  0.6769931975544956  0.3146433718881370  0.0351186558072690
  0.1398390738510739  0.2241063733608605  0.3905175337184379
  0.7068357854478378  0.3675738801113738  0.5093236086644521
  0.3210371071001042  0.0996240486849977  0.8246210215873551
  0.0870389034625829  0.9041408463514661  0.7695057201700159
  0.4151653572140089  0.8319229991949918  0.7900350479885783
  0.6413014969100332  0.5850428046526829  0.6685836106681607
  0.1839907505807000  0.1011659531226231  0.6806661658439620
  0.3672782804809833  0.0392500403522049  0.5550671802764069
  0.6858855194089506  0.4168691590145350  0.1293258152739669
  0.6220118759683296  0.6747827965624074  0.8124381566200505
  0.3566553473372808  0.8084895897332783  0.2087498766845723
  0.1537414057112973  0.1863282671221966  0.9248743263312545
  0.6563257019550067  0.3071003945595745  0.0514985303083121
  0.8686984986831570  0.7779135164689155  0.5191363263902649
  0.6709385277311930  0.1323740657791110  0.2569004564253809
  0.6989833629428968  0.4370985576806445  0.6395386523136787
  0.3131308947397958  0.6979278474149806  0.8560102185467928
  0.7575476342741443  0.1918438986586927  0.1522197885564930
  0.7509664669682508  0.0193758132739664  0.3117179207505558
  0.6877309516473629  0.7848759863899866  0.4688339710564448
  0.4418500506890837  0.4581231764072493  0.9930153009830804
  0.2930053955747946  0.1680631662024271  0.6179586038286868
  0.5673133373873703  0.6583779800372177  0.8972394507308541
  0.7384935122308538  0.5188420548126840  0.5999996620610361
  0.5869605501605033  0.4576314686765325  0.3128642696974316
  0.6177885262286975  0.8715392705576805  0.2900110726567848
  0.1609552313327262  0.9637462315161021  0.7011854813212390
  0.2259935874549325  0.2589399134027048  0.5093931078604954
  0.6420768920028610  0.1479426988665611  0.4708915813412153
  0.0521517601026116  0.7912084962790681  0.0186137835180637
  0.7668630510616843  0.5207572225769026  0.6047512053974295
  0.4255433825387415  0.5792227834263599  0.5085520772047466
  0.6563085643797000  0.8685955934574947  0.2147333207767141
  0.4798997801337498  0.9883572790522560  0.9123451016922821
  0.7016450620491750  0.9818372781489465  0.1635078596415357
  0.8166002959818615  0.2671699292307853  0.5675987757319807
  0.3754691920126899  0.9004643592262307  0.7162773703235784
  0.9648177046874914  0.0556924472711795  0.7880082943929130
  0.8294810836680114  0.3263302255604951  0.0714772933878533
  0.5465406758183711  0.3251499198865171  0.9999445065042351
  0.0982722810709014  0.0113235575922129  0.2203170107198336
  0.0833682562593208  0.3938915551722175  0.3736087594934787
  0.0836965425673723  0.2378685863724965  0.8996373263058175
  0.9367094426116062  0.5263535029109120  0.6364486806616209
  0.0414339514954460  0.6920298612547685  0.6435702529992869
  0.1004284172880876  0.8715538895875393  0.3547949449481300
  0.3356256891196165  0.4018165416126326  0.2752845178752102
  0.3064339589948623  0.6747630842351717  0.2316383153227975
  0.6405379853222565  0.6705304044411773  0.2953517368636552
  0.3283434017383129  0.2365505214002686  0.6116273932066743
  0.9609423154448327  0.4835517972342700  0.5549848570267438
  0.1330086903258115  0.9631934192638845  0.6968447325638399
  0.6387955747947350  0.9335766714009592  0.6240379086735707
  0.3379807867712291  0.3768986711509155  0.7946311715708974
  0.3707652152492039  0.6827021758941192  0.1753965744070410
  0.2025827877632321  0.6582386141426664  0.5385279247735342
  0.5262279983768388  0.0020736590242203  0.3224476514995093
  0.7078457995356049  0.5958991240954991  0.8885594121801184
  0.3043902186254132  0.8376126107944738  0.0597080717872006
  0.3112466755816451  0.8553096185043642  0.9391337140062100
  0.3491779359565796  0.6512389449942143  0.4414815933848386
  0.2097513375565699  0.1354865062070333  0.0875541769260189
  0.7404628086751575  0.8635306425467167  0.9209096556220083
  0.6479445754884631  0.4395383811509642  0.6611735522360159
  0.7607566838168380  0.5772756055057343  0.4803545144371425
  0.9202880745195043  0.0468596711902565  0.5267370241292759
  0.9246056540141453  0.3040517267402926  0.4704455130994983
  0.6029185576526815  0.5902752107713900  0.3729042842666406
  0.4730602639960440  0.0111892468919171  0.2054651894441882
  0.4942539940354952  0.7788194962249920  0.9435411883246765
  0.2425818778436661  0.1155324009157372  0.9704946415328674
  0.2090055774189052  0.6042330560268329  0.1710231484619732
  0.2715068835438888  0.6248170749116518  0.6507481537750047
  0.7188389302251652  0.4043331630413773  0.3450873588098842
  0.6166490719716577  0.9793832332124743  0.0632585421983211
  0.4058047209572826  0.5157368604415171  0.7674187161683457
  0.9810555592617932  0.1455344148985720  0.2608190916078730
  0.3311617518812523  0.5280694379169961  0.6300971006567373
  0.0773099243563840  0.7950863807697062  0.0912595861140505
  0.3287980029983046  0.5252875060858887  0.3580409115227869
  0.6508347747102619  0.0712210163594446  0.5231162561000209
  0.2384305930807889  0.0493155288424746  0.5134181492200375
  0.9929081371882700  0.4115698122671112  0.5703897258856093
  0.6050277842997124  0.6446938487442243  0.5949864210540950
  0.0774800976345019  0.5117484654164114  0.8142807580883413
  0.4528898708553076  0.8306920350199491  0.1982571023412870
  0.4059196176710063  0.2782168903099102  0.2217055156359213
  0.4696724481049435  0.9888026484768647  0.5095136247050773
  0.8222971905970949  0.6174146047491105  0.1787694321765453
  0.5813875525883702  0.9354038829363120  0.2236595394722624
  0.8717100960700199  0.1732019770775923  0.4967319391611666
  0.4188192091142171  0.3052296173481423  0.4206327003307543
  0.8198852021017217  0.2576809518015608  0.2267892037647319
  0.7968743388693650  0.4700729199160286  0.0467651139991723
  0.7631929960289084  0.9724309480694975  0.8359226782731930
  0.4157885495493995  0.2651155824541411  0.5579966418327441
  0.1542289200689607  0.9013055034252742  0.6913959466947033
  0.2712569453338617  0.7245503635866556  0.5186687825182009
  0.3450698444897669  0.8284098238426143  0.8196090551698972
  0.5007133024241390  0.3855903236807968  0.4290533038076822
  0.8132034323423500  0.5648028497746200  0.3646817331571101
  0.7517816832685771  0.4320860689374297  0.5511231815648302
  0.0871427002547167  0.5292468761782698  0.9925282875562553
  0.1502614320732817  0.5255722444035008  0.8799013703183233
  0.7948879045487772  0.8257911560457925  0.3430235439197055
  0.1700058587018172  0.3960265293093070  0.8031345612380080
  0.4198935458662928  0.3937347838566347  0.3255935407549581
  0.5841149898084493  0.2226501686055136  0.5036010525979661
  0.5491893916232169  0.5801490850971085  0.5420975989995331
  0.0324128802703231  0.4126285357281974  0.1100698446349042
  0.7007101547649690  0.0478654971220806  0.0525649364416695
  0.8696246257278271  0.2499946923942758  0.0129315274659430
  0.0581404153693681  0.5093289307975361  0.7603190683730455
  0.9114149815025407  0.4548388043004043  0.7595105377450437
  0.3728547240700238  0.7014678875067422  0.8422939522888474
  0.5207482144653369  0.7083427483798119  0.6454256524682680
  0.7195635120444094  0.3257748322089253  0.0024476294560052
  0.3845405780775177  0.8537864984075133  0.9589124669408915
  0.7829112662624510  0.5291762941673454  0.0082969416629593
  0.7652685386444558  0.1193156271515120  0.2431839136055665
  0.0224969022032972  0.1736105132017443  0.4452503741198513
  0.7982444735749774  0.7804528565873899  0.9773408825014744
  0.6916846316484827  0.2629559861775075  0.2225531617317387
  0.6127210831880711  0.9931254296249596  0.4772837437942629
  0.9691529887016844  0.9800949808914761  0.0649698493262406
  0.4692833097648968  0.5579137426908225  0.1080281705264080
  0.7266555956108348  0.0603479851334464  0.5571975924670761
  0.0781316095971333  0.3930340311332253  0.7149660442055766
  0.4724837510700031  0.0771304744707017  0.2278421168853980
  0.3102195246531214  0.4090702248726048  0.1300853848316180
  0.3191650761433789  0.6915555737185384  0.6563464854646074
  0.0123289283797965  0.5438660612357699  0.5537199672497992
  0.5322541922247971  0.9017112817940534  0.0866269906346504
  0.8332244921266477  0.4642636435306663  0.0901266642459131
  0.0755129396943179  0.3775736827911007  0.9608451854929643
  0.5009641919657705  0.2502130028876832  0.4115609700106981
  0.8611103374472583  0.5343093945358507  0.5701984492840017
  0.5692230010056465  0.7795920981852341  0.6491956757276196
  0.0708681378244113  0.9642691569991187  0.4184606295055179
  0.1710967845366723  0.9795645812404848  0.9256081151121319
  0.0783696820742350  0.4162842385383731  0.1349895448272589
  0.6919236546305902  0.4765162807748228  0.2115912893589301
  0.1862874044460007  0.7637591270785621  0.6686571520764484
  0.9186962918640217  0.9105538569766752  0.7984327068507392
  0.5193882893318209  0.2817919430981539  0.5741441354237933
  0.4082049271472344  0.7844211141297833  0.4176419462512247
  0.3654423148439711  0.0607720633898154  0.3422265547395543
  0.8046408276453846  0.3601665848591817  0.5291514332942319
  0.9502526940416526  0.0697528351102546  0.2228811420635491
  0.1611867072105901  0.3390889994039075  0.0020432215923974
  0.8915240324304932  0.1747039857941334  0.8637239599477091
  0.0371785800796065  0.7279194026464971  0.1323142658736979
  0.2893705874154541  0.4319838226565992  0.7491249742135214
  0.6757636323626317  0.5785570063967835  0.5241745882300615
  0.5121747033849982  0.1381494114676439  0.9793790432721990
  0.1939518765823085  0.7728558910783507  0.7429734626719786
  0.1392757110558645  0.1746670758838678  0.8277951842837273
  0.7534905232778363  0.7289045424111139  0.8460714687715908
  0.5375211438784490  0.7147716382181629  0.5615080837527529
  0.8784808983413438  0.9244360236133164  0.0878460613245644
  0.0582807812028907  0.7967125113306280  0.1128548739596511
  0.5378754155632309  0.4458957123501694  0.5227429296420572
  0.4066618873541891  0.9121460544572532  0.5718839074967158
  0.8782528201549399  0.9170667957734788  0.8877129965842109
  0.5007716548889867  0.2276318046438127  0.1392574960877166
  0.5942964370413287  0.8303631868306908  0.7493703146523695
  0.6622364783780146  0.3012139095355607  0.0788718046340048
  0.9411855738062729  0.3527081467246725  0.0399282941707538
  0.0782805992901691  0.4508774740771340  0.8782902771872889
  0.0225538516149069  0.0534751895838589  0.5314805451673977
  0.9040811426760326  0.0342963362612517  0.4430775938532990
  0.4718438633432874  0.5692782157025624  0.6609681288935891
  0.9280756281273203  0.3109771199891629  0.7929245904444228
  0.2342330297682274  0.6049744390626323  0.1019767495309451
  0.9607853216362668  0.3383266630528096  0.1195851407125776
  0.3177930322227302  0.6794758002963848  0.1579406760330363
  0.1074961995431384  0.1703663459791474  0.7076847834415108
  0.7766485133032273  0.4418129718958696  0.4064036903718122
  0.0942767863742112  0.8017931736253668  0.1444541709628014
  0.8660161803406776  0.5268547690573205  0.0257038106077338
  0.3778214845183442  0.3973280244393802  0.3000827885688153
  0.0763203527936142  0.8849330797227397  0.3073540670526687
  0.4292579593286229  0.0471885088835983  0.4469597729708750
  0.7923846213475082  0.5287329971578204  0.0353742304381190
  0.2709126813083130  0.8763158708385110  0.2599460298771117
  0.1606875968626190  0.0881827913815527  0.2025937317296885
  0.8901010575015806  0.7184546559227349  0.9685323849707457
  0.2660332578147832  0.3435852574462981  0.1434482326772082
  0.7662120912724950  0.1242547492411747  0.0578901426437290
  0.8865647630377319  0.0825733813952636  0.3346029444509206
  0.1301773436827266  0.7262699030003336  0.1054829237489786
  0.8296088179680633  0.9206043952063696  0.9655122031051006
  0.6919492700932723  0.2819598426291324  0.5880821281459342
  0.4870780317119278  0.1895512535567512  0.6761354190825813
  0.3808366237520249  0.8587716532768629  0.9085030380742072
  0.2926134730404860  0.2386670673072667  0.7261183995676732
  0.9916056662979461  0.3610047849381313  0.4776496672120528
  0.6131395233524980  0.6615317727351377  0.9134936370811800
  0.8835232943016711  0.0943276051248674  0.4447294898803637
  0.6549198499321658  0.1648497525831477  0.1143190574258891
  0.8561471626971298  0.2545404690291341  0.8338630078029058
  0.1188193114052015  0.2732987844367720  0.3051275736613909
  0.4500451706055307  0.1644486351334556  0.0544688715166188
  0.9278558274845959  0.2375429505249526  0.9643649102405416
  0.3391397792910910  0.7337741762091785  0.3156550454968385
  0.9212847053679937  0.8222312206325219  0.7259661983524507
  0.3641154697335987  0.6466629256475859  0.9577895175330161
  0.2124021221957816  0.7005249644074352  0.7518587562231341
  0.4755603499972841  0.1611476488954153  0.0660472916810199
  0.2937384383396862  0.3756594702886356  0.7727396422748721
  0.3398242598414486  0.2732333542397589  0.2575707041148269
  0.9470830637250652  0.7194704882134755  0.0846767110051194
  0.5865257668865996  0.7341440453734176  0.8827967185693445
  0.3622858692596594  0.9999592677023522  0.9476052088751711
  0.3638177786451908  0.7212546768632020  0.4368282014549278
  0.6514349480074983  0.5098598443760954  0.5104616968285461
  0.1669216447703102  0.9494619385135717  0.2119267709304184
  0.1230549632504378  0.8250636050839424  0.6570982928524695
  0.6466977997572639  0.9248321189795056  0.5219569808918780
  0.8534683223017658  0.5174123886590550  0.8479344917286121
  0.9102095345990201  0.0588264281064778  0.6016660054396471
  0.6616937824281214  0.5108141423742292  0.5370862398157439
  0.2092073122081412  0.3200400705354027  0.8625743223194783
  0.1350034308497367  0.2857571738270428  0.1852388103025945
  0.2047918208280566  0.1022430322223407  0.6353409020751086
  0.8985240041748493  0.7487940767178806  0.3064646641227801
  0.7917203339489348  0.3059869007110343  0.4650894636356129
  0.0756990067742698  0.7244953272525948  0.0914515020144712
  0.9955883659873055  0.1410350076255844  0.1572315186939194
  0.1143230976177964  0.4625429839430231  0.6945190095756046
  0.5786991769477425  0.0810178222097624  0.5159561234223486
  0.1229621529993533  0.5213745778018156  0.8738061751904028
  0.2253382733161791  0.5842633911785086  0.5420308153203917
  0.7175770429131495  0.1946174140073779  0.4860001442185535
  0.2146133598123853  0.0163772083235797  0.2851264689922015
  0.3712026391123531  0.6477146681628863  0.5846184552745395
  0.2949212319828698  0.5952042931172400  0.6122100689831613
  0.8378125933204745  0.5947303686931509  0.1132396039853453
  0.4723622280938020  0.0002820720632745  0.3062891535517752
  0.7147177141033465  0.2941519930840032  0.8142975061139860
  0.0263127587424358  0.3394436471458422  0.5374857113906828
  0.8912256129121072  0.2378597921221791  0.2905656613709994
  0.9319385105287102  0.5303426154614278  0.1395482608115070
  0.6271683069620551  0.9312529659636678  0.3719926902528745
  0.8244828408739884  0.3215379533315095  0.8861515342842273
  0.2408340569151585  0.0319615708381714  0.8725799219081818
  0.8288654785935805  0.5282545057757602  0.0693212876006896
  0.6201209271706388  0.4680535270384237  0.2228540189596750
  0.9299476937337284  0.8153386724092179  0.2477368514508247
  0.0084063284650039  0.9781222165219536  0.9857287594905744
  0.7081478691518039  0.9328172567896360  0.4270170789700404
  0.7147744052920381  0.1197861243462557  0.0366762508504514
  0.1753081778057104  0.7234056432645409  0.4974263980385765
  0.1861130486613715  0.3973810450165712  0.8264232249820614
  0.8943097452120953  0.9869820000296979  0.5707149285743010
  0.5591808148787270  0.5890420451404573  0.3945287229356733
  0.1697905825110053  0.5935839045461796  0.5389473629129696
  0.8345279087710560  0.1185980161452052  0.2189572602218327
  0.9050086935016348  0.0445127564618300  0.9085778660964068
  0.7309032266351430  0.7290424169068543  0.9416191113923444
  0.1633220601302821  0.7972406702750217  0.5926044477865974
  0.4404305038655296  0.3135920568956270  0.3693495844629963
  0.6943598732736219  0.2113041663683408  0.6029925925622301
  0.8571912377688935  0.8334393838885071  0.3952694638406337
  0.9656578612485648  0.6398877145936580  0.7850797186361851
  0.6682132979696928  0.9145481699808717  0.1292960459940653
  0.9815074010306353  0.7106844985879396  0.8346432730062706
  0.9470252112604649  0.2374918099811759  0.4061980566018763
  0.8037952475899894  0.3241727405274485  0.9047001540542360
  0.2888686870768902  0.2412400229231416  0.8554946310683174
  0.4256391655293278  0.1215559927629939  0.8686020443676564
  0.4059849434710763  0.8225070870415806  0.1282380459386745
  0.2522716718068669  0.2376137839245074  0.6832706631961177
  0.5293670621441545  0.6832510203015572  0.1909456768940097
  0.0365931198280352  0.7924923719081847  0.0724132324615605
  0.1463235045821034  0.3268005084559087  0.9176168238349902
  0.8357677562971940  0.8645217195739615  0.6089012026199576
  0.3687580890306461  0.4210398579182713  0.8094709002790257
  0.1614421193316390  0.4236801846064636  0.5178633922702619
  0.2534368777527194  0.9194850119447935  0.9807337715669853
  0.0260149257221053  0.5332508470038442  0.1819698652443622
  0.5447757758505944  0.9684191756422826  0.7259861548965898
  0.0554334608613330  0.5797115082513714  0.8088290943725102
  0.4571690637046433  0.7121624112925691  0.5876994747391431
  0.0392100127259980  0.5288082487512206  0.6327116183664644
  0.1182251059730067  0.0131758529896280  0.3059118429996411
  0.1936271261083692  0.3282824691333096  0.9087677699090272
  0.7331260703866403  0.3879335425322606  0.8768737934287906
  0.7106669884955947  0.6141923620270441  0.2077412294955133
  0.1538747396148182  0.8508448521982542  0.0456984194799240
  0.7853428870029172  0.1403927380349576  0.6693035012130867
  0.9014331678890426  0.8363319035792225  0.7982010762651203
  0.1053924986146212  0.5275762024783871  0.9707840775572438
  0.2369413676554098  0.7301404067158661  0.1380399893752123
  0.9570141508899489  0.8414188927367178  0.8489989863785592
  0.1557273902275747  0.6078885313430847  0.9178018898189751
  0.2852127289219731  0.4007601027804748  0.5369811122363201
  0.4313644716155089  0.0932209054260775  0.1045642218947729
  0.2175408027583575  0.6505490297094101  0.4338758634222553
  0.9679760655938564  0.0793457884947756  0.2419574679324800
  0.0249932181208958  0.1556612210540388  0.7200007448102924
  0.2244999602422645  0.5222889335035458  0.5652622648267842
  0.4483627627366374  0.7714257843676691  0.6731176861923268
  0.5552994390224135  0.9055724213067047  0.0719803059187982
  0.4126110433180060  0.6246378261100355  0.0905202111842343
  0.0430059676253527  0.9101652145299628  0.8309529095855395
  0.0860265971129820  0.5330949689627424  0.6175963939554129
  0.3004390563196135  0.7254481248158783  0.3794965933418179
  0.3456909456553874  0.1706717559105261  0.7751876777557660
  0.6595015614395030  0.6614844158709851  0.9294432386305529
  0.0947943283498982  0.9960145711001334  0.1139752050480929
  0.6484242713831597  0.8138915290468517  0.8129871038729523
  0.0755558849604254  0.4124120191311502  0.0850604291751060
  0.5815805592342455  0.5846742138089851  0.7644429685763149
  0.8761626661381366  0.9333298615566622  0.6737975714616848
  0.0497933952417505  0.5242068758019026  0.9602277611204914
  0.9705319131394867  0.8415352490098530  0.4394029122921670
  0.8815698033416299  0.9257359814685302  0.1372852919158195
  0.8325344799147113  0.5251373508209167  0.2957250573094043
  0.2537912099921912  0.0024772497351403  0.3464703184600920
  0.5499209186670884  0.3903101488368437  0.8589397702863480
  0.1990297791825995  0.4012442793452061  0.9674526393365751
  0.2071725070129845  0.6308904793865160  0.8063101107518681
  0.6163152487091261  0.2393438495202493  0.0381977683978268
  0.4714530799664582  0.1990972892621490  0.3082751142717676
  0.4376308286578920  0.5778164855128406  0.5343657227554842
  0.3933262610592959  0.5513957337996321  0.0472583751189431
  0.3401037882817855  0.4826038415231239  0.1610587347473666
  0.0058009386645456  0.2281689544451203  0.9310749596696836
  0.4107411355528048  0.1280097911622775  0.9429135311630518
  0.0212855246713255  0.3477736126503481  0.0623940424622902
  0.5360551921273918  0.0843973325073418  0.3639424532202837
  0.4386174871954374  0.6509381339219694  0.8950368138068822
  0.1640693319869587  0.4051736650974386  0.2725571969921595
  0.4715235355355129  0.2608031437935784  0.3319380463873964
  0.9629707353654459  0.1339173272960667  0.6917738404316480
  0.4366000621046975  0.9798133282278177  0.2191570020215166
  0.9739155432561112  0.5031764335540224  0.3955188785568702
  0.2749176157578819  0.2184744439228166  0.2279708343906163
  0.0182905337867001  0.0516362671477970  0.7801334276463211
  0.0961632240809140  0.3484056094672050  0.0637233719563332
  0.1319449256389185  0.5169117965884850  0.3248997472292911
  0.4670313588018951  0.7777279988788811  0.9356960940645007
  0.8011526276108965  0.0573071680365471  0.2827983310977916
  0.7693773908194267  0.8523192756006948  0.1682972398481186
  0.9339077323065621  0.1963068721773444  0.6835117089097107
  0.6218928375429510  0.7458776121116998  0.7699499226211532
  0.7721014424658799  0.5956318775937195  0.6005515472827779
  0.1084621597617536  0.1058889664224423  0.8881191397132207
  0.9008638639668521  0.6740347243782990  0.5703601057086285
  0.1437458690615562  0.8098275258584896  0.2015871507383607
  0.8045270934472126  0.9512230080559078  0.2898638295144885
  0.7776606684727283  0.7798454444632541  0.0211856923025932
  0.0371036242472126  0.0498152303356193  0.4840508740398442
  0.5401909359251512  0.2267759273097677  0.8269276497822023
  0.6539994728624005  0.9795128994627841  0.1549580476618685
  0.8711199598855276  0.0226258499798317  0.4082772327002118
  0.9892291430821357  0.1892854925034114  0.6759011711795647
  0.0428432373531688  0.3012629897034352  0.9874324287011387
  0.0104439829546864  0.5883919097706108  0.9242094916389687
  0.4375621029658314  0.3150679001698141  0.0060620841790131
  0.1164871723091479  0.0634251452278278  0.0713949817618051
  0.5028050830226480  0.1983901814361206  0.6548230985193234
  0.8510933661919763  0.4553315309156920  0.9107400728816499
  0.0039122607660249  0.9855238321010549  0.8971265593783840
  0.8746996817318763  0.6645760367622807  0.3035428581196274
  0.4830041372426905  0.4192112176798464  0.1317904103977832
  0.8929533147273374  0.7255017499290046  0.7195985236492360
  0.4690148465673076  0.1956501060996829  0.9192245080403788
  0.2607325801668314  0.7869940928863630  0.0249495963299831
  0.6387009991916329  0.0257080921935641  0.8600862675345159
  0.4808233733103729  0.4379818818764453  0.5722254614048924
  0.9855721820244769  0.8419114488772785  0.8501094864941877
  0.6019297323148156  0.0134098158924254  0.9745697325744067
  0.9943386924910694  0.7650520073171106  0.6216666591927459
  0.4822787164010144  0.7859480548059845  0.2569935074698598
  0.8693169288741570  0.7719554442378879  0.8441512015158360
  0.2861577449463731  0.5561035062860882  0.9066723848802842
  0.1652797604299089  0.2843027819226285  0.1158414008511356
  0.6834276521933298  0.3925893439063978  0.0253242386613031
  0.1328932000023282  0.7154993865887049  0.9308458882833883
  0.8216442134192157  0.0220367014564096  0.4153470739398802
  0.0879938585721291  0.4561791966999658  0.9265850679101927
  0.5070018256759019  0.5300456420250856  0.3383770840731626
  0.8522431117624819  0.1166977124320368  0.9608755872578357
  0.6469549321695273  0.2261165859060198  0.1242860163113188
  0.1614140893077138  0.5388253591958858  0.6847371144696813
  0.9387795006705549  0.7849057386814786  0.0496955194731927
  0.6409553511974088  0.6638358017789904  0.9083882208090118
  0.4751757879286385  0.7567672192142659  0.2182489952957610
  0.1340883890266928  0.1120777554684381  0.8987388469360408
  0.7717930658198080  0.7794791703189702  0.4813113223083419
  0.9663764108061931  0.4476501612961741  0.7482153321654103
  0.0264281554582011  0.0239306159550623  0.3294633547512912
  0.3412970285080611  0.2412417047582298  0.7339958074769450
  0.2997744113428990  0.8855272570323738  0.2183658647301870
  0.3236841865796115  0.7074392708493065  0.9835455119585028
  0.6518455368037087  0.8759995756850825  0.6759591409521863
  0.0333390566958533  0.1400957397387037  0.0627399293734877
  0.0100989500429425  0.3675782700796221  0.8111522421288495
  0.1047523410363533  0.5208496236572662  0.8954202768585652
  0.6990727152309157  0.5286517929012124  0.9931330141316138
  0.3021317721561995  0.7026185729621688  0.9021286196703470
  0.7023323192483829  0.7894802144122721  0.9772806140588259
  0.4814810973682160  0.2664678610935519  0.6978005804847840
  0.4289690571252502  0.0338655462098061  0.8152813889913432
  0.1178381212263244  0.2968392440139372  0.4254972011539779
  0.4730895957200892  0.2636668968730619  0.5060578739283785
  0.1951420913734992  0.3343151993511198  0.5217391503427062
  0.0878583383113164  0.6093690751754596  0.2166942867167806
  0.4977836533971053  0.3104258277018641  0.7941456251244207
  0.6874440430358612  0.6567033313228419  0.3841742225126222
  0.0602912029441932  0.7215106691337525  0.0366126267904594
  0.8067878838466683  0.9859524044316872  0.1188961912281676
  0.8759431649835939  0.7045486327531478  0.3764075936644444
  0.4314216317003543  0.0658345301586288  0.2892248673854518
  0.4561562996638499  0.6220608043859239  0.1144235795753086
  0.5370837955927125  0.7963337755284686  0.3413331075933499
  0.6526782347846971  0.0282672778125424  0.8159769380836568
  0.8722726441729096  0.1368361074767734  0.7575215007752769
  0.8111143713446427  0.8913396966849013  0.2848915637537283
  0.1679078083720530  0.9037956293083121  0.8624211130562842
  0.6086832972577810  0.6586922983406857  0.7166003384725316
  0.4580860541933550  0.8994836261480079  0.0743809775743383
  0.4847200345596590  0.8479060809410998  0.9793227509074348
  0.9534516387928241  0.6432137673758193  0.8596973834693871
  0.0052498069970728  0.0485493722359268  0.0620078512680550
  0.3592261062925632  0.3870738093604595  0.0142130933824872
  0.1983724350091852  0.3056993076065930  0.6763129056680993
  0.7745646240099208  0.4028343749740971  0.1707948045536376
  0.3722464056861484  0.7039266844386508  0.8705233116550968
  0.9875477095881234  0.0529313664641136  0.5982991352346061
  0.4195381047090959  0.7799041099027416  0.9477736951755185
  0.3606840800270660  0.2593611345619958  0.3853260886683768
  0.3552451334070904  0.1769912431625761  0.5549128447250217
  0.1405631999834303  0.5261058992170879  0.5526471356623527
  0.8961680892667800  0.9786586828849204  0.0368650075325371
  0.8047514957075033  0.9239640031236734  0.0188404352685755
  0.3151350709881793  0.2220783478152927  0.1889531768886662
  0.1403195257856500  0.5274759656743285  0.2776108541093287
  0.7275032787383111  0.8790620758093014  0.8720330929588704
  0.3808532356568022  0.1899325377673039  0.4638744752393735
  0.6308493346215669  0.8998582009647064  0.7990687330150077
  0.0820462804674757  0.6495553156058339  0.8815569197677585
  0.5384016830008345  0.7490556609229460  0.2259922626822970
  0.4250770961289093  0.6955643043910293  0.0889412777896038
  0.1035040704812610  0.9520237227875266  0.3807074533507379
  0.2159524076121623  0.0540075159888484  0.4947814485029052
  0.3827029082445340  0.1334733934713585  0.9037436788589079
  0.2502949969274242  0.7216035716734218  0.4997066446360099
  0.7720444483150170  0.2757979400710299  0.7607879048712363
  0.3360228981406921  0.8987643867064594  0.0994274821852438
  0.9924451920360602  0.5238244477221160  0.6477568906613105
  0.7675662104003679  0.4811529032071706  0.2577010188650421
  0.1729332332331934  0.7406430539549447  0.2680978452784746
  0.8897861334394311  0.6841551268436686  0.5239304342015499
  0.6158135614402154  0.8419303727143677  0.0967115464324657
  0.2874558884429550  0.6668305799819290  0.5947725605705931
  0.9543793710959836  0.9725310470462453  0.4550806936057739
  0.5567558231315608  0.9662469006008483  0.8290146417594436
  0.3826055050708577  0.1637103635810116  0.1058134338202615
  0.5701874029037296  0.6001145490475126  0.2485655951441194
  0.8555795654624032  0.7181805368734701  0.0035568009523827
  0.8733465432705911  0.3266190266231674  0.5857247388237020
  0.9672987081376280  0.9623533979754761  0.3606433907749279
  0.3606557243103389  0.6980854586065942  0.6943139169049776
  0.7502669738616090  0.8715519546297711  0.8578939375503418
  0.4319907714006406  0.2738003356412724  0.5789764729032845
  0.0583962991347512  0.5879750641591928  0.8936342623535510
  0.2760670305577079  0.0919426572550423  0.8830073504936371
  0.2325761642821459  0.6070872581731731  0.0138314538154345
  0.4549848877194229  0.6230313111998895  0.0643807018016126
  0.3672727556297485  0.1035505011010060  0.9989089706876692
  0.9780538314977713  0.9669850300166859  0.7735488542871889
  0.4662235986416906  0.0222208661088063  0.1807950063761244
  0.1972145906391763  0.7991428082992752  0.1376171603467747
  0.5033959746063507  0.7791612897195185  0.6104607730764317
  0.6211115634464959  0.4391004166013721  0.6236560047895259
  0.6041352113330345  0.2859703079020963  0.6309861087845375
  0.0582183332266613  0.2320905996018974  0.9099949651048601
  0.5675151987473892  0.4366594253495655  0.6766534795853053
  0.4184262925476347  0.5219462578069178  0.8691568735704527
  0.7899845468777459  0.0712960233141571  0.6588203514232487
  0.8668185489742367  0.8931257328900252  0.2827146190265692
  0.8643793797103811  0.6481445776094695  0.9300264374697051
  0.7778382056382774  0.2814569595140934  0.7335025152940658
  0.1482713804889018  0.4499967299607788  0.8380998755133628
  0.3058772255236843  0.9844626777555524  0.0146892053416590
  0.2071790745459637  0.7068686571831089  0.9274273330739943
  0.9094406108074503  0.0381321721682703  0.4709631487390614
  0.8237920188943535  0.0502183762212270  0.5431407583041393
  0.8981529972198656  0.8817535780033133  0.6877404781671788
  0.0721824580643207  0.8373216575399602  0.8518967695764703
  0.8542694500665031  0.2266632279634661  0.4327466272420398
  0.1662569252758633  0.0510160816967021  0.5984070504775063
  0.0572049944089476  0.9186814342435199  0.9992934037099648
  0.3507447651206549  0.7412558227567448  0.2609398810061809
  0.8941712680688666  0.5294434176686655  0.1072966016555470
  0.6804951897461774  0.7219091569635683  0.5916005742958854
  0.0757511984816363  0.6097448462858076  0.6328326181922813
  0.6517417382326375  0.4403416985321840  0.5740254783575766
  0.5303040367439663  0.9099558368634619  0.0284374988267996
  0.7508151071538117  0.5978223793668452  0.9628242942924495
  0.8801127864832076  0.8589818181227448  0.5874850851807614
  0.7777106170964967  0.0176320941585558  0.3242228039369159
  0.8439012219264788  0.6950041863621040  0.5137630880050016
  0.4153550532753692  0.9084435923278186  0.6265467035946342
  0.4123341746016598  0.1747639919385610  0.7388971671834592
  0.1207392718210761  0.2363801351926109  0.7060120290381254
  0.1894030004083419  0.0837229386833540  0.3475431781045396
  0.3752310773340642  0.3094214269456022  0.4329497459022252
  0.0523832423015435  0.3937616350708363  0.3266506163321594
  0.5502054877422180  0.0821193213602422  0.2618307308757028
  0.6537933459341214  0.8531647953828405  0.5310826688333843
  0.4051979484162455  0.0201505765407639  0.2391009786281203
  0.4297789496220708  0.2099446538040660  0.2457522775483201
  0.4834558372412602  0.8985593477126173  0.0868865772162648
  0.4456915054177433  0.7878029107810909  0.4495218321046446
  0.4349311954306326  0.7031172169274706  0.8008723853534186
  0.7600440651520568  0.9449566647695696  0.3084297945234533
  0.7673520466876885  0.7791436421826896  0.1079332504848348
  0.8193788918823475  0.2288510524573050  0.3996001241020299
  0.7421381692417510  0.3277982370532116  0.9857195327453226
  0.0641621083447442  0.9785118269551019  0.5887266956629963
  0.7012294850360848  0.0100412626931748  0.3200241558743075
  0.7033805604737559  0.9479387168029133  0.7623592372234275
  0.8113185716801734  0.6569769055682977  0.0686024770499028
  0.6700285975023043  0.0913374681008799  0.8569506130722905
  0.6583944348507829  0.9253220613064940  0.5486318280781555
  0.4948654816050431  0.6178524402171790  0.1462895900391923
  0.7005629566261993  0.1065617677214682  0.7345818440813615
  0.2568223894031498  0.3917566596071644  0.0355116233685154
  0.0119646393056185  0.1593707974737794  0.8227587762100814
  0.6687216670026308  0.9984092759874070  0.5958946442195742
  0.5584447998625119  0.2095046142414577  0.2549930953901780
  0.4403001245223384  0.7746766458018352  0.8243409626135939
  0.2977538348725536  0.9617532126973579  0.6794877577650724
  0.6879496669437347  0.4513862618555098  0.8133093305154452
  0.2107844989683740  0.5374430341608272  0.1149055405374390
  0.3765236384013009  0.5451878293559803  0.0691094309882948
  0.5806818696527127  0.2266135306373541  0.9726232340266018
  0.2822781410079197  0.1829303994149782  0.0035860129200368
  0.4235746000676637  0.4366562962836369  0.6587810495767824
  0.9142235200197687  0.5792747772364577  0.9022650728916104
  0.8869575777665766  0.5994647658562566  0.1105259372423356
  0.7409364016413627  0.2115737480282179  0.7178038535593519
  0.4550287720568137  0.2485823503724810  0.7759205526800329
  0.0105506894217263  0.1151267067582084  0.6866525258601570
  0.5556222830012342  0.5677942392577852  0.1556590800942523
  0.2848621937161377  0.6725216823365936  0.2500828516346412
  0.5460066504774744  0.7999558031807619  0.2925672257918019
  0.5622198527623058  0.0924812090266591  0.9741319411480436
  0.6231046059982930  0.5976520991136900  0.3013020496455232
  0.0858203314126436  0.3608852972052931  0.4591656767443077
  0.8652039335892076  0.5806367264372159  0.3003190665962759
  0.0457886363764826  0.0373202277131035  0.4098681007415241
  0.7724895601075259  0.4614800577392671  0.9725556527269976
  0.4118834595366531  0.9705334748340767  0.8116605187544410
  0.8882154485121135  0.4907455075234483  0.5296266146828367
  0.1708227501368222  0.8495256431360902  0.0223362554110492
  0.6643646409050291  0.0440170090580629  0.0866929211805482
  0.6615185433183096  0.2439888466052800  0.0804336447014687
  0.1317066511766918  0.0899068809455492  0.4323853171968757
  0.1092344960812363  0.8303398416904425  0.6805269490080804
  0.3008576663665641  0.1016546812983785  0.5434863985141334
  0.8542270580838622  0.2491006475458671  0.9646878342999216
  0.1478059260428319  0.4732635107607902  0.0431303890146705
  0.0330464731526959  0.6455988611563674  0.8899796916500649
  0.6920408807633407  0.4383671116239398  0.5509766799289944
  0.5443597699475878  0.6785659814210920  0.2141967987672007
  0.3414061869056502  0.9671995813864182  0.7915575170691086
  0.5885453744014731  0.0816517415242170  0.6013724370198082
  0.5413585614687859  0.3045551666577853  0.7222074700401535
  0.8184402087814154  0.4619159018095607  0.9914191081237547
  0.0635344409937905  0.2993394162126775  0.4133558344955192
  0.1839513604635778  0.7343042276153479  0.5714646497237167
  0.2327787758157908  0.0010299833892953  0.3659614270103306
  0.1123215264725654  0.9491962829134784  0.2626094208788572
  0.8975214762994980  0.4494761876420342  0.9334279260060837
  0.1247759902224142  0.5323454352470282  0.0246452784713560
  0.8148761184007942  0.7570265368993090  0.3277919330554629
  0.8426219171133507  0.6024339772119283  0.1402017829209092
  0.4205373199136901  0.6501503606729460  0.8730916695856358
  0.3977210333371476  0.6823993010393381  0.1837485907408717
  0.0466855602792688  0.9156734084127096  0.5605884173389273
  0.6567123715678578  0.8011310822674883  0.2392324196665265
  0.0592309381027141  0.7903997915967785  0.9905401183494541
  0.3843945841737515  0.6246219638254379  0.0860281263692854
  0.1552488997373514  0.9187646050150990  0.9911207018752803
  0.2594467497587802  0.3774243050507968  0.8935741341959085
  0.7202163552608728  0.5171060883001697  0.6219633018582876
  0.2457075254823509  0.9623768016335064  0.7037191467697945
  0.0510975171496110  0.4701347247289788  0.6332773757712280
  0.2391729287667191  0.4776226533726939  0.1352189699321764
  0.6274915915921601  0.0817157403864938  0.2962115256287775
  0.5103482125569410  0.4412840133242675  0.7988731316270721
  0.4885000683195405  0.5711997298144640  0.0184464251292052
  0.2735271918334781  0.7237507479145658  0.3880814505200550
  0.5511347541333806  0.5739180254079597  0.1082403682317745
  0.0501121267034616  0.8184153650981807  0.2850596772967741
  0.9708416650152976  0.7291883315076177  0.1671935132938011
  0.5869110146848313  0.6450490418540795  0.5733243218731661
  0.0526669526124208  0.7207105807340415  0.0091318782178032
  0.4936406399149915  0.0357990060401755  0.0647039749702502
  0.4335725183000258  0.7945193125236141  0.2713873583230649
  0.3842627692970766  0.1718505569710384  0.7444833461833994
  0.3904125296596088  0.4839785509156987  0.1549548680020040
  0.7009636906614560  0.5477942708450436  0.2247702560276146
  0.9587895833674897  0.1531986971794804  0.3341610707308830
  0.6076494494047812  0.5797663884442618  0.4959374270134070
  0.5668571212727690  0.5131319686328112  0.4965940730694857
  0.8464378277338340  0.3650456784333903  0.5042100217927202
  0.6664285528767196  0.8554188859319648  0.4583726836827560
  0.4413486642429935  0.4147009499365696  0.0587007086067608
  0.4588862471731368  0.7130305920902364  0.8983105548086554
  0.9068194937864951  0.1659402418492396  0.2629717089109204
  0.3303962124778268  0.2467812445906103  0.0009105911663600
  0.6454893743627910  0.9863241023025029  0.0244459216538099
  0.8661602196277141  0.2588992956144487  0.2133221858850873
  0.1673290834613256  0.1501834326587472  0.1476744553610029
  0.1433512442724349  0.3357614149002176  0.3422394890171074
  0.5393454671096790  0.4539521909844194  0.4748567650927694
  0.0692398428852351  0.1662291207805834  0.7385166120395434
  0.3940561980743342  0.5352137397759711  0.3199973193526599
  0.2858974353975319  0.1624339266348429  0.1199256675341030
  0.3737619234490941  0.7547747939622406  0.1534155629170894
  0.2314470674529008  0.9469374741620451  0.1774212377561170
  0.3734823105895798  0.5181472702573813  0.8849902329597836
  0.7234561725610580  0.6026479100335477  0.7666292783296601
  0.1349967457721074  0.7214917109035576  0.0316295486630653
  0.4479931723332614  0.9788224815253961  0.0259308282215413
  0.4964599828310074  0.5065947077125188  0.6590274080839598
  0.5701421184269746  0.5291014195721297  0.9947669115924090
  0.6190807026784568  0.8671804264829482  0.3385958705644466
  0.4934748407650485  0.8244737618882617  0.1732502362608621
  0.5051633528539863  0.7111257159545847  0.5981244483369935
  0.6516601622018749  0.7839850885254075  0.5125876800211688
  0.1306248557658500  0.2339943100896355  0.7796340651308252
  0.5413694897343727  0.1512930825618899  0.0156657347996532
  0.0986953142110269  0.2467546131905126  0.6626692549374018
  0.3947697688648867  0.8534592938852462  0.4387599620608170
  0.1737323378502552  0.9873972512305005  0.4530640485468265
  0.5465938120062119  0.0339559087566959  0.0996688267058996
  0.2164996301968250  0.5146008158184047  0.3392680662114044
  0.2087762519959423  0.4057300747776673  0.2006243967869784
  0.3665665746563838  0.1682446380514712  0.7225459236496974
  0.6144393040767373  0.3824749367716278  0.0535372179494378
  0.2917127160236854  0.6414169869873739  0.7945710333928971
  0.4215315517127360  0.4807582590773242  0.1942654526209084
  0.4930846682983801  0.1582996548031909  0.0198973111801318
  0.4661707011981139  0.6473455815169117  0.5440871710563943
  0.9420983770350998  0.3212108101455313  0.6119248835944666
  0.4145397543998659  0.1933696190464476  0.4998737741799422
  0.9127229039015753  0.8452131808859101  0.9211669122700802
  0.4325294226400009  0.7203467644884167  0.4663233824913761
  0.5390267294046318  0.6460054379976375  0.9767461041371127
  0.6706258500363138  0.1750454881338630  0.3994775771330040
  0.1779613026915167  0.3269254393173620  0.5667953534822686
  0.7463301730290703  0.5169844062385964  0.5515131217756473
  0.9768249797352341  0.5847590851768423  0.7167208312682555
  0.0116431889109339  0.7094355896830823  0.7380360316822793
  0.6614734235140601  0.0732033636015002  0.3926550703833405
  0.1588304985889297  0.4020447081702383  0.0296025154994237
  0.2487797737968744  0.7696754696531896  0.7266840066670732
  0.4981008243510042  0.1310008714832697  0.4776155739474521
  0.7136491303490172  0.0446980156975301  0.2555586483796471
  0.0040665408271751  0.6683075336950802  0.1968861320489133
  0.0405462324810629  0.1460309152647586  0.1210228347623544
  0.3504877834924387  0.1710066371552004  0.0374600851047758
  0.3521551764902801  0.4796884509243413  0.2193061590521089
  0.4677892746323110  0.1863688423824582  0.8453907738573411
  0.2694156605444271  0.7780017466396236  0.4682568686028390
  0.8285306494503671  0.7652457706176556  0.1679551544601765
  0.4953400413148995  0.0971210263791255  0.0257329540161015
  0.2152316559572737  0.3758517385319729  0.6562945499513151
  0.3025477112175902  0.5112223721322047  0.7758928964931359
  0.5993425426117117  0.5069638239656992  0.6513928655852157
  0.1059183440786807  0.0332787251865798  0.8614097403299658
  0.5112850802916371  0.7895366175100017  0.4870696029536414
  0.8680648210915787  0.0561263990604879  0.1671889412050484
  0.6649035639553896  0.5837296750306310  0.1606068783463021
  0.8122782302803349  0.8558316480881673  0.1443074288383837
  0.9944874508751863  0.2283131646904807  0.0163020298702373
  0.8967811438855973  0.7774102790266478  0.0751942486331000
  0.2993672550363292  0.8920505090221214  0.6801419267887594
  0.2061654305225753  0.4235701793200994  0.3947878694231832
  0.2998599932032362  0.9763681218986343  0.0698304299851752
  0.4975973461927145  0.3808066916923483  0.4800111929378905
  0.4362372534759954  0.5156357729542115  0.5002469904139726
  0.4555413135358103  0.5223282132881326  0.9006243114858790
  0.0257271678291594  0.9853777521387866  0.5600905438485665
  0.1494343143465229  0.4598869491876067  0.8115485492748674
  0.0409442036121854  0.2383054830341719  0.3847666801621703
  0.2092997577257775  0.3361995986172193  0.9929813239546275
  0.8400638317289280  0.7326092250524620  0.6693516069457153
  0.2190690086669878  0.6980901001497705  0.7792738352802071
  0.9229963232350884  0.0618429051703767  0.2316882207116457
  0.3902628427927778  0.5683081498675596  0.6049120561853076
  0.6977370004122296  0.4240081387443915  0.2259257014550936
  0.5515254063441116  0.3704456078475597  0.5853214735413867
  0.8727009893141324  0.4013049826630508  0.6991651507747768
  0.0135974058719170  0.0340007132757110  0.3732662997449777
  0.2561387579468824  0.1462585129941608  0.2635197623479269
  0.2893734078866073  0.8993077054658102  0.1344380067107034
  0.4516338508039491  0.4496213212499562  0.4764145859948114
  0.3997332719734427  0.4017855360439924  0.0361778536962039
  0.7700831444730120  0.4227846809485609  0.8371442740932150
  0.2343252480893405  0.2189945204103909  0.1654389200248378
  0.1186802286394451  0.9608654131640576  0.7931302262184302
  0.3545760444540079  0.6487393615459658  0.9088855772489218
  0.0036874933068934  0.9086787987177604  0.6482821718337004
  0.5251846532409886  0.9240142688728985  0.3902532948852103
  0.7361454130011327  0.5135345908238383  0.5249475145235409
  0.9542729965898217  0.1452483757215973  0.2497953034456312
  0.4871096617073444  0.8458947623698413  0.6360103441278059
  0.5066372954071611  0.0117284315731004  0.2405035380977375
  0.8103822580201687  0.9282096606413875  0.1180676060569296
  0.5581620651752036  0.5266713080780051  0.8929721331578093
  0.4889138530802800  0.6421838633989407  0.7630756466961331
  0.5163173818409250  0.4367922739101547  0.6696536846532036
  0.2720731196293911  0.3769731846470755  0.8689977182270757
  0.0086700396929043  0.4005896761279736  0.6424539470884815
  0.4130356047400571  0.7726302786093214  0.8166710422404085
  0.6399223126232568  0.2139939825982655  0.2753660916021269
  0.4969375502781814  0.5735913167983071  0.7614021207252148
  0.3829266441341592  0.2105482981983286  0.2585407288376629
  0.5091005258074388  0.7077693874793854  0.7016031037718825
  0.6503731470257306  0.9730435184481641  0.1819638285801469
  0.2128748418141243  0.9601674253429768  0.7581401175703008
  0.5007114817587159  0.7757136785519321  0.7633467514783686
  0.2377579595625222  0.6512693982044317  0.4139195156821940
  0.6789420141352487  0.5967773063375456  0.9378066038209618
  0.1376241948436824  0.0361894973390946  0.8983942789043069
  0.8488143777964140  0.9390131232211543  0.7169284270242038
  0.2909985155659853  0.6064870220348322  0.2268408486876545
  0.2973574972056148  0.7790364957904138  0.4735805182425533
  0.5971507653780677  0.6463327225614439  0.5469581097163718
  0.4757058333765002  0.9853735359710316  0.9862776366009732
  0.3953624731576752  0.3503862975752360  0.0791711736384346
  0.1387019594644502  0.8566074437191789  0.3785327992773196
  0.3988599105366288  0.4278644287252870  0.5178786372422709
  0.9442524536398572  0.3088861320244462  0.0082266600974376
  0.1741837978444652  0.7754981551683889  0.8262512034995628
  0.9328396513765878  0.3065968676153852  0.8206701268656978
  0.3535978264299360  0.3011066056479617  0.7065758925953082
  0.9605873566508804  0.8373525520663269  0.6136547179627212
  0.2453065586545977  0.3397327567727507  0.0582686416102710
  0.9749785361490358  0.2394462955381699  0.3115496909713622
  0.4988204492749449  0.1200837180319983  0.6937076291579095
  0.3854288845484977  0.5223779821920280  0.3659749204238363
  0.0593148325639237  0.1647266725830773  0.4125191526749564
  0.5962502570943042  0.4286610849174233  0.0839408929014268
  0.5343347263796339  0.6506267121918736  0.7798268427819970
  0.6615240163613040  0.9829640054274073  0.0984164511531186
  0.6387262300838283  0.9104591629567044  0.0818842684194341
  0.2896628669133942  0.8387938987683474  0.8711989462887730
  0.2317827480378657  0.3345746488048197  0.2398496175789183
  0.5568810516347416  0.6412146179966071  0.6526875639218637
  0.5634233205092359  0.9236110770627003  0.4665295814094790
  0.0210486895106257  0.5014000640225191  0.4523344903609158
  0.2009096976548048  0.2154286088500679  0.3328757534529934
  0.1672448286440455  0.4088252563202340  0.1755483317204231
  0.6469403136111396  0.8681681795827144  0.3377470120053632
  0.1359605123166838  0.2000793430889538  0.4867825076847936
  0.2626451114029770  0.3795610869868494  0.9412881790631935
  0.9459102433360458  0.5026670745931731  0.3905479455036669
  0.0393635263490560  0.2164152479101616  0.0776056035930683
  0.6200498124978189  0.9979751416947332  0.4011769075287400
  0.6236326963140419  0.6704333675587445  0.2731950849388646
  0.3770255483853481  0.8675823467291424  0.2433023582402027
  0.9021799109040449  0.3169078391869325  0.7842885452715682
  0.5922849101059603  0.4828578663838676  0.1859618482418335
  0.3439576911826167  0.6325466061958266  0.6641382413614310
  0.0752197168980592  0.2364412905543436  0.9556415837450977
  0.3234494464394855  0.0552352316864540  0.3772899382544598
  0.9043323151313477  0.6903373009719271  0.4695422620354461
  0.2088875355357431  0.9509958003575406  0.1929545657953826
  0.4887951674298227  0.2473742719465139  0.7406156605110146
  0.6048879779638321  0.0350470479017150  0.0244880861160272
  0.7410786969801154  0.8585649850321146  0.0197002414490793
  0.6041599366714843  0.3979931687425225  0.2540804091574366
  0.7943227658412454  0.9572958636192264  0.2646323446938588
  0.9351430102449260  0.8968440192004251  0.6685387395069564
  0.0480500445021781  0.0899434985347600  0.8097908603166359
  0.7981204745218231  0.3403962433149920  0.6479058512928944
  0.5408116112894872  0.8501483392552437  0.5836460577310305
  0.3991406275267941  0.7804753004217392  0.9679415125417652
  0.2092396230246319  0.0575308215400613  0.0289595909201889
  0.4154871145543638  0.2846979200119179  0.1744872331700641
  0.0014097487712396  0.1437916453406874  0.2143791692749989
  0.0341754535223964  0.5324783852850354  0.1332200895643530
  0.0723922996429298  0.8664365887575241  0.5898525449623527
  0.3661126651991832  0.6426070363845159  0.8078756513373831
  0.2959171544913489  0.3346888419804750  0.4070768299364532
  0.1384665402795624  0.0489291950170534  0.5907609344657675
  0.9661457766051907  0.6482477959415546  0.9436618254135494
  0.7566742893429108  0.9976530166226639  0.7201085738781176
  0.7106674611658894  0.7955341703308014  0.6726413564707442
  0.5587704717691147  0.6602330082985824  0.8490782914965218
  0.8618165520949751  0.9708575306073624  0.8137110165894073
  0.6793538050752052  0.2122398222713247  0.1558968894327569
  0.0432520834284555  0.4806329761008523  0.5855763734013578
  0.4648628600244671  0.1314024937581700  0.3520591328140734
  0.0758265868761692  0.4491044106612332  0.2259220700775098
  0.6959357475464708  0.0327776198172928  0.7747390162455094
  0.9840480482190724  0.2146015828503773  0.2705033062641194
  0.3209060215129663  0.9701923695130895  0.5118812568368188
  0.6013086486949281  0.2234253800437492  0.1385736990711698
  0.9966993172649388  0.8462327300968229  0.5389293783752006
  0.3487737740388261  0.0909749348413417  0.8644006747759315
  0.0013644789593832  0.1616170864502829  0.8490709886599237
  0.7917090991800186  0.7784024619094687  0.8719539461625574
  0.8533751760500612  0.7731153053895581  0.9292365086334987
  0.0521252308330140  0.8456356247849537  0.5944014506157241
  0.9090582428184076  0.3284656158691980  0.0996996557388179
  0.7626127516068586  0.6561474265287057  0.8641678898451204
  0.5234961815175554  0.9214556211545881  0.9416433706780246
  0.9453059304889391  0.2465504200057663  0.7508243827680464
  0.7704255858569228  0.3991588370848113  0.1221085835927460
  0.0551208702045103  0.2761557859967314  0.4586118876546273
  0.4143856182230111  0.7330501030789629  0.3169981862501292
  0.3398274382668477  0.8916823323617248  0.5900956849306781
  0.6063759512198995  0.6438279192705179  0.0873229162920015
  0.4303448866871724  0.5563951458076308  0.0777438107777210
  0.1079297345859033  0.7836794550990106  0.3929892533164874
  0.8308886325741933  0.1120676017926798  0.5057524193603885
  0.1002566035621889  0.3168795805654567  0.9280673032510027
  0.6403050829982248  0.6507757448878522  0.6381165731875125
  0.2149487552192930  0.7123769993443431  0.9538119486195041
  0.6410252882132711  0.2200270922464565  0.7211876080669007
  0.7470150590499467  0.3525857013805784  0.8348239941632126
  0.5930542472211093  0.9261806210922734  0.9627679838910417
  0.6769113341126887  0.9184304264731542  0.0063631701717128
  0.9842818025119535  0.8335557023926956  0.6280404543303650
  0.1636280184111802  0.9890022411984751  0.0217523609586743
  0.3224057662541480  0.8920892299059898  0.6637968377586180
  0.3280410560904984  0.1752493146668940  0.0199416819447199
  0.4556025051620397  0.1887229680294078  0.4607454502457171
  0.5453669965208329  0.9777400921616266  0.0390852305848610
  0.7002589319551287  0.1801197702227473  0.1051863369970321
  0.8505156130375275  0.4633314418704036  0.1125137393032354
  0.0776454003367661  0.0388722699439472  0.6482325369945064
  0.4554456710170174  0.9199871840635814  0.2383801982754421
  0.6630249347670104  0.7896814027872416  0.6141526896525863
  0.3691401040965238  0.6667752925432364  0.3041605790946845
  0.7639893542361886  0.9216535619473922  0.0479114942095638
  0.2193222554044366  0.1489993527974080  0.1696300594327037
  0.5676067208206936  0.8537696215353656  0.5338349584434312
  0.5690908366491056  0.2868944049689653  0.3023271222047131
  0.2938194906671687  0.7450046151881572  0.1777607665500283
  0.5769236255676611  0.8672198984864213  0.3143922940641995
  0.8016327143301556  0.4180126812764717  0.6837222506507852
  0.7982367446766808  0.0760011157958398  0.4393934069809748
  0.6737808991593226  0.5127258174274300  0.6389584295207251
  0.1324363998084916  0.0351790791633380  0.8702174783175906
  0.4941127168831317  0.8607600037604344  0.4138914226077070
  0.6799736055938296  0.9829129116332235  0.1449331414494182
  0.5298520049494286  0.6395857295918121  0.0029306705726003
  0.7720967479433487  0.9331730222130088  0.7004458406515400
  0.2721647883389206  0.8464659426645331  0.9995363653159254
  0.2204039945232116  0.9171714142091160  0.4299136998064733
  0.4248330153977927  0.1267567590104421  0.5790150813410069
  0.7993827225660570  0.9294540256058073  0.6589982648759992
  0.1062880985522441  0.1488983016976708  0.3556341078092275
  0.9274802753542692  0.7565142411029780  0.5920975840314235
  0.4297213155225285  0.4585887376935045  0.8698159946548514
  0.5191784565016522  0.5911057506559162  0.3672207715213954
  0.5553825659241478  0.7983195745677364  0.3195928736722227
  0.6461457506056405  0.7398098813370247  0.8491981429893609
  0.3332611130211989  0.0289229909444071  0.6470768330418021
  0.4993172000295774  0.1521995894876902  0.2353517876921595
  0.2627163108825906  0.0152916889570028  0.2735242837461556
  0.2636639183390521  0.0836368322688394  0.2812320309691727
  0.0309134207122427  0.5167704499488847  0.9062794165174093
  0.0862236215550923  0.5096562260970772  0.7658121081493604
  0.3983485065965991  0.5126297262644475  0.4688215798822721
  0.6110236083865347  0.3954078712049099  0.0063447229138718
  0.1845840033128429  0.6069374722492873  0.1008982873041722
  0.0479446028177189  0.3464066827119107  0.0730442328152853
  0.3049863539634045  0.4193773180878366  0.4682593736922318
  0.2391447062147199  0.1442778008640939  0.1248819804847955
  0.8122288244148891  0.7843237377171931  0.7606804505647843
  0.8308328733035327  0.0513208197968690  0.9736988773263826
  0.9172584032718956  0.3186418743876866  0.5987489250371251
  0.2701601486630782  0.6764158072644628  0.1669444094090564
  0.0323846722855912  0.1783460817757127  0.6976802880962117
  0.9196972572232670  0.6111044939710548  0.6196181754496513
  0.0482735015319965  0.4151959895299080  0.1353316831226890
  0.4234606026718251  0.9055196859893448  0.7118590279252900
  0.2850752108659473  0.7980227938597038  0.2979022084559294
  0.8105559286441500  0.3413818161429880  0.6230671143872731
  0.0834789664096848  0.6113023190613269  0.5832592779409915
  0.1152696016079735  0.9620163797165937  0.7187852754368896
  0.9629129330802321  0.9859755998133137  0.1150657055320449
  0.1444776197743143  0.2587613691622912  0.9526427973469389
  0.7089045650571898  0.3333741703587443  0.2055711948069354
  0.0109517905590391  0.6264337957418684  0.5978257855673653
  0.7621915201985705  0.2582859098371859  0.8128406042411879
  0.0543862130778259  0.6307817828317195  0.5050522869565217
  0.3579298303270564  0.0128295242173226  0.2488625023471011
  0.6146576619433926  0.1496496969074856  0.1772949301468945
  0.7543993788652532  0.9826973101904096  0.9840651196044360
  0.7474631155447796  0.0458612136249611  0.8410250643892316
  0.8611918481134327  0.0367348811163183  0.4799621893812236
  0.8712856077584286  0.4599041194715986  0.0595346043671044
  0.7959013025108163  0.7716555673876672  0.4101458850941167
  0.2309814209114188  0.0778549938245275  0.1076196010680158
  0.1343703077733275  0.1173075389288859  0.5143116945657460
  0.3011724224629617  0.1007386177152454  0.5715172044951068
  0.7366527608377604  0.4598269568059499  0.9280863078611725
  0.5585520315342944  0.6389991812035596  0.0721318914832515
  0.7785339299491636  0.7359661092355056  0.7131134063471423
  0.5513322713389759  0.7351568409739195  0.2705638993663533
  0.9840882245753743  0.8471092814788022  0.9463290461959587
  0.9930759195892033  0.4051674623280288  0.2312210195358108
  0.3085468644381480  0.9072849439964856  0.0602225756642083
  0.3407288063175259  0.4552013813187736  0.3610752721943954
  0.7197073520433310  0.3343493790886141  0.1784712960769110
  0.2474935351444258  0.3190095019474695  0.5400428926143868
  0.1746606548742573  0.8953535486164446  0.6464415383636366
  0.7491059854975263  0.8709666952422044  0.6535029604988735
  0.0370621777365090  0.8708943660874795  0.1870279503575422
  0.6601854919254482  0.9949331490554075  0.4647163536173727
  0.6235292146870012  0.1470439044986635  0.5726605272939961
  0.5286618044338857  0.6573861895500539  0.3873481407122696
  0.9618051042635328  0.5801486933900190  0.8993234566415391
  0.7454900228209541  0.9784537943379492  0.1959720529864696
  0.3697323026469950  0.7236082862116023  0.4089286521377813
  0.0602750340256617  0.8185056767564228  0.3295016665864294
  0.2814498266125995  0.6397814061574417  0.8210300601137318
  0.2530749042183922  0.2363083414085376  0.6326348463948959
  0.3868925638050222  0.1364687675034872  0.3174456773826214
  0.1408034906119160  0.4531268292814576  0.6459331254611821
  0.3466561762023035  0.8837795827356884  0.2125863930326957
  0.7121682619749110  0.0006117483524546  0.3750051223739738
  0.9662691511329631  0.0143869441920350  0.2601796745546025
  0.2551449528191445  0.1831702079953136  0.5308714657487102
  0.6961541384561688  0.9309336733227267  0.4011806511343286
  0.9319743580201993  0.0565840679949565  0.1273653333171710
  0.5596732730634562  0.5224364900664095  0.0420487651646766
  0.0546681116373456  0.2515544010502241  0.6799262987141819
  0.4762579281167839  0.1856748163251329  0.4411082508943028
  0.2751918822357838  0.8808546998572958  0.2307560929811444
  0.6570996327256710  0.4208916567034500  0.1314894762135008
  0.5874876422257255  0.5749284258877776  0.6177482925558366
  0.4000214311736853  0.9577391630230753  0.2335520172402715
  0.1327283390836296  0.5319582423229812  0.6013687815933663
  0.9087734172102642  0.5263142621726049  0.6302634145435633
  0.0659187755305179  0.9058723559266565  0.8145551756007898
  0.7491064686604552  0.4314967453885810  0.6364033024703233
  0.8128120140400599  0.5486968386271333  0.1667469330118121
  0.2280864792151904  0.6389408965831653  0.7531108279586736
  0.3234101271430004  0.9300750870628803  0.9292029765089220
  0.9211502783630320  0.4552294890308931  0.7324645124654658
  0.2489194827169219  0.4269851658164983  0.4191230092101989
  0.7512885038172826  0.6045376606902015  0.7185590237792150
  0.3367882268568008  0.4068619943731896  0.2270429452713677
  0.7118848122054666  0.5945981921379918  0.6459767120125459
  0.7561174980208061  0.2065127691867482  0.5858787356870013
  0.0623829721183497  0.9791541689242299  0.9735413853623625
  0.6214269182979021  0.0881446067415413  0.8647778129779154
  0.8273904559400346  0.3029676262066088  0.4310099950632088
  0.8705310686722335  0.5150887701597598  0.3267022672672967
  0.0365469600266764  0.3044158785707451  0.4066464876439087
  0.2544687668218237  0.7706518641052215  0.8013918547184172
  0.5994674853439081  0.2862060279784286  0.1092876992116448
  0.0414469628676704  0.2262773851113297  0.8640929395745583
  0.1250754764649191  0.8324145169849442  0.7047389145516862
  0.0009167016770036  0.8028043054308613  0.1864081200972164
  0.1606991450426211  0.3871451681420154  0.6602028681736518
  0.6479419343764449  0.5776749820385435  0.5226972929255342
  0.7019266853836016  0.7261787194367711  0.3814924461588048
  0.9908960932346625  0.7092029252412888  0.7580453289958189
  0.9398311343643225  0.8468522497122093  0.0186111551582321
  0.6644186322758714  0.8108987565921834  0.7592498741753977
  0.2430071998869170  0.3266248016123396  0.5135001818793309
  0.5898179288187942  0.5398214730335953  0.2048137339333315
  0.7391978861492056  0.0432376711991329  0.7650021987201566
  0.1930981722896726  0.9155973763308091  0.4711322082038619
  0.2657029320252445  0.4055891979998560  0.2015970468434981
  0.2587058320783736  0.6027979950312333  0.0880847274036414
  0.5498279486647237  0.9406018154556811  0.2706593352559342
  0.0352653400849688  0.2865198513708181  0.1095890787006178
  0.1120793777830717  0.1462531917601659  0.0974431565871999
  0.0602726566788766  0.4777127963028818  0.6083895892152951
  0.8496685485858425  0.3296950039089703  0.1832808141961050
  0.1173789978453720  0.0505811461300753  0.5081770072045655
  0.1357811466383101  0.3175946867664476  0.8624659621727019
  0.6108461037722787  0.5147009891513001  0.7528777123560625
  0.8321017582579474  0.2001169197491202  0.7492797306199247
  0.5187539447211217  0.3420566309378871  0.0403327785297713
  0.9891570545306507  0.7762852962865098  0.7528301056372411
  0.6996123767611335  0.2361896631836155  0.3468953820282680
  0.9198343239027630  0.8003656252519901  0.7079544593207565
  0.6086481624965414  0.1579793587730249  0.8315474574816771
  0.5358410041421551  0.8616322629431199  0.2898578533732330
  0.5949546662738702  0.5889503609140818  0.7892432854269362
  0.9189633307626869  0.8309691822157009  0.3378724508495841
  0.6870530915080527  0.3769917972148616  0.8055972544979574
  0.7787707850829660  0.5052261296882388  0.3574835571898826
  0.0777497335033139  0.2098481279398287  0.4452589555540755
  0.1608608900739835  0.3994407099705140  0.6130049218230783
  0.7351116026956730  0.1067308010046287  0.8033913068478438
  0.1871185095961412  0.1425701172916767  0.1031743524063911
  0.5406157954255678  0.4361421357253981  0.6857100030107114
  0.7509937176687262  0.5943365771499649  0.0616377706043158
  0.0297798496603386  0.5173321280180011  0.6795370158388215
  0.1590884064221514  0.1421350203592815  0.4229818188498471
  0.5113173991305253  0.9887036520442894  0.4718660510946701
  0.9125189677522061  0.7743166939588140  0.9838707988181981
  0.6051261607960874  0.3923460363640980  0.8567867060753531
  0.6364976838135622  0.5943294736192737  0.8636114834380423
  0.8747544805615840  0.9488650599664243  0.3194561398809473
  0.4984821630464347  0.9889923490362328  0.4159105026135442
  0.0539319643212921  0.9220101891563848  0.9426094654166212
  0.6170493384559079  0.6721034716700812  0.2248540703064842
  0.0354708939888532  0.7714214908507858  0.6605492198290334
  0.2803859710945334  0.2409768929832699  0.7798354362406502
  0.0797886588256798  0.5801687875753512  0.7936506996232574
  0.9927776615749155  0.6179697548014610  0.2717329203742700
  0.9562812787856750  0.2016877966366017  0.1043211015663483
  0.5505093492242368  0.9696873400266176  0.9123368829950022
  0.5831616957548580  0.9028764349957559  0.8084065419059415
  0.9887161061350487  0.3062318778296687  0.4161092163245413
  0.6374038772259840  0.3963585140037961  0.9547131455102542
  0.1808960908201816  0.9482280975682087  0.1865458942020149
  0.2318671915161753  0.6988888020418109  0.7308044538551236
  0.3265854492393296  0.0363318230944472  0.9908410356995359
  0.2418440311940077  0.8547038679959921  0.5212095063066298
  0.2990722652300107  0.6844345564926889  0.6377840115482205
  0.0877662758105644  0.7385341378581213  0.5473015855291304
  0.4447325685528699  0.7884365640533478  0.3740982880300541
  0.0474119667879570  0.5210286176049823  0.3103980833408329
  0.3557487854597713  0.0437589759894009  0.0281197967765645
  0.3266746330576763  0.8643255700443582  0.3112112113088886
  0.8741590457902869  0.4358572350405239  0.5223289004916387
  0.3457099408620423  0.5410790219954467  0.2627542591353363
  0.6246517778782973  0.9090119244363644  0.1066954936317147
  0.1828155371185874  0.3373021655943819  0.9833167311625772
  0.3924539652345057  0.6496759232954983  0.8775905977035845
  0.1187685086767698  0.7755631717643944  0.7392658983054406
  0.1654344441114266  0.2750626514835638  0.0416608047761086
  0.1188754999326755  0.3161791725105992  0.6492901055733002
  0.1496094811675832  0.8078190256439168  0.6134596977555249
  0.3861984081644196  0.3959159518739715  0.0121898112795803
  0.2085340228158586  0.9883389813808972  0.9808607455299861
  0.3034740239564748  0.6010413074052203  0.0780980029620880
  0.7653713693759236  0.6043611805725049  0.6949700839879643
  0.4369015560604119  0.2048096920018279  0.2731250646842276
  0.4391261381810102  0.4170633491613117  0.1560056014944912
  0.0784041116671207  0.6705802151170799  0.1997454416831151
  0.4174770674018427  0.6400779527437984  0.6012320758590921
  0.3536418422713523  0.1515901558453100  0.2521141925500027
  0.4514955035664434  0.0689232555809816  0.2442045912359257
  0.0095249632967011  0.0393099173026019  0.6804164665495704
  0.2437382535745179  0.7847553999362871  0.5382392302556180
  0.3100666266187501  0.2727642178534199  0.0777201108284005
  0.7202487163911471  0.2580883749666927  0.0033324740450717
  0.7643959826778556  0.1738386179459467  0.4379581069950291
  0.4908803169972309  0.7927726778682676  0.3576710040108266
  0.5815202384499283  0.2954543430543060  0.7511804060725560
  0.5631531337074310  0.8653315802726949  0.2896863128678978
  0.0230100716956161  0.0732670600595821  0.1556475891490038
  0.1396389796585283  0.7190743472013207  0.4316064007336401
  0.2334117642039794  0.4732402574023137  0.0369270106994884
  0.6785544369928286  0.6535330264413263  0.6068289706294191
  0.6678383596098043  0.9292412728530487  0.3990689790163892
  0.7407989814958624  0.6967089342135453  0.2053029037411059
  0.3314296494483982  0.7673872888654079  0.7028639152632957
  0.4032591274867525  0.2411291079668220  0.0599404090084355
  0.2854633436612363  0.0409046489259619  0.0539612333882119
  0.7991482690337266  0.3278973488641372  0.0336162414703819
  0.4318988938355375  0.9888475610441487  0.5729215796535160
  0.8101355499248989  0.5284123358079476  0.0914696122075242
  0.7649113438605776  0.3493019930235651  0.6039303697703300
  0.5714224874617482  0.1673412532689583  0.4353190033359649
  0.7092362412865209  0.9865673841724922  0.1064035609350457
  0.0390714454958391  0.8527074480942802  0.0919881566935189
  0.0236275495201927  0.8977128990740063  0.4032208700864984
  0.5093943160481142  0.2651856124331905  0.6936869391235962
  0.6657325755671983  0.5998235545556470  0.7662827182508410
  0.7651283347143515  0.1337145087646415  0.3610812363112219
  0.5010230605579215  0.7120865247091011  0.8341763263475178
  0.3916600958034554  0.9765270424296160  0.6142183330150360
  0.9254696749240646  0.9762354960388155  0.9885262349010534
  0.6202050861558588  0.8223839046521418  0.7439573756104085
  0.4543687087261347  0.3787042760713330  0.4995551688946755
  0.4837444254636912  0.3127888223075883  0.3884445021033651
  0.5940812944034872  0.9785381639029211  0.0460122304249071
  0.4655268606194411  0.5801616882612327  0.5367447460297129
  0.1927406360222425  0.6664049329804455  0.2955289288506606
  0.3124053711606107  0.2316136543045727  0.0850970964691597
  0.7731685698020955  0.8261872165200573  0.2885286068477507
  0.1505449948109338  0.7919650363275047  0.0822003748279296
  0.3244419659146937  0.6099171564874889  0.1295787699821262
  0.0371121426778831  0.7783755492686307  0.7639087131716842
  0.1407438592063831  0.3326730892894456  0.3137981509905078
  0.8265502593629077  0.3947818003013361  0.0701464852898471
  0.2263380420409621  0.0499618476247771  0.5858251167536371
  0.5798225289019553  0.3747629829310354  0.5355118111730631
  0.8674473137740992  0.0492894309520394  0.0160357748007813
  0.3412946016723255  0.6115188445881563  0.1067074030270953
  0.7959628178766415  0.4746431542074491  0.1219481157829343
  0.5598996555546334  0.7742255651967279  0.6990941044355246
  0.4716614022023147  0.7002477545747011  0.0772240261722733
  0.7015667243915950  0.2647685351113766  0.1753210487675471
  0.0238938801788903  0.1468002595016802  0.1963193708047282
  0.1141480386706958  0.1531999378201054  0.4040727066958520
  0.5367300579006502  0.3726331447709296  0.5598571777370162
  0.8274892675925735  0.6571840188396764  0.0216107300182466
  0.9814995226708966  0.8653551767402883  0.1870790880499646
  0.9133329232668856  0.2483621651767477  0.7876054359371150
  0.1306245604353324  0.5242100417838043  0.5255654699749651
  0.0805718956771724  0.8316040545039406  0.6791720503672155
  0.4397055716862829  0.9070042729539974  0.1999145957400911
  0.4304023921965453  0.5682245315656272  0.6335206299716297
  0.8251576708187615  0.6185586615928585  0.1511121650851160
  0.6259857051086402  0.8525925978462403  0.5802442545554243
  0.0295476619726867  0.6810034368246909  0.5678033713928722
  0.5718143207901927  0.4519561362546597  0.9047853892198093
  0.4422385535417744  0.2189046328963335  0.1984031983530484
  0.7398405271167342  0.3994486091767236  0.0241016043314224
  0.7004524170662866  0.3144273176242029  0.4313009201127204
  0.4099730970432353  0.6409414378334380  0.9739868624029829
  0.7415579616380693  0.1871645264749250  0.4749200436508323
  0.7186521864997506  0.5547842671093801  0.2035129251826367
  0.3870497203733806  0.8925033218538228  0.1219777297472935
  0.1393570253638071  0.0333064029494434  0.6908526068338983
  0.4683682761910403  0.1971913439056222  0.6177172815532249
  0.8728723226332911  0.5939722409558118  0.2511879668101110
  0.7572516091863765  0.7942473411593159  0.6559785820241613
  0.8488367721564891  0.9670272031555408  0.7888872240450679
  0.5230296202745472  0.8393006691556782  0.8569034191922010
  0.1691463982372575  0.2756674302962696  0.2958727533718628
  0.6033453849911697  0.3857868225489634  0.8076100898169560
  0.8500682323737927  0.0230492528681388  0.7374549250937878
  0.2432787930107271  0.8292083955633031  0.8007722258672787
  0.4147796655231143  0.3128725588141080  0.7882025730936489
  0.1202322327890056  0.2155224561550400  0.1057250238045953
  0.6227069894599321  0.4576609102710090  0.0252437413211967
  0.7561042863666471  0.2655259630347963  0.5299151047854584
  0.4069982595371374  0.9010804059159289  0.7852811518722270
  0.1339463133616477  0.0528400053596513  0.0278841025351360
  0.3600025427251444  0.1890341628149793  0.4834486866230943
  0.7768228801330536  0.5208713621521374  0.6315095782762786
  0.3514694936491012  0.6912558490095647  0.0928239084244920
  0.2871771744195510  0.5386737952492878  0.1782175012619729
  0.6065512324775370  0.9942726946020778  0.4491700834846751
  0.6501891171894154  0.3446519150443644  0.2904596640245383
  0.0914531678286607  0.9041696426428570  0.8264580777897660
  0.2890610702494992  0.1716919505585894  0.5912487916067001
  0.8769529501047981  0.3925508873903126  0.7479554060940813
  0.4037739634644958  0.8373680526022392  0.6415186910023466
  0.2703237537597308  0.2473156714689425  0.9393537991358353
  0.2131342817585265  0.9603300329618966  0.6352104249951007
  0.9679678331674498  0.0946893164452374  0.3153600922635832
  0.7254231047541018  0.6595783406071779  0.8941614994997389
  0.6406640277687755  0.6735394627425554  0.8344128929612764
  0.1565726814807391  0.2829119981329575  0.0883499480315038
  0.6594864338410942  0.9369696757695485  0.3242054186165297
  0.1554248668211151  0.6903955851737263  0.8375468259260713
  0.4801262190907278  0.7570848069692451  0.2480072528039586
  0.1735961460554151  0.2174791601126753  0.2229206242764516
  0.6338170758604869  0.2158916268377928  0.6470055081366093
  0.5262434011554193  0.5980958579428478  0.2696428782001841
  0.7664698146973338  0.7809721406390465  0.8815546271099463
  0.7575911738597798  0.9218066171767045  0.1713994285205346
  0.7140552514774701  0.0992731431670638  0.8210529085330659
  0.0327887016862614  0.7491586381654544  0.2779734407480475
  0.9968432452848813  0.3915100917319013  0.3303897768901913
  0.8586908064559904  0.7736041429302647  0.9009829661362866
  0.9097216938001910  0.9686742794163281  0.4743102507826857
  0.8587147106164743  0.0808058113885112  0.3393301723876316
  0.8851771859050377  0.7146989558957360  0.8577252087573412
  0.8098242093705315  0.7937198783751337  0.6576255680760161
  0.6219414748023002  0.6559864788830950  0.9609429060240715
  0.7836501970084638  0.4119822998997629  0.2684254809099845
  0.8854180514450951  0.2628305833217812  0.1934496311807377
  0.5551495059292666  0.4849199207491832  0.0495790099700107
  0.7910035642954835  0.3561816263473353  0.5535697620898048
  0.7979438409849995  0.9330208281296091  0.7135380009625839
  0.8691082602907716  0.5341605688133809  0.2535970110756234
  0.4672767555323414  0.9854294489511316  0.8878312488279817
  0.5842438418447644  0.8493047027267523  0.6058680063138990
  0.5148579268568779  0.1039800749618918  0.7984643070503762
  0.0714974289854479  0.0198188487559149  0.9264868263204918
  0.0017452480205767  0.5098300458160692  0.7493066833777200
  0.9647080490210777  0.4095014967876358  0.5717341111673104
  0.9328090518360223  0.9203485648600347  0.0380929502470447
  0.6129617637394371  0.5096429772506780  0.4790888671211654
  0.7627751491032139  0.9067970352932506  0.2169686100378680
  0.9051834086258917  0.3040329093938708  0.3574722281736125
  0.0278271740246250  0.8462646849769686  0.9228388510163590
  0.2128839685819577  0.2801722775561504  0.1025756212113747
  0.8550467961812961  0.3159078479957791  0.9236646868018867
  0.8611106442368903  0.9203915987655023  0.1876613275400830
  0.2523213369842196  0.2502212079907474  0.5108322897329644
  0.1387577691712983  0.0137581782551899  0.2865531454584215
  0.9229155663639363  0.9572759375493990  0.3775658748531162
  0.5773667882603777  0.4376537978480829  0.6493788278233084
  0.8754485549954827  0.6992692945904579  0.0092415652803699
  0.6989432933350526  0.6684798185149265  0.7506442247551999
  0.5125929476368080  0.6469592170681311  0.5611351240398763
  0.7290198966304580  0.9185912793034902  0.1733370191708659
  0.7478833138732865  0.0549668337928205  0.0666457964159552
  0.5063304625021551  0.2815363884978546  0.6488034248223468
  0.6636858024451207  0.8618234636373779  0.4103447190494047
  0.2818830625570566  0.2344800637577520  0.6321333555554518
  0.6381978174974436  0.8185054531508270  0.7653731643818764
  0.9758011988608839  0.1212306759343237  0.5124294746076896
  0.8255517560076407  0.5131771424634703  0.8421572004609283
  0.9395727531774428  0.9887557675774266  0.9156566875805306
  0.6212388184626192  0.4387195149568068  0.6694954251297935
  0.7897914547437163  0.6502166484802283  0.3936104673881939
  0.4723038938158856  0.1202277031204555  0.4363872836770025
  0.6940584677892760  0.9574589819577149  0.8581447070189222
  0.2810328295644306  0.3336497333976331  0.2276897493322398
  0.5824605013211962  0.9289442793765713  0.3940823520791577
  0.6290464680752781  0.7456869384033119  0.7971561213124373
  0.2087642507710841  0.5293565976343387  0.0401958655745025
  0.9119066428993501  0.5227045588980752  0.0096843662041344
  0.7132939321984830  0.7201531360936821  0.5555067032205583
  0.9134156064076369  0.3955787574353458  0.0652364221011537
  0.3687263852563764  0.2825864124119817  0.1897776861792585
  0.1228642479126145  0.1023787027417458  0.8150415637573024
  0.5489646647932080  0.7864259263086243  0.5192308804883795
  0.7609477344375977  0.3958419279234466  0.3657973496673146
  0.1975542555182986  0.5288526233875172  0.9383965984666189
  0.9683106911899571  0.0397864072595718  0.0200586910629304
  0.0473339388056834  0.1806880588435788  0.5922198343978653
  0.8724181433724217  0.3936524451390259  0.3605487404813805
  0.8561639834701804  0.1891512574465919  0.0038825064225358
  0.6761755076684910  0.7323055895570868  0.9292780750807762
  0.6193529211682163  0.7181518161682219  0.1712166509858117
  0.4201836886218691  0.0778007720167564  0.2064642491551230
  0.7565696224630860  0.2537012904209276  0.8397614231488404
  0.5108297705707574  0.8501207330022806  0.9294938955462191
  0.3786508691970047  0.2874764915823147  0.1424420925816135
  0.1381087673075709  0.0002050516859767  0.9538748043184775
  0.5403694911113416  0.4630286311554745  0.3224328574435909
  0.2072958264017200  0.6060237476822884  0.1429034558971274
  0.4612484262603999  0.6099870718205678  0.1906609656686353
  0.6685489983986175  0.6722234291104118  0.8298961987493539
  0.4699331979230904  0.4597630429837208  0.3686118977630237
  0.1045813293778081  0.1577189385612306  0.4304648976316858
  0.8279112788542596  0.8446816087066645  0.8714121033431735
  0.1766966988452889  0.7806295674883579  0.5007802437828464
  0.5437171450924078  0.0948575040494368  0.0200429296416921
  0.4206947474744407  0.2631482064374860  0.7122976209802587
  0.4451038838788297  0.2527507933078221  0.4003262753663663
  0.6676479893206969  0.4639465376911244  0.2241561483934978
  0.0993821288679194  0.2774585430598990  0.5189263057077842
  0.0941253769175106  0.1223727111568306  0.5410521169760418
  0.5551217857739188  0.3674894222748094  0.6864970018943640
  0.0546301155890317  0.7530843067454974  0.5794086629497652
  0.4558854743127633  0.1223296711787419  0.9060831818428753
  0.1769015304706376  0.4970995633511978  0.7310717128241232
  0.1520965092218298  0.9416404575507582  0.3558114941911698
  0.0671901840258981  0.9747227036881633  0.4658819857403588
  0.5845255041015450  0.0290666795290955  0.8464279389840480
  0.2490555515599850  0.5380100070828133  0.1466260067104491
  0.4248421520846848  0.9935830977099107  0.3164249656830465
  0.3130169129350909  0.4796721582809971  0.1120429841069770
  0.2917758437374919  0.3099180890516019  0.7952188054203106
  0.2947460125768107  0.8866069500585201  0.6231801019351760
  0.3026536532583903  0.9210575581820054  0.9749484820498880
  0.8928019960390805  0.2992536187716950  0.4320303800991269
  0.6685292449038172  0.7272585311420879  0.6464177400144047
  0.0732023119151767  0.9626751432896181  0.8117462769826794
  0.8492433178988084  0.0863442530357798  0.2929371473322628
  0.2248209898622944  0.8003967373958613  0.1421430869153492
  0.3922750241460819  0.1801124457746795  0.9769225486054434
  0.4912953727313017  0.9108341702678133  0.6630574095204996
  0.8630590293554752  0.0751547343102429  0.6600591321565056
  0.0833245867825336  0.1445128680156359  0.0553880948302326
  0.1115393638229420  0.0466104123022851  0.4808913731306704
  0.7751012572241583  0.0555543318696840  0.5500918623147304
  0.6293873772049166  0.8000939382312242  0.3092520330006128
  0.1419224560980150  0.5973332277267627  0.5374027308055630
  0.5761988316484423  0.2330811156661410  0.0575513747957716
  0.9827474499710286  0.2084861430011732  0.0971718812584785
  0.7922338379475495  0.8677353911654097  0.6309496547236930
  0.6339944753769654  0.4289603435059449  0.8558699255245080
  0.7392677452736972  0.0486091198789309  0.2448434932428170
  0.7646427841450375  0.7846097767016341  0.5300243086463424
  0.6150582582813006  0.8960884734568912  0.8462748860384320
  0.6964717171793228  0.1773485129464120  0.3868980122216647
  0.9107377345685418  0.6665846948188789  0.6178182065946833
  0.1524981303797587  0.1112138569759618  0.4910488232220813
  0.9643730450492832  0.7115737741991189  0.7495068199794922
  0.9656371393725537  0.7639362590990829  0.5241996150751317
  0.7433081223741280  0.6594863084993137  0.3780407596391369
  0.9684480482113674  0.2285912697555703  0.0271739762274420
  0.4365814412300386  0.4037757395431012  0.2530515509071563
  0.6602602284845434  0.4349579121970735  0.0857229080813269
  0.5249647970260345  0.6544703765719214  0.4608331824843971
  0.1728726272202529  0.2196339635085700  0.4260239432945018
  0.9768721663426119  0.9941679767849867  0.1878178339017325
  0.1699997471361971  0.6538692056563229  0.4738879628535569
  0.3218651319484330  0.5125327855005782  0.4052033998360584
  0.5851119612557329  0.0882050394061721  0.3584073119095973
  0.0189557135306894  0.2233180983730560  0.3034331352042213
  0.3406318465092480  0.1018681333174326  0.7802565377594426
  0.6415432000793043  0.8536281421115609  0.9974871180215840
  0.7246385145598582  0.3983650824494359  0.9999241491457931
  0.8681028412197528  0.9574479980758741  0.2542111147015971
  0.3340003573984264  0.8530621509994294  0.8880257499806559
  0.8435760632463020  0.1234639528145217  0.0909289335532830
  0.5383359992024424  0.2174847998360120  0.5131346011577699
  0.5134787638000377  0.7700494984788623  0.1020519200489666
  0.5968168854403925  0.2372855653756445  0.0178128581009699
  0.7489215312046714  0.1281926104505927  0.3384664656626989
  0.9853644746914582  0.6028404798747816  0.0511604640857919
  0.9741231778577191  0.5531068726538262  0.4450045807608410
  0.1685044735792149  0.1890289146559512  0.5509450877456434
  0.5345637598286008  0.5854476269303683  0.9854669155228062
  0.3328125269950236  0.5113894284301358  0.9052322370453454
  0.2951090449189850  0.9633232258470950  0.7074565537652515
  0.4954608248679273  0.9168403509506049  0.9025624510513979
  0.2074955386977315  0.0894759536172606  0.2178086787392899
  0.3779933187146322  0.9450817934144391  0.2439925544575017
  0.2104931977800101  0.6684312981473950  0.5855375725727702
  0.9768828928267537  0.0903719152405119  0.2887491609301103
  0.7324499690568685  0.3252414792977458  0.2768436053504492
  0.5961609651909539  0.3107115300810280  0.0035456543066203
  0.0571510556409467  0.6509901189338263  0.3755355740508706
  0.4787622664343532  0.5315925953022332  0.3337025692294915
  0.7514761036621793  0.6033901442944776  0.6710958866614447
  0.7150776575845613  0.5879664642570179  0.5988178691053589
  0.2666879583912105  0.5869132183755157  0.3985988979897883
  0.2831141656173992  0.7656671871035916  0.6911097612743229
  0.5291617464384927  0.3122068319770385  0.9227736986514302
  0.6788742447926538  0.7222864122454781  0.1058020859657191
  0.7722379432231002  0.8871279987582045  0.4090190998933632
  0.0669206840815791  0.0316911333975634  0.3919180350066100
  0.5923946539638780  0.8266931701383612  0.8249065456641357
  0.9116567814550549  0.5961999176844882  0.9819597342588369
  0.3272635735669324  0.8957786254504874  0.7208104478201302
  0.9071200862180933  0.2637459295058284  0.7145232646452144
  0.2961805663815299  0.3120199420975715  0.5324007586927467
  0.7925170546114734  0.7280890987662045  0.7605736495856460
  0.7368372192174135  0.6468067667075241  0.0822277476391143
  0.7541620117784673  0.5250815452567213  0.9278062809525556
  0.7375479724284318  0.0535082732042700  0.4294213795982785
  0.6041713292800774  0.0796305951807826  0.5279399981167873
  0.8679686725082054  0.2617893633481311  0.7790570288115792
  0.0895924964275427  0.6555077171195106  0.9372286155677466
  0.8919163763868911  0.9596065899127310  0.7652760671170104
  0.5398185020757674  0.0095135562697833  0.2756287311862861
  0.4791484961946686  0.3959301567316161  0.8362303152750622
  0.3687257240763519  0.2486527742062926  0.8295681061895387
  0.4273364765620994  0.2283984109984194  0.1428001965131691
  0.7076519601253300  0.3642850706787305  0.5587298193718095
  0.2319018543618055  0.6941671552146657  0.8339225808327390
  0.6571227874278213  0.5119661519666028  0.7361069645485053
  0.9153930267213146  0.4011868956826732  0.1131230121148240
  0.5668864331594027  0.4491085505216542  0.8768274051854498
  0.8424007569447181  0.1171840177180603  0.8759430565239202
  0.3597454457493797  0.7554082804428529  0.1070161182194391
  0.4028861673482430  0.9818563820931866  0.4368184576592254
  0.8981505789705529  0.0350601646689322  0.7525363167695356
  0.4273819969335669  0.0349532472808669  0.0869495425379501
  0.2535676120615387  0.9949214464057828  0.0956804516383754
  0.9675202154291296  0.5227041216182273  0.0203742437464665
  0.2474051398604345  0.7858116998384435  0.9328949932886523
  0.6263384409761351  0.3715965609702742  0.7088813003106031
  0.8410535149133054  0.1854695076525394  0.9201163198642275
  0.2628897867870551  0.2410471115543316  0.5349900531583953
  0.3543789210396089  0.9726840946048253  0.5480161853252588
  0.5470499788368969  0.0962477394536302  0.0483175207016114
  0.8545767270052043  0.6793198759202129  0.5573213679319403
  0.0908670309145496  0.8629524833646277  0.5686382335165001
  0.4888092498350861  0.9624577979409289  0.1167878001761114
  0.5028271538169216  0.3493767978661421  0.1399176606921528
  0.4405126770995322  0.2799855150942003  0.6759542289729049
  0.9867070370176056  0.9236868506924381  0.0753376112917232
  0.3991857692769984  0.9271789954116921  0.9099811670724843
  0.8815171666120343  0.4938399742580414  0.4269524797288495
  0.9608732168815344  0.9677805370414144  0.4071447018264269
  0.0807439982042495  0.9177444680666081  0.9834193275996786
  0.0162132022084487  0.2840412741116900  0.1300883660884026
  0.4255118773389427  0.3974678864917393  0.8878298980837811
  0.5408457992934835  0.7861465348943762  0.9314526028976891
  0.7705696748228642  0.3247305216053005  0.2456916403565129
  0.0459541364895652  0.2953373036018718  0.2417897411752364
  0.9476769957027974  0.1674852042463504  0.4346339175010273
  0.1481984514947835  0.5348694009278633  0.2294145655054227
  0.3067382205068063  0.8955212101459071  0.7654836728933162
  0.9899289354580456  0.9096560053973417  0.7786151350508265
  0.4663752483498430  0.9118996194705089  0.6501143100446153
  0.1383048253410422  0.6317469723866307  0.7119845188753703
  0.7571767956500202  0.5959969527904841  0.6247333455378794
  0.2576945011359352  0.0297032315002666  0.6474156614127193
  0.1310082087542912  0.8411719995563122  0.9008999795389524
  0.3543863815096198  0.4085876888579384  0.1070559385192061
  0.8767794268546731  0.3299521994337415  0.1909661023908831
  0.9615048053810084  0.8276011813040869  0.6712216301245357
  0.5793180939123062  0.7270895182945836  0.3660791281344351
  0.9942460939879132  0.3270343797571847  0.6317784886002059
  0.0220761895501369  0.5215033271981097  0.9549338298572623
  0.4364054538413683  0.0555505045809028  0.5313884099836009
  0.9567646276696107  0.6743397242353596  0.6323068961241581
  0.4211724962382422  0.1186943597542170  0.4116073101563225
  0.7499046307408213  0.7257658619822069  0.3929548434085875
  0.5273447832800275  0.9783966686295128  0.6810623547497604
  0.0836095739586172  0.6641850224170408  0.0679279039729076
  0.8986853519621310  0.7141501839024328  0.8076698973231564
  0.2171643733576233  0.6259490539887069  0.8546952249779199
  0.1122381254795626  0.7761962247969316  0.7670843508646908
  0.8548912507276073  0.8890203539613630  0.3576479311354828
  0.3790877154039007  0.3631761208415281  0.6009837433414732
  0.1762438013293463  0.6168862722544346  0.8732191465705869
  0.2968717611316232  0.7693820463324348  0.7390072869050250
  0.5810199274081965  0.8782273106093040  0.6878329640634906
  0.0648245288381259  0.0959949328011250  0.7362007931727318
  0.5242265297648754  0.4497944404000337  0.4975965216653511
  0.3780192872457194  0.0757855212743319  0.9029475814905806
  0.0390099923714173  0.8991991203756142  0.4261044869286603
  0.9239150315430334  0.2424254785195720  0.5279491326747493
  0.3258547084913462  0.9238188234159798  0.9577285075839074
  0.9991236490851109  0.8464581540271781  0.9224682180305106
  0.7688486872885542  0.8551080063932923  0.9692929421348390
  0.1939498810452915  0.2184682632872079  0.2035479523445630
  0.2601579355161363  0.9132285682785748  0.0656687696676555
  0.4521653661037885  0.4350997212714352  0.5745112532682057
  0.8603733620240002  0.8704742066363096  0.6596994333848388
  0.0993054044654244  0.7769568919056957  0.8227365510569882
  0.5520204662460058  0.0407266460767057  0.9868068377372452
  0.6402077796298304  0.2344374422184571  0.0974486307085411
  0.7498608357390928  0.0099432692074923  0.3961290562067476
  0.8848540189828095  0.6134062900244099  0.0571348347441529
  0.8220748506002934  0.8772387179112399  0.7600752249756187
  0.1823549436438476  0.2549557233253001  0.8886236607087943
  0.2565024105648110  0.8281659937489857  0.7753303135376510
  0.0995144954964171  0.3825261016904655  0.7856814270798431
  0.6032499550670243  0.2352238614356228  0.0634316458794374
  0.3666723877785806  0.6484988159212930  0.4624794049850050
  0.5728062174799808  0.5118720267953809  0.7215447977410314
  0.8951071664737058  0.0421873598552904  0.9350694028653458
  0.2662916456561839  0.9577291545910062  0.1320026840574602
  0.0619611864722244  0.6470396102997056  0.4036737922527942
  0.0696439294739089  0.1828246430736682  0.4575229753973504
  0.4436283166404779  0.9672795801360838  0.0837691505860901
  0.3188521752186794  0.9119146927772958  0.4031248209510341
  0.8869061383276982  0.6445815976504922  0.7564341917752114
  0.4850585459641706  0.2672356434916722  0.9382867392743499
  0.3388144559020869  0.4116746597922597  0.1305336755886444
  0.7271480122515416  0.8551069997653444  0.1436216776517034
  0.7670779020850108  0.0528982944974681  0.4954552153419302
  0.6521538300568072  0.4615257356485126  0.0212240654623197
  0.1031136041615384  0.0505088072933711  0.5556285708093409
  0.4974330329892993  0.3611735193461584  0.6385671065005634
  0.2424354833344044  0.5400943535342316  0.9221133370467642
  0.9910845395688191  0.5222067223069935  0.3003929446885779
  0.2610455604503418  0.0983841436089493  0.7155641713734388
  0.1876202929936185  0.7941628230884444  0.1116675168998218
  0.4475979474445133  0.7397042546473135  0.2818178872071529
  0.1209784555456257  0.6615567213049004  0.9740356755728559
  0.7583908753156451  0.7294886540737324  0.7954038233065792
  0.0837346177257413  0.0323405793036069  0.7786035334808303
  0.3299087342718638  0.8962581845952520  0.7491932328892973
  0.0088950708345163  0.9074188792297094  0.7049233733020024
  0.9147358636871294  0.8378451386620354  0.8233183390297945
  0.1940368725503020  0.5397285503676356  0.8650523848038705
  0.5963612015854312  0.5856501039329870  0.7402620100271780
  0.7262137590748362  0.9809741290041343  0.9926214247758094
  0.8585962734361944  0.0560124488805570  0.1187120242706640
  0.1351789784584865  0.4270267560770959  0.8421075235362327
  0.5596515964383331  0.2233456653546353  0.8477931485728538
  0.4051996027794022  0.9847625967718524  0.5656415313527162
  0.4265481459861636  0.4013586165472340  0.9369941412046490
  0.3328112101208341  0.4135216604734440  0.4684199960159572
  0.3579372704505642  0.7670117544995960  0.6930307419795367
  0.0494836893128419  0.4411096942272710  0.8070759626729022
  0.7836757309062445  0.8542811946046505  0.8942299826315244
  0.8348576706083349  0.4661999642344852  0.8466340256741461
  0.3965467192332094  0.4163669505613263  0.1312271528718265
  0.7893725020131706  0.3385767598775464  0.6928049312175953
  0.2892208601533440  0.4171075073128229  0.4919169128514156
  0.7650412112778208  0.9778844148864139  0.4969108726863179
  0.0919061284090260  0.9172627325941868  0.4728524190207050
  0.9380077867580515  0.5999238699529117  0.1372995552936008
  0.2503828050767259  0.0204026449164628  0.2191101007358682
  0.9497101874495734  0.6207985347823216  0.5827142827171158
  0.4312429626804072  0.9678922891445929  0.8558549130247947
  0.6633460385927004  0.3057322310658319  0.4608981845439624
  0.6966668381211406  0.9989254617027007  0.6033824105246847
  0.6323143950085811  0.4391171947132440  0.7421585590965614
  0.3805444348642306  0.7691746967384219  0.7811593679684766
  0.5450556726430865  0.2809747369456514  0.1733779701677812
  0.5146931965270438  0.9156595788914352  0.6201431520031710
  0.4618124860099063  0.2861543338896683  0.1587029653161395
  0.4091743083809104  0.3776930733063361  0.5172960676815742
  0.2111246138478556  0.8295025790234287  0.7038040773164976
  0.1720416005346998  0.6919394662405333  0.8977634813626192
  0.0759689883941901  0.0323677662739289  0.7507604128053110
  0.6888396552913766  0.9630548823324735  0.9047107455721890
  0.4879154252244137  0.1263897917758395  0.9719742896173523
  0.9576088006109913  0.3056422231102267  0.3779655809044222
  0.5418372271207830  0.4341712525265713  0.7150603518028950
  0.2465691927352645  0.6969257076031413  0.7863383797588633
  0.8118896179908343  0.8563792340395141  0.0438713014681524
  0.1434436417345906  0.8571120156853135  0.5011440909825475
  0.2209962901084459  0.6223134818729223  0.9038274490482043
  0.0088211693100887  0.7107520331486252  0.8429346759967451
  0.7688925791414694  0.7246052780643111  0.8997433256563502
  0.2278239768865368  0.0994064299522679  0.6183453014517938
  0.6624229137448213  0.2118807064502630  0.5666444168361716
  0.1231476717852037  0.8555890048045601  0.0939160656743648
  0.5743394114656436  0.1532759538772920  0.9233733328810710
  0.1776551117486362  0.3148558443572281  0.8252190665882851
  0.1351772479397171  0.6080584442677671  0.1026315901189965
  0.2778878998154969  0.7789276294735689  0.4198450701645747
  0.2668103354710210  0.3366619666237869  0.3686860103316928
  0.8781437009605475  0.1858591626529662  0.9860834280427402
  0.2616053940212777  0.3290123892145804  0.0124811240167263
  0.8427530478760816  0.7739565082891332  0.8536352354807368
  0.7413716780540667  0.2602386222952767  0.0212183540589112
  0.9710861774689729  0.2545052109665498  0.5163409231897316
  0.0382182863340518  0.8599097303511257  0.1399655850563092
  0.3631927243181522  0.8256444281922998  0.1057632043730493
  0.3070959566257644  0.8143060418821393  0.1530425579121966
  0.3407644424559260  0.1707699704084402  0.8498869604054581
  0.5922393296692214  0.9916937898356271  0.4975761723231952
  0.9366090699780608  0.6818448791465926  0.5372364970815976
  0.5249785341971790  0.5382680845535197  0.0100772284113413
  0.2508543328935408  0.8941528208489895  0.6837255052629243
  0.4505224937844608  0.5810552262203805  0.8835629091784646
  0.9266624334751319  0.2335142013958980  0.3238671193204923
  0.5715446429144518  0.2202853028681253  0.8967926570152490
  0.4712361591036995  0.9086981026808066  0.7076739814960488
  0.2866556357793696  0.8923491541170572  0.8112015462962435
  0.2456545779916735  0.3206508087608173  0.9291532715272252
  0.0058017641619190  0.3318519104954700  0.6888018304329914
  0.4832929413376029  0.6591487483106759  0.3685914802824364
  0.2096644776205736  0.8538658753706807  0.0511279784873600
  0.6303729249138065  0.1570723184410772  0.8138392791703919
  0.1351664616198857  0.6080200203006279  0.1310023301171415
  0.3412655661119908  0.3990915496365976  0.0848790851527373
  0.0030073497921088  0.1076901727636264  0.0028067911365060
  0.6951009229630941  0.7350060265729594  0.3080122863048861
  0.8329904420986647  0.9512334610338348  0.2904872681055758
  0.5775455152179524  0.7745902817812410  0.1453425199514806
  0.8222412064153773  0.0839616699117118  0.3719520396662791
  0.4264884880221165  0.9042723155924347  0.7402679019974299
  0.4698673017498001  0.2323085572824087  0.0350992257327167
  0.7602540090893923  0.6089911518507920  0.2435540315450359
  0.9299597490731498  0.1237322818609171  0.2110100364732182
  0.8349452476313278  0.7602768756818791  0.3478297964043670
  0.3292587971950624  0.9425107758457061  0.2388527743710783
  0.5304391306760827  0.9078318117074211  0.7867792895205027
  0.4008874172992731  0.0451818327886198  0.6217771075820402
  0.8680020246428820  0.0407122054915698  0.7883917614527388
  0.1336596578238974  0.4240895125933624  0.4686976901853317
  0.9509140947505559  0.4083345288759219  0.5966135527694580
  0.1738084389659086  0.7870871195568641  0.9276192710192017
  0.9881790023706275  0.4110667684495126  0.1334558685780065
  0.8086032306173498  0.2470001868041108  0.2731142647428372
  0.2323532046355985  0.9181660633151125  0.0258139485663506
  0.9887371111363666  0.2903139658678598  0.0497928454026188
  0.7110222062288858  0.8537159214634932  0.5303471184736459
  0.7154927534206216  0.7355644460998221  0.8136977837051985
  0.7660213248410913  0.3957990708063349  0.9743025978578410
  0.6232545456102084  0.5101146473935357  0.5057047585316362
  0.5612604149703214  0.1624293464868426  0.8389839315804515
  0.0144788665728885  0.6432059164296409  0.6923478285581206
  0.4937912233698664  0.2007520057731306  0.6278807899528235
  0.1811928148364620  0.0185395495032408  0.2494222435291789
  0.6147972028085671  0.9577321716854746  0.7481035610889165
  0.9848739926399211  0.4885721561497085  0.5413496614737651
  0.2209003475251731  0.6120278787986866  0.9542756647149757
  0.0876149120562514  0.0837435973937486  0.2672118332375881
  0.9093057194077138  0.8262583675075802  0.2631696510543845
  0.4270838769312077  0.1923245507773324  0.9488860731061560
  0.4876127217563276  0.1770431703428287  0.8043647905981135
  0.1293789632924631  0.3068553472539334  0.7047153166096057
  0.9481976966628688  0.7110267069202496  0.7978165109741046
  0.7045433198740154  0.6510772809241578  0.4060380334955336
  0.1803511693231871  0.4694826260739305  0.9645102254660410
  0.5254576179866487  0.5327908186730763  0.3168327862199137
  0.2524035624644540  0.5913531729342527  0.5896344879530998
  0.4512782061913453  0.3482608179451455  0.0726229477235423
  0.2979299161069529  0.6407844235109622  0.9184077005970230
  0.7931900104837788  0.0723327090502126  0.3046138619938528
  0.9670876415379402  0.1611142153306630  0.3816758908489347
  0.1524400752353920  0.1093311763739922  0.8538894900296804
  0.6611094463812995  0.4389291717442347  0.7052574700600743
  0.1793974494784183  0.9557024980080154  0.8734814133974443
  0.1043896058946694  0.7724689533532674  0.6919745882752321
  0.7085738170542971  0.6033048737256912  0.7425630729154300
  0.2744249219150828  0.3861616905868417  0.0138677939047320
  0.9939024798082714  0.7221295760829827  0.0707858875129884
  0.3857779452539649  0.9564861931095974  0.1614483504990055
  0.8680513124014787  0.8885049181869711  0.3323365099143635
  0.7161611181336011  0.1847977585802257  0.0581507815632955
  0.3460118636140269  0.7232018829323882  0.5206643327203891
  0.2250316202433070  0.1078037785210910  0.5047737971707562
  0.0879989557626996  0.1016315381420066  0.4163395542840336
  0.8400440187165218  0.2766065488428303  0.6874910895038717
  0.4859402516110313  0.6019580524349358  0.2422016740668510
  0.8395252198964113  0.6080509640145766  0.5768243866791883
  0.9169743175739157  0.7160557903033462  0.7605879666725439
  0.5669055470217159  0.6421723456966429  0.6261346684953724
  0.7522234919902178  0.1186816003196963  0.9450263716546841
  0.5469286200653601  0.0828617708970938  0.2335831224342444
  0.5193868919185158  0.1208977138533170  0.4315229932812878
  0.2733212671456965  0.8120300362808643  0.1978193171275456
  0.0642839923385161  0.6374222363145877  0.6975485083697196
  0.0243349057169391  0.9087111863338062  0.6038895167725118
  0.6249550152831426  0.9484613829198224  0.6653285155477565
  0.7096811209846827  0.2119556386955885  0.6491798195137987
  0.7958201266144501  0.1947367150345632  0.5560079675999213
  0.5911771024842234  0.3866874877481016  0.3247307639192081
  0.0151428456810607  0.2192709541356634  0.0616137167359658
  0.4422500728390786  0.7026115067656403  0.7732979826109614
  0.4957273861301932  0.1965205509258064  0.5238598908842478
  0.4278712897311300  0.5619884934976607  0.0020211712344217
  0.0698368393461619  0.6439767751824783  0.4604446811969274
  0.3468321329760774  0.9622821859808410  0.6225453343278186
  0.1888799137817429  0.8824871647249449  0.2622015181750579
  0.1232184187429810  0.1848885931798552  0.0058963069424572
  0.8006608548267696  0.5037332965014839  0.4880661275141107
  0.7185855798406784  0.1228151375809318  0.7196823579688209
  0.8692440089004897  0.1222484119535898  0.1023169548993997
  0.2157893712451085  0.7815990637184678  0.5315152296330952
  0.2461383090801851  0.9629689247541048  0.5165448715355240
  0.3442457179495010  0.6577657776540243  0.5866290199805126
  0.5572014537207267  0.2972003715398128  0.6998917529552040
  0.7572316754697231  0.2092494491310716  0.6625752840240978
  0.7022053938600171  0.6451267606974002  0.4803647492303659
  0.5941316766298892  0.2993449067963936  0.9782306561845932
  0.1611689468855694  0.9024242828311612  0.7771599125899573
  0.3154069455406031  0.6005958784726781  0.2782380924200070
  0.9666786545731328  0.9111739747123623  0.7948304043364167
  0.1602033952569752  0.0351026929560845  0.6710271931021501
  0.8467708346519111  0.4977138355253674  0.4722273330828330
  0.6811338629718526  0.0735973143820676  0.3481516703302734
  0.7087263918596542  0.5798126131537635  0.1343778959884830
  0.6668375964421598  0.3656004702787110  0.6829260129974517
  0.9342310160834245  0.3062044481430972  0.9527013963980161
  0.6855527166529173  0.8031968708190954  0.8522872027888799
  0.7781021537665432  0.6499238345738393  0.9616854806544674
  0.4692026815774599  0.7053057397022801  0.7655680703569965
  0.6984890873560831  0.6642096172357014  0.3587057061336426
  0.8505685212364639  0.1257732097200711  0.1473885723550141
  0.3976024066818784  0.8559605185227076  0.2913110998195891
  0.6647821426275231  0.3741331751758422  0.4370179890314004
  0.4082388793815824  0.5131760108091021  0.4954166830589253
  0.0876068731848089  0.7218627114249920  0.0439663076848006
  0.9666376795981835  0.2739619358378613  0.2173523276066332
  0.1160948285560916  0.8746061164078544  0.3318680381571885
  0.3561478605052254  0.2468179015013164  0.8865857945365824
  0.5582797658260701  0.2285688799047165  0.0778531621382684
  0.3192391427062868  0.7124327510002547  0.0572626842859984
  0.0938792489775609  0.3256812029146430  0.3224910296274355
  0.5071514741031116  0.5773356839449949  0.9840452632638725
  0.4504102822760730  0.6541535538386216  0.4475934082778268
  0.1942516261034886  0.5380055541480778  0.2125967099928512
  0.7723508343223948  0.9326107984366518  0.7556159915021532
  0.6848265388255603  0.8039544670269170  0.3204018672407444
  0.5893913308778315  0.6488651076346098  0.4990678648774810
  0.4119613066629593  0.6885142995511991  0.1365661328569963
  0.4615080146464763  0.7046128718472857  0.6901869204112188
  0.8543354655868692  0.8536599370062078  0.0681355057410705
  0.9546438101620767  0.8465421014614236  0.9944314099802055
  0.9666508300928356  0.7198638460424293  0.0639300330133274
  0.2042505629968165  0.7263193422200480  0.3590432398743615
  0.2245504357916249  0.5955712077027091  0.5890103299003390
  0.0883374745402198  0.2286548620767569  0.7427529566873353
  0.7004176044509350  0.4180890491634547  0.1049146378071855
  0.7341821725525257  0.4900408899381277  0.2996003624616865
  0.1980678771188573  0.6613322511481390  0.0057209594427514
  0.9252161766417484  0.2678354958222736  0.6306900292630913
  0.3565995714531688  0.3533331399109838  0.1086861480876007
  0.2254825223082123  0.2671662561014131  0.0283857859658526
  0.6221453758540001  0.4428812637223821  0.5234299674426496
  0.4151680031037171  0.9226523177648955  0.3345362770079271
  0.2517851907848137  0.7895270765140774  0.0725869016916581
  0.1697945205875425  0.6617998808073789  0.9673815849810367
  0.3160884357665236  0.7741143248244250  0.8397316626868535
  0.5095733256980396  0.3328369658755889  0.2629468003060695
  0.0881872256808063  0.6484038233938983  0.4142359886353695
  0.9689192712744886  0.9465363252328781  0.2504870267654240
  0.5035448185877014  0.0669735807840246  0.4810259365124959
  0.7891313932792920  0.7771776577427477  0.4587085660685470
  0.2230103559603027  0.9842044364724237  0.4387046797480958
  0.8701751118108354  0.7552961309407957  0.1387537348356540
  0.6948547619229076  0.6159886936014448  0.1842649650178237
  0.2624929126096031  0.8094659067811074  0.1719308295261077
  0.0635331288933814  0.3739880281592547  0.8111916061015328
  0.4682642277054367  0.5062077985027936  0.6543792668214163
  0.4376591577191820  0.8255360336846014  0.1749191907442492
  0.9892679643626320  0.2792236684914705  0.1226367897075110
  0.0608838415195392  0.6731295066821003  0.2463352178622470
  0.6523391960545897  0.4086269879400729  0.2566496949730868
  0.1352816519268162  0.3247097236791407  0.6035197976432737
  0.6668447339353627  0.7408570813854858  0.7746821427000062
  0.3404994343051861  0.5722542753416290  0.7315171357548126
  0.3086193129773830  0.1454122260885208  0.2852048762861257
  0.3408192429332531  0.0974436234886160  0.9879027602366789
  0.2141638193020535  0.5203240361154919  0.5387461561370088
  0.3275927384783641  0.5974732796925655  0.3035402668551594
  0.5030481397581505  0.7080579327553264  0.7296541989728664
  0.7473467815355263  0.5555577674567682  0.2073810337141110
  0.7484435197556903  0.9503122603927681  0.2832215188550303
  0.8551864701316554  0.0310706799975031  0.4525501424843515
  0.2359275810285248  0.1330004568309092  0.0991752164768711
  0.0309065247196689  0.0853313695539261  0.8570363692964574
  0.7320303304315291  0.0753265300363754  0.3724206276596019
  0.8388884926338479  0.4564988759981813  0.2566712307255791
  0.8134087448654266  0.0562760669330819  0.1799031510639238
  0.9300250302855747  0.3855174944394583  0.4068138957537814
  0.9031051503238585  0.7481906511486376  0.6020883274379916
  0.8186612535410066  0.5607732882064341  0.4397327023005548
  0.8035737252517705  0.9778023318229996  0.8614285144719114
  0.8779613658619787  0.7152158055877416  0.8286441310219576
  0.7900708413567162  0.7275773569720331  0.0542188044751043
  0.9040865482962532  0.0430026101522103  0.9833560109642568
  0.9967073492331937  0.8145857635137197  0.2857459194809754
  0.8233612559318297  0.4054289990328097  0.2411868843986008
  0.5503642816491449  0.4540434958301240  0.9236287918769946
  0.2957348869786276  0.7553205486345480  0.6362151562284208
  0.4242109012630575  0.1990400621312004  0.3211822687209721
  0.1509268342726510  0.8558536695977440  0.0950215530059147
  0.2840038385205635  0.9918995145252294  0.9723183125416346
  0.0403111463929543  0.8353071401684496  0.7072168487755016
  0.0848785642814237  0.8477608518449399  0.9718215272621059
  0.2373073526198039  0.7170673600907017  0.0358532854965537
  0.7660351676460857  0.5907618403622236  0.0857885698812347
  0.7788637576971098  0.8653645970781788  0.8215948936415273
  0.1897936252793398  0.6316112080814196  0.7827277823925431
  0.0761783155704101  0.5324175189753914  0.5911542194719418
  0.6998534590793803  0.9340630297817279  0.3516870348519480
  0.5244929869039322  0.0946091178028983  0.0653447287392207
  0.1557083393988596  0.5342214584678997  0.1805264734188632
  0.3665078068453251  0.1902614643620266  0.5109276254189695
  0.5864939454867242  0.7081283444270000  0.1362629070169373
  0.7693814457371095  0.8576832921450447  0.0192051671656467
  0.0556313712744632  0.5293499279611130  0.2626001640725328
  0.0183507242271270  0.9151504724911201  0.4932078054562580
  0.6398276435392137  0.9109854751326798  0.1309366929673134
  0.1479974420313412  0.3410171485519723  0.5313249490550301
  0.6407156171262739  0.7986216825594435  0.9340662809014516
  0.2267794308553985  0.4819446259889650  0.1607876243537309
  0.7217465117492828  0.5158085413099632  0.6973215071892985
  0.8996198948508286  0.9627362920165554  0.4484608485879905
  0.9724185009207592  0.6892913005543243  0.5040754083091069
  0.7397382136569985  0.1890065860217695  0.7871100815646476
  0.0891559622232432  0.1485580943943234  0.1144941096657388
  0.8688565987066021  0.6445931100480482  0.8024686603796766
  0.2050792365762352  0.9444608763920264  0.3030479085696059
  0.2994502878189423  0.2338227686095761  0.6095776108252384
  0.6959212907865966  0.8014444023047201  0.7222912362213069
  0.1181355140216836  0.2870392373934502  0.1299192857812584
  0.6313692163690283  0.6516200464546623  0.0082611419515049
  0.8613034976907373  0.1782829490553206  0.5227287508360937
  0.7461162073625570  0.4060021205097125  0.1725804074223626
  0.7120074916410660  0.4181243168550446  0.2493269960223203
  0.1090206326569594  0.5321244700144183  0.6991746841429702
  0.0910835934983208  0.1060580723780193  0.9337513811444149
  0.5452711941396118  0.4436087137725441  0.8371185137579706
  0.9415849528694510  0.9855259877841839  0.8661743341800602
  0.3692588149210677  0.1052019120958195  0.8211607115479613
  0.4913600098102710  0.9678908199961397  0.0888009134223731
  0.3733717948807944  0.6429908995624511  0.0070772790304421
  0.8833867149757162  0.6463578023378198  0.8852445776919453
  0.1648516713832227  0.8004019412970665  0.3294605009534549
  0.8890631599856788  0.3797564915459991  0.8958791110358281
  0.3292140239900224  0.7443612424549418  0.6010974784080508
  0.2364528456597012  0.6714778996812344  0.2591226470751176
  0.8292769215308083  0.8716730088661279  0.7076242344288501
  0.1419764251275024  0.4902962009575137  0.1153990824276289
  0.8554745691601894  0.1555777767445800  0.4006632038774879
  0.0927231408019334  0.1799153473772648  0.6110297911055490
  0.1573556015600869  0.7266227088653402  0.1125996372152584
  0.6966983727795821  0.5216614355702803  0.8426485767514399
  0.0393653149132422  0.1634079091258902  0.8184072635845793
  0.9134985799497503  0.8988375592926124  0.7400561658297331
  0.9278762428716840  0.3282684041036045  0.0518513406853700
  0.0321019729304141  0.7833483478693224  0.8949587812743313
  0.7972601643714193  0.5107056127809498  0.7605748961181279
  0.9296427089258800  0.5826702952894525  0.8028084186397763
  0.7060800359802223  0.6586359699470414  0.9453595104665721
  0.7065031533416025  0.1249358099736001  0.1661610114411006
  0.6633147567763881  0.8975005642286139  0.8358510287084150
  0.0614145178076199  0.6409953953157543  0.7715666411809280
  0.6712959818992984  0.6486278832533180  0.5591797354308340
  0.6220252847422166  0.5843648162138100  0.0839154059215369
  0.3946152258517470  0.6500220684862109  0.4571532903373281
  0.4497925142157583  0.1279929131023183  0.5366734612059504
  0.8983149660087791  0.7097674238616238  0.9939628801049566
  0.9698972084230355  0.9454549926792892  0.1960454933895528
  0.6017025816699733  0.2758718165535663  0.2559008435907082
  0.8105354509578424  0.2416382292847985  0.5247977682959234
  0.0768724427545785  0.1676076935668208  0.7874198689352515
  0.0815724983904593  0.3672421452146344  0.0109653024013274
  0.7134438316648520  0.7148722661507178  0.1390352315303195
  0.7245365227805590  0.6882847687176524  0.2499870409836872
  0.4803425468392672  0.7210619552000438  0.4765434598176078
  0.5117003099828513  0.9072518207333765  0.8312684646739615
  0.9489370930045479  0.2998669126860583  0.9053565636298760
  0.8812011127833969  0.5413141321181690  0.5514158080710574
  0.4756907032472409  0.5911266646029631  0.3888055957088057
  0.2762314755770750  0.2830041068326385  0.1439223501042461
  0.6872067316892698  0.5831056232478536  0.5977712748221773
  0.3506694824691790  0.9324178931203031  0.2809601506112612
  0.7315500052912944  0.3292352839076585  0.9014744626710891
  0.6973327499511930  0.6627902549167212  0.8983758875400204
  0.9589372557612325  0.8044918302852123  0.2120652983656991
  0.0844622628832001  0.9691536979339332  0.6403098270486547
  0.0999833029923336  0.7212880409727038  0.9968257644015184
  0.8754335319479503  0.4557327653692043  0.9845150777489621
  0.7541760861824988  0.3278082605828544  0.0692140649649047
  0.8636994076842908  0.6977107627466808  0.4295796050524729
  0.6792898432331039  0.5958276201960339  0.8885650877106468
  0.8942569046099339  0.0894584314461956  0.3826627617969197
  0.8168755007741598  0.3240198971837968  0.9878309924316815
  0.2452547884828342  0.9547894061139061  0.7949706412446990
  0.3545940458719098  0.1688328023999585  0.5996189265506842
  0.7839218667295195  0.2314718981119026  0.3657066574150080
  0.7840560853314691  0.7082204901623211  0.4564596691618112
  0.3990195062508294  0.7763314073056552  0.8632807515160429
  0.8008602893227112  0.9213129371595398  0.9688361080209473
  0.5093321369991877  0.9860860458820977  0.9474905980293417
  0.0679575010267583  0.6389591434984473  0.7989488454488812
  0.6962661613279455  0.3967642522523937  0.0007312673001836
  0.6188776266045772  0.2714659889997936  0.2336768408345376
  0.6109684509573478  0.9296115184388882  0.3955435807423551
  0.4062884890033632  0.9128971645877403  0.5435734914540004
  0.6506715058518716  0.4423732258740615  0.4739755027013717
  0.9084487347772632  0.7566611937775296  0.3733276543943870
  0.7859896164116951  0.8217397749154096  0.3910936982665751
  0.0849567747179741  0.9042939051035973  0.7409669982963237
  0.4403930260718756  0.1161368080279098  0.9793277430495768
  0.9998716967163490  0.8433875655323494  0.8744328082714838
  0.1531741889194235  0.4797957625997937  0.0919444921837732
  0.6587307872363911  0.6546756526390578  0.0028046622514178
  0.3063321500901869  0.0282815839000779  0.6374474598025436
  0.4889587816174160  0.7076586149671928  0.7859845088271602
  0.1638612719580158  0.1689312116644191  0.6992732123148976
  0.7550825740296674  0.9777000316184465  0.9335409376028447
  0.1774729958184726  0.3448401242350259  0.0883131781289886
  0.9486873667112763  0.3671338785658499  0.9941477977876495
  0.2346373784221086  0.0748561247692473  0.3632150995130387
  0.2299954412545871  0.0558731850134869  0.0100173987200693
  0.6824126994651258  0.9298085893004707  0.6015581162496766
  0.3411324711379853  0.5668362353154306  0.6830371688239906
  0.5900661008825778  0.6008571250282649  0.1751027216094542
  0.9881162870195528  0.4945661668031184  0.5143387355026880
  0.7774333723420742  0.2590921395180584  0.0874465256193371
  0.4479755956276719  0.1175461184588945  0.8514677700118404
  0.9995255271868765  0.6657356377805966  0.1685773178605592
  0.2258390143121538  0.9340677476828170  0.3461887464123374
  0.8875946241018980  0.1242602257309506  0.8415300282846101
  0.4434194102814212  0.9103749953882816  0.8805743695979583
  0.2546296356639652  0.5168172747686608  0.3703992369593087
  0.9512252979716390  0.6537067004620057  0.3345190580254765
  0.4808781978235019  0.8583038997115688  0.4880314871379865
  0.9036680871114542  0.9157863731982548  0.2094450650440133
  0.7848298233410262  0.5656187151207446  0.3604757301520443
  0.3820400219307949  0.1793521139850136  0.5643173150467347
  0.4072477575217128  0.5507639585872933  0.1485994233456123
  0.7018018017956471  0.5792453975264560  0.3532890836082384
  0.2985584190012395  0.8962317621777035  0.1916757657580574
  0.2246304838896911  0.1236590175476931  0.0154023454322183
  0.3282855210101539  0.2419726246505652  0.7910248027954723
  0.6071403738204026  0.5234757172946245  0.0262202780740112
  0.3329215699653597  0.6827985730241388  0.1116132438375153
  0.6489911920634963  0.9519121911479568  0.8707065799869335
  0.5685824425255926  0.4145051102333699  0.1810912031357543
  0.7351687493412503  0.4481632936178785  0.8230024913469314
  0.1429008056401622  0.5293839607260701  0.0031128073054565
  0.6584005457467327  0.5846111033283321  0.3759337990933275
  0.0447445747170756  0.2159286301369617  0.1065444958614365
  0.0813558840370016  0.2590545584152617  0.6119700393338261
  0.5177567782663177  0.7051023495286166  0.0662875602156797
  0.5313681388291209  0.2122178224881930  0.3483496525551678
  0.9405123411697781  0.8468966401613730  0.9700527577924721
  0.1101429101121956  0.6509389820650013  0.3962648941780560
  0.5444949982092917  0.1013473527645993  0.8353838976750830
  0.9467805239444727  0.6778107610438237  0.5854037827625492
  0.2412627361023490  0.2139791046444715  0.2941984237682673
  0.3584816756378353  0.8669958272876276  0.2645468169338445
  0.7692806673977256  0.1578617461648391  0.4158662467022947
  0.5873120920827680  0.4448711416095543  0.8567797299024118
  0.5005537446299888  0.5205054947872961  0.4613075121426083
  0.3229136479026028  0.6408039233946478  0.7158484549299521
  0.8079708678676243  0.3226528229864691  0.9324651439977002
  0.6257338755427505  0.2927269892626965  0.7305178936733701
  0.1011351024956814  0.8533121642591641  0.4723374067107541
  0.9630112003245800  0.5238004728867294  0.2954374610226780
  0.0170675617821411  0.2247270647362985  0.0333462413323651
  0.6035806651118175  0.6572281668552670  0.9397616958274200
  0.1029301554605131  0.1819267168373341  0.5847339038222619
  0.6701703069838415  0.2334414157461797  0.3093567016476599
  0.1368336518953993  0.2678959637152364  0.5489266089612604
  0.4689296221731665  0.5355481328818330  0.3072472480368868
  0.8077316542842046  0.9043788518408411  0.2380091825119343
  0.7172173964529551  0.9084731754121801  0.1966013332456137
  0.6229501825895531  0.5938892105842307  0.7898783616613069
  0.5519054386169606  0.7770053245200103  0.0620742355357436
  0.4197932588117407  0.6465867759113110  0.5269039191968410
  0.0959797543739975  0.6684653349447321  0.1532319833529466
  0.1165637437167070  0.5376920161035600  0.0730493554224829
  0.3450182942840893  0.4043426116274318  0.4918710857480990
  0.1952597508190247  0.9683531014848927  0.9163935806681834
  0.4582333347201170  0.7067322632732602  0.0211886156417110
  0.4516982779001489  0.3192424420303208  0.8628415532314768
  0.0877293590173184  0.2900640056410209  0.1995380705835834
  0.5126888332019018  0.6945751033153756  0.1405714048526788
  0.5370423597927809  0.0898077865553022  0.3930219036495979
  0.4038971984151348  0.9017511988292711  0.7568421866663003
  0.8145129296454376  0.4671529361150614  0.2488627648804695
  0.6596964646692911  0.1347751307578872  0.3954426597090396
  0.4598004826822354  0.3868947379375318  0.4008622121869976
  0.5787758517531936  0.1527727147741940  0.2704925263634442
  0.4094188252838138  0.8561225421080503  0.3648867637015202
  0.2745424288524639  0.5050862924539220  0.7715046251879192
  0.6366515528189449  0.9143718349975273  0.0323376458483511
  0.0291304756385111  0.5172377862117542  0.3317513390688412
  0.6992128804207078  0.4162646842294326  0.2745234837420964
  0.8194303770882772  0.7247589954212312  0.7527291144614227
  0.7511346374118022  0.6535894365729498  0.9656060758189005
  0.0572675660457542  0.6628977307459265  0.0577821578595472
  0.8208910073765859  0.2553457568106666  0.0002783583767923
  0.0042767365437400  0.0449566752517752  0.4486067950960171
  0.1090100657068847  0.1421447843972948  0.0695512550073589
  0.1551750148418305  0.6014491935621364  0.9756595747208663
  0.1181970645188758  0.1723885221228247  0.6812868869140759
  0.5223528459071404  0.3337610963673074  0.0131562871524975
  0.8873934751004076  0.5353769970555926  0.2317937491053725
  0.6191034734637841  0.1633319379932757  0.0467340667228662
  0.8383520012665108  0.3373631493064008  0.6185221868158575
  0.1177705096528039  0.4069708432805377  0.0574952848422303
  0.7703577097505805  0.5129566257516369  0.8312054085678365
  0.0664814635836228  0.3486686753013282  0.1590371235992069
  0.0114125753365207  0.5093355345550973  0.7763571376553444
  0.9840190945148580  0.4519591278416966  0.6950466134668798
  0.5970793404989029  0.9851302662938960  0.0189668562080421
  0.7022756646196098  0.1708792924910013  0.8137899569663543
  0.3332337646517682  0.0373064242522539  0.4585253698832849
  0.7579521773399942  0.9859865030512499  0.1139897976948240
  0.6315495105408291  0.6753672953274199  0.7851752567334130
  0.9717966805863357  0.3869798336482539  0.3813735686447214
  0.7993817994956786  0.4109179436498320  0.2920116811354750
  0.5735468051998923  0.2756343147410883  0.2538281466555783
  0.6952061414771732  0.8579856975483491  0.4577768992744941
  0.5487505727954697  0.6428298937127932  0.6044019498424238
  0.9871045865791621  0.1711101799303050  0.9508779498452586
  0.6827395534692920  0.0696254858267563  0.5916955352205173
  0.2047275535289215  0.2768058081112913  0.0750495604815773
  0.2751121465047764  0.1503301168474700  0.2189831428054394
  0.7414136916770928  0.6640648051360183  0.6450980148326866
  0.0438222232906496  0.9332811333946648  0.1277493450836345
  0.6990442868911541  0.7984905231894096  0.8767402721641525
  0.1858647858212682  0.7041178062166839  0.7447367530100923
  0.0262958868220285  0.2878913069658672  0.0825058592565852
  0.5465033469875858  0.0232053560948526  0.2019021066093998
  0.4662474549886859  0.4641016055533469  0.3213275739261139
  0.9619867271159560  0.1497521941999704  0.3059045561956152
  0.3956624210095762  0.2174498327281474  0.2109222421083212
  0.4622712760264475  0.3879198071817749  0.7622180283404607
  0.6499814997831230  0.8941881412294153  0.7524296540713318
  0.4095998596508734  0.4300080246577747  0.5431317720474693
  0.3518662605621413  0.3063553893638761  0.9596062744950592
  0.0050266949441051  0.5267153930615920  0.0525450243879181
  0.6537347577370050  0.5112680585301226  0.5856735127517259
  0.8707908312610951  0.3130293264227503  0.8770192409230100
  0.7047437469084779  0.1112781075882542  0.9521672071277453
  0.6170556829813283  0.0394498217871504  0.0743638734251855
  0.6459111817279357  0.5778994218232473  0.5716366892428589
  0.6431456198735355  0.4686917558343270  0.2078985130360960
  0.1456268194688788  0.0164072579138606  0.4199225515774593
  0.3767283170002747  0.8286000975708544  0.5314697853074376
  0.0127199196668576  0.4389092769732642  0.7635412466188281
  0.1495400938225268  0.1149370246549298  0.5880725607085251
  0.7746120721373162  0.1189552044710373  0.9276891770417623
  0.7740219575544877  0.3331613151424733  0.8679628878436827
  0.5403844629397738  0.5751431099332212  0.7385708181658615
  0.3385553106836238  0.6031064604264798  0.6300982129164276
  0.8537838957741640  0.1705464216061414  0.4747197888088407
  0.0082242120456105  0.0530516001712775  0.5787460487687170
  0.6985775455930853  0.1014149767367714  0.8959077752706965
  0.4519185956475296  0.2217091030691516  0.9898400520799474
  0.6615234449309655  0.6764776085317284  0.2430876500344502
  0.6795676671979700  0.5981233073417097  0.8395239386703283
  0.0074143754222487  0.4087718546693977  0.5942379785023054
  0.3375629337524350  0.3016449769104491  0.9077496214169191
  0.6449321043189481  0.5192466671780640  0.0597937720977723
  0.3319573050162313  0.9085406158963697  0.0434803401828989
  0.4342498314299589  0.5715756278535351  0.5835858794716001
  0.4488985754855143  0.4502827243342173  0.8837361751893735
  0.7514325041454865  0.4825704303897445  0.1837607777001571
  0.9192746706450102  0.4501063454489355  0.8078254633744513
  0.3077452245984420  0.9469944978797977  0.1947596448323047
  0.9614367985160965  0.5955187263418006  0.9825550777713655
  0.7114718548158058  0.2910961930552823  0.7381145251512785
  0.2208865535056383  0.0126566509534151  0.3124391460071101
  0.3259727884321765  0.1032503725173400  0.5290383816160407
  0.0112071273967853  0.3907430289315497  0.6906729257900721
  0.4693479863822861  0.7354384844947418  0.2992177030426809
  0.6003656811489921  0.5318298229587590  0.3050062471719172
  0.7920838446585466  0.1245300383592934  0.0688430740518838
  0.5541924014861351  0.7250712932935016  0.9201564333596570
  0.0046856015190423  0.0783226702007048  0.2095363725462748
  0.7488243035281126  0.1234227311103249  0.2889938099642859
  0.7059108214182949  0.1403785392903465  0.6368525832386778
  0.0062677408181591  0.7059827371903847  0.7100273065612500
  0.3744705379042357  0.5691642903165874  0.6286606623581713
  0.4423992608173287  0.4338292183908081  0.6030940446744968
  0.7212690836607087  0.9630988909885875  0.8582998081256258
  0.9298953599838392  0.9784524759732448  0.8414599819770434
  0.0267148219829458  0.7034499184028250  0.6899703544311726
  0.9626101885654589  0.1467568468699407  0.7549178511453717
  0.8689631320187557  0.6516788817663242  0.9578748529021651
  0.8435411337316694  0.5157755026037849  0.7445330692017399
  0.2620729365305980  0.7624847138552062  0.6718679732489595
  0.8230353275414388  0.7300893326459539  0.6228287120440075
  0.8746383271780936  0.7729000034222159  0.4705998185898108
  0.1657793007656368  0.4143572203406188  0.2236631047154863
  0.4887279010606496  0.2208470295806742  0.1862577087182633
  0.4981850316902230  0.1402233049840942  0.5348198874461189
  0.5684273966973424  0.5061586626046669  0.0667522432756570
  0.6008467020010284  0.7355589478822444  0.7165457114911957
  0.3769534079249983  0.2403294318062610  0.5426720200054528
  0.4886460361695197  0.7754899600792368  0.0194459002240428
  0.1746835272473841  0.8395479049910861  0.8769915827320417
  0.3871014890429099  0.7937513670899770  0.2891977703345074
  0.3453812573576125  0.3792412639112987  0.9403952429552251
  0.2306185114005362  0.1082468411565062  0.8878897035859098
  0.2983546587276836  0.5147196942293046  0.5517310224673219
  0.4879009794681404  0.7755864344715728  0.8119122261284898
  0.2630934228943370  0.1925040467995950  0.0537382409520408
  0.3653123286342487  0.6153636290946810  0.1577713005261580
  0.2941780392328955  0.4073077348711843  0.2021181194657081
  0.4667465813904659  0.3184122285304549  0.7167938636423783
  0.2408716725193767  0.9255833947701486  0.1085359425267921
  0.7976732125458460  0.7935647190081291  0.6081188251252170
  0.1060585285762948  0.5982607321003754  0.8910336729408480
  0.6892061717708955  0.6519604678986534  0.5806458504461682
  0.8870849576888539  0.3278939950875552  0.7032346504567915
  0.5526882040923196  0.7658517461235629  0.7769661308989568
  0.8055390623882165  0.4737703535827467  0.1725286889500154
  0.1165495894164684  0.8739088779116090  0.5708013441379961
  0.9542271101516077  0.8538350168043942  0.1394829749754153
  0.9203036500356250  0.5851562946451466  0.3127320911607081
  0.5315843356037248  0.9862823378102774  0.9654533214799400
  0.6686730140662447  0.0297459833889219  0.7686719121880047
  0.8627946334228612  0.2597565252185550  0.1122914080102569
  0.3139512645292213  0.9855623798323790  0.3858202846875089
  0.0186276513166943  0.9802515208762544  0.6080893552535996
  0.3997879749547348  0.7062549161968560  0.8782633204213506
  0.0612100876806918  0.1734558922306089  0.9649148655414153
  0.8134120330259830  0.9780509158682236  0.9349098146425217
  0.8902788821953451  0.2599853920454044  0.1192330203373421
  0.1873138226169040  0.1359308523485535  0.4188869716713201
  0.4265488531077029  0.7712563235094746  0.7688135860155627
  0.1692815089462157  0.0014944778096962  0.4275751728053334
  0.1566722409476358  0.7377000127783250  0.5791300048219924
  0.9088837578169585  0.6710491886609977  0.0518066709333527
  0.4907080838039571  0.8426067094733946  0.6854954831876812
  0.0216088066751552  0.9824425753250253  0.4858416001169883
  0.6455617935721063  0.1619191103663664  0.7404215100708553
  0.4943238935866215  0.3130625699773973  0.3619023905856921
  0.9676486391126469  0.8433216952077933  0.5868184448200411
  0.8075458000318011  0.3298238249602694  0.8028116672397009
  0.3972830606910586  0.9041985278488179  0.8904871065249051
  0.3688721463356538  0.5444549444776829  0.1176667552799747
  0.8813265318984580  0.8364460986092053  0.4404675171660474
  0.5008371472090857  0.2382793280369103  0.7872071648010133
  0.2470348926337640  0.1668037175525774  0.6885443553411243
  0.3828619027803677  0.1797535791256037  0.8736083512871581
  0.7958150751765046  0.7092558070152163  0.4020344878070535
  0.9013695820970488  0.5161949377228446  0.9065633012636912
  0.4555188310233307  0.7036601390354122  0.7180214055425831
  0.9696496575519201  0.6595274388541341  0.6781083854028752
  0.5883091016955748  0.3032358669755483  0.4482653333751302
  0.4784407726627357  0.8230975493669439  0.1491791405113228
  0.2718593278836637  0.0863098436358784  0.2536460166363617
  0.8033310578466342  0.2619050480940470  0.1714708203617159
  0.1340710680117491  0.2638640521051293  0.0085902874504937
  0.8127168983842418  0.8863107615666181  0.3339890031547395
  0.7216248088566124  0.2128658307384743  0.6971815468428851
  0.4853990939684178  0.4888697161186530  0.1116964605022594
  0.7870012845729352  0.0679439288231607  0.6312989563723437
  0.3391946021453382  0.7834350909434944  0.9213172537069375
  0.2222933845201606  0.6759688940672292  0.1753841746153607
  0.1775919769208734  0.9649879035053180  0.6785525938662271
  0.1234923961320702  0.5127247153794838  0.3736698015077317
  0.3685997035246256  0.6191041719017290  0.1087709259240544
  0.6848118839189672  0.0939636985623084  0.7809487600930424
  0.9947120237794074  0.7614663627379401  0.5173366320930944
  0.5888258119445335  0.3859599272953870  0.7832855635926800
  0.3718741489542006  0.7689516130227532  0.7542167287301769
  0.1983010614138784  0.1694619206720621  0.7445125214565042
  0.5688951314302455  0.0858540979135664  0.4314695487021454
  0.8093713188715442  0.2608257332265045  0.8238347161124465
  0.5646406567510664  0.2181212073965330  0.9254165118468674
  0.9928310882724249  0.3409751036295851  0.1580108788585882
  0.9194746189251560  0.5455248644476005  0.5090748552918153
  0.4807618934669014  0.2798972283496014  0.2118692721146026
  0.9544691402658545  0.5144486453455126  0.3431951204983280
  0.8853507071069693  0.1901430419143929  0.8166777578840528
  0.6138666935744829  0.2216567956203695  0.7290235797935436
  0.6894292096303574  0.4323755677852867  0.0845201278875309
  0.9050693202365868  0.7723064408463548  0.9103467718429036
  0.9375659749420955  0.5106955899340619  0.8633168368277288
  0.3597164011951277  0.8994200840085492  0.5455223047044043
  0.8558268349507865  0.2580402298357912  0.0855918402010367
  0.8392576575054942  0.3197583641743139  0.8396415015134981
  0.9757483421483052  0.9824063896077251  0.5055112333617895
  0.8607376852173115  0.3979194382814670  0.1652024800683989
  0.4127564195271295  0.1334870922894121  0.3285346299342211
  0.4124339188521047  0.6455484667965036  0.8249196923732693
  0.7430152304252878  0.0297848859505045  0.2868527621660904
  0.7265744720071631  0.3691781695952186  0.8312040678439935
  0.8684900488485178  0.1621756681297686  0.3002227689559439
  0.8644952836761232  0.5128142811434778  0.6410410586342797
  0.9864613425855273  0.8301389321753807  0.6550778621024316
  0.0406545509837946  0.6383038569010397  0.6805369853982238
  0.9210571542880637  0.2679644234761147  0.6589348941306465
  0.3912268553470367  0.8249307413243328  0.1041219678019618
  0.0885256388589566  0.5353686734158996  0.0679653217917433
  0.6023911618299123  0.6544743477985270  0.3986111709237417
  0.2052361318393297  0.2841285427605844  0.3850041886895406
  0.3219529583534309  0.2424406335162165  0.8189817587411450
  0.1403647381962798  0.9971740155908371  0.0920443402371999
  0.2788136082377662  0.1487675611390973  0.2467742397885198
  0.4264344403082404  0.7768154326695276  0.8715733950267849
  0.9972164280581195  0.5773467849296711  0.3776612706612668
  0.7379750699998058  0.2603166559401908  0.2072711685096274
  0.6124403685987628  0.6571146114572674  0.3724047053114211
  0.8575516998194787  0.6455909844542607  0.8754257114747267
  0.4126715695681438  0.3500185657088152  0.1021841961839728
  0.2916666795898611  0.0353763873735508  0.5509224637823188
  0.4659091178720263  0.0611802942196031  0.3566596954147966
  0.3588703154185736  0.0373164329042634  0.4699746144117195
  0.4588617088367874  0.6921915539246689  0.1248970673355620
  0.9996742445337360  0.8068684522058945  0.2361818099830804
  0.7743524420853783  0.0797471955715345  0.3557658574746469
  0.6244513150168671  0.0809533085437676  0.2677414251678052
  0.1689930520989274  0.7866991300440800  0.5469176916020720
  0.6329615291951934  0.7156699550863028  0.5818562174534958
  0.8335221336391911  0.9860142177611176  0.1291855475029832
  0.3717259057223654  0.3059618929594620  0.8103424629642942
  0.6065631447300192  0.5113896252827965  0.0983665359443199
  0.2583485005617999  0.1019719479259842  0.9273654693904204
  0.3086615474274258  0.1656304763043030  0.9263191977627524
  0.1275253971796318  0.9152560324153547  0.9509515433594055
  0.2873960381670618  0.8287714018114283  0.8232825443084780
  0.7328927608730311  0.7877387624195497  0.9100054123296639
  0.4866580008328978  0.0069342006838466  0.2598422670703890
  0.0681400018833824  0.1708717142759306  0.0142199728790186
  0.2540999702711632  0.7035570642204128  0.9151025938719800
  0.0795053426269997  0.1087595820887729  0.4427080911637845
  0.7285731169616081  0.2586654875034617  0.1071060427119486
  0.2615823444478937  0.2148512296631070  0.2748220322796482
  0.6158042857028871  0.5272365335392667  0.9779565312665858
  0.0234742001003804  0.2630641160707290  0.6025879745316426
  0.0711652829079408  0.2398949682637197  0.7001347025367356
  0.0484260877212618  0.7233854803202309  0.0844535075402179
  0.8962213791087882  0.0107519880884145  0.6817721207253962
  0.7168404005346458  0.3820980184786433  0.8538936745310022
  0.4941288566312682  0.5250262195116432  0.9320839475509000
  0.5222382667574224  0.1765449141631088  0.7125179365781082
  0.5135093060524734  0.4360393708033223  0.6404474907291127
  0.4538235504295912  0.0345965747616464  0.7413028566332567
  0.2538322928626935  0.5282412497256216  0.2958473958549928
  0.5801012945363174  0.3713744387709075  0.5852771955853505
  0.4818937956600277  0.8550311420225641  0.5375689044073830
  0.6011405941243360  0.9011920231279578  0.7622023164197889
  0.2119547981418179  0.2637892968381071  0.9817567859447300
  0.3157381500891714  0.3261859488470008  0.2911542311218099
  0.6122538970605018  0.9584692043351053  0.7769364786568317
  0.9106419363523000  0.6067117595135620  0.0677959170254209
  0.5519624318690667  0.7058772828329788  0.1009719305192926
  0.5190947927331249  0.9713317408637819  0.7378665333258171
  0.0841227822634062  0.6026262354489585  0.0196170742448201
  0.6261372791900055  0.8148867583160018  0.7173831789077921
  0.0620300882886073  0.6094507151178419  0.1463172063450660
  0.8328330441075428  0.2023240955895415  0.5985762702680280
  0.4264185901009613  0.0504621090237782  0.6323537593324478
  0.0660531263390069  0.8630047186592847  0.1400438733083855
  0.6394409293639285  0.3947548835696723  0.0038767422920057
  0.4179489433240519  0.9076241830570713  0.6549014176341010
  0.6897965232350116  0.1835614347243152  0.4458198230243443
  0.5896261294130203  0.2858811717346224  0.5175583204799311
  0.2098964297500081  0.6728684992001606  0.2495763786734126
  0.8215592218516163  0.0542330031124665  0.0005771675618812
  0.5857565889788375  0.6658102775916429  0.3035264648146407
  0.2388741569578968  0.4943164424044932  0.2813299839725755
  0.4357696784900823  0.2469684486495944  0.4465769872953639
  0.3496914199071560  0.0975199446965366  0.0737058084864747
  0.7093412721557993  0.4533834380171791  0.8316018038930011
  0.6764355018439636  0.1373218720713439  0.2846704164662004
  0.3475276372649652  0.8960682626467436  0.6760245297975539
  0.4936185179464974  0.3257179428069567  0.7018349948867985
  0.1797943506546600  0.3466114629644672  0.4390919024379395
  0.7563520897316313  0.0789355156350313  0.3342265136861814
  0.9144270309656163  0.1972656211711955  0.7364676352948565
  0.4459887308552551  0.3081915654517644  0.4194757799066408
  0.9096425255451333  0.3016978959722409  0.3854999238355958
  0.2861787252092490  0.8048733670138990  0.1017912951579007
  0.9735673290760254  0.1841400257771898  0.5785098168349014
  0.0989628287842119  0.6061360790108998  0.5592775501533024
  0.2764044433887038  0.2446623006342564  0.9115843801943246
  0.1495700573018311  0.1169409606668369  0.5380998831550881
  0.0922531572190468  0.2277841411549477  0.4018048893499501
  0.0622564694757506  0.9552084296323162  0.2868663177058129
  0.7403428526248468  0.2093922879657883  0.5611914544819994
  0.5242499467093398  0.8298321293028278  0.2230280805869751
  0.0208976695384579  0.6832718820025185  0.5955678222410989
  0.5798859017234289  0.5106848317053061  0.1399193912079054
  0.1079699715512023  0.9034730211415520  0.7243497162731145
  0.6815611004419670  0.2972776723682838  0.4804040490727607
  0.7845436277975943  0.0520698006462882  0.9585505296213434
  0.2748650788210132  0.1045399608768873  0.5029529639272533
  0.2170353658993493  0.5279624979484562  0.9917697003944606
  0.0054492515166480  0.2973393647707717  0.8194164398485180
  0.8228059182005484  0.7171955243575178  0.9144360777636936
  0.1800865645255817  0.6633429409231411  0.0523529235116966
  0.3516373658727411  0.3310637398514018  0.2591189074776720
  0.1362089620454673  0.1828086788928852  0.9027641347963792
  0.7272469760241421  0.4966939156805023  0.1117710446289558
  0.9531857857999364  0.9308480381801024  0.1465226839978309
  0.7671437110358830  0.2611278022521434  0.1372489853546384
  0.3779875487469182  0.7066659409851102  0.9986698027890849
  0.8284448377190116  0.5009044824371218  0.4941768121107648
  0.4842664628354035  0.9806913786311430  0.6491149697636686
  0.1471444494496777  0.6568711280666437  0.4915912011285594
  0.9841323415260739  0.9576768904147932  0.3197897115722825
  0.7209896828553738  0.7807398031252929  0.1062728996808657
  0.8064029753000329  0.4133924275021049  0.7313187667441159
  0.9397712754706637  0.3344182531458748  0.1377949339153336
  0.6157500634086815  0.3914180979383743  0.3410780714565158
  0.1215653455803500  0.1501190735884405  0.1822004440932505
  0.4909758664967435  0.6383270886531315  0.6883739250914082
  0.0757194468089290  0.4845777616317110  0.5204446023114219
  0.5850824557563135  0.0809303242878125  0.5729417005315193
  0.9573450819400184  0.2575415756246329  0.5644927414467360
  0.0158313833633696  0.7913116244183734  0.0541105100618736
  0.3986457558465417  0.7027879710472020  0.6314074006901237
  0.7665029310198496  0.5765841519209502  0.1339173090502737
  0.0285938159126794  0.7096043082720063  0.4543292168897117
  0.3505134409781559  0.1056650265371117  0.4861612294827987
  0.0947014382595449  0.7306110457602198  0.5211675390450494
  0.4718039074436384  0.4483068089937142  0.8978806233507712
  0.7360701590997452  0.8208093382932327  0.2568155559397505
  0.6099555562226208  0.4387005029520266  0.7602643171392759
  0.5949948347063948  0.9317382023222242  0.1987529200550885
  0.8844296612743597  0.0895102587031595  0.2610724423205636
  0.6584959176567857  0.7949423565922640  0.3895810190753919
  0.1707757407869179  0.5283925909011800  0.0084759934082892
  0.6121697175331676  0.2194074344509262  0.5052885289106951
  0.5605897460545395  0.9047022671365411  0.8256758425841029
  0.6620945973956449  0.2292610634292495  0.4483790824702085
  0.1712755127348431  0.6790445257581279  0.6146831653783412
  0.7341700034667751  0.4605706989823830  0.0050448818291076
  0.8140124226391811  0.2037388313036979  0.7274571433880618
  0.7260226337525356  0.8204791625166664  0.2300398017486582
  0.8331222707105616  0.9235140956618347  0.0161637667519486
  0.0314396074214837  0.3669924454957100  0.9395597776060716
  0.8224091105342795  0.8455539079691735  0.2218788517893333
  0.8685362549407841  0.8518021733349166  0.0433309033839232
  0.7278272127472833  0.3287365624141133  0.8730179297742684
  0.5542808054152730  0.9090479211899115  0.0434665501668092
  0.3873178299007818  0.3083061832774374  0.7863729479884130
  0.5529314473948460  0.0376354042378682  0.8133534481457604
  0.2840681754647037  0.6417173135759722  0.7459135317788408
  0.8720347527943997  0.9191310054238169  0.9387364108366496
  0.6456221649067383  0.7418877327017696  0.7554586698842117
  0.5130775488716089  0.8485176033496670  0.9781044197199096
  0.5203418782447207  0.4726037831539664  0.0182206721045640
  0.2889052931702572  0.7200903674316563  0.4351359273949936
  0.3782109983664235  0.6923319682316198  0.1006912729293701
  0.4036720187332635  0.1741592051425855  0.6899777594754178
  0.8577561606085424  0.5781202540166955  0.8539492915236662
  0.3465288401027809  0.1610868904551929  0.8968978948186063
  0.4089833497756533  0.8548451756314521  0.4141192214085907
  0.4939757217049701  0.1236570885103869  0.3912963179129536
  0.8843518581540383  0.0957398587083582  0.7852612794990915
  0.3766905673616133  0.3095750783515165  0.4041537353153169
  0.1330739598912838  0.2154859037813692  0.2616695514200963
  0.4774716161025375  0.5416498356190678  0.2586500830039104
  0.1822820564738430  0.5856941867925056  0.2717168397044396
  0.3574361482019104  0.1465116755219573  0.2795376967237218
  0.2383981942540007  0.7304769097503879  0.5547337949637225
  0.2442503326314023  0.3418808842298979  0.1629903737061148
  0.3816020793902580  0.3051282324103692  0.7109731221001937
  0.8200864996657503  0.0883057469722098  0.4000180070819703
  0.0837325340892845  0.5297161799234877  0.2678360934979962
  0.1898074404346181  0.1993148533468196  0.5062397213735116
  0.0463078351559835  0.0896311724662145  0.7811678772561262
  0.7219546185524169  0.5962368822883458  0.9133276017602945
  0.0055297909015833  0.7459280294665619  0.2727099513311200
  0.1311440613904395  0.1354752430461401  0.0538641381274171
  0.8877927067609089  0.9190043507039763  0.9149737681469000
  0.3086784514037219  0.5357439489930282  0.3067351456387746
  0.4929563468077811  0.1087105295448585  0.8162471490499970
  0.8088712229320946  0.5887775247181325  0.8128189382240472
  0.3482920404970130  0.2410191822545165  0.7054423636939090
  0.2612258718343654  0.6336091349182624  0.8749990105801235
  0.3074528633469129  0.7456257494313158  0.2240722780006257
  0.6772387490569006  0.0939788794785177  0.7229878875529533
  0.2495099128030117  0.1212974268319970  0.4164078029394520
  0.8972001942868296  0.3115008011527182  0.3028177529806214
  0.0149433503763141  0.4800802621546398  0.5794345595618726
  0.0061422513809116  0.8390869855826993  0.6114191561478414
  0.4775060655783999  0.4746244917919640  0.2456349451733743
  0.5962886709183409  0.3697543690067876  0.6598571618292978
  0.5408817909979304  0.4457824326654168  0.8664670508695055
  0.5388922903642616  0.5788497829763029  0.7877519255485218
  0.8313344364167533  0.5320866690507607  0.5626734172690833
  0.2206365703132759  0.4209517550379026  0.3703036327277207
  0.0631196296620662  0.1464156321248965  0.1029234703089918
  0.2504545863632255  0.1717995951996715  0.8117579266503919
  0.9413311166042433  0.8454319226051923  0.9215854485773342
  0.4745513966264537  0.4540991539310013  0.4436922626274397
  0.2497142213058235  0.3415841634859855  0.4143509161244981
  0.6252219368373754  0.8529100214141979  0.5318129785461129
  0.7300120433164499  0.9174857866837015  0.5257457883135328
  0.3026481064256076  0.3666247152481349  0.7005115060587765
  0.4750196899836358  0.6480200554820774  0.9389400545635719
  0.7839146741675727  0.0524353907493024  0.4475481022331038
  0.8326075131562078  0.3640785814158264  0.4798415162190635
  0.7284827457694348  0.0100548330699539  0.3280393156431840
  0.1686733800521477  0.3420405167856260  0.1641154025385933
  0.0103687497427632  0.5966595255779910  0.9803947588214889
  0.4211223272598836  0.1738415028216744  0.0171943487041385
  0.7150263489224833  0.0349285894464083  0.7540583229095462
  0.8863300542929115  0.1139723895281940  0.5191628482726847
  0.2160045697671955  0.1956894972580291  0.5141547857865365
  0.4963337231913866  0.0420671196923190  0.0185066191406377
  0.0838530707631664  0.8134342620621458  0.3146798081839938
  0.8261401269236950  0.8564667877080233  0.1187637261092176
  0.6579285972667372  0.6013386168747941  0.2065054528654563
  0.6564432392593833  0.9002853845297151  0.8088737531021341
  0.6683626609368929  0.6546288443280411  0.1499797522511433
  0.8514182539305455  0.9858980597765240  0.1072560687079495
  0.3543891241244728  0.7280575602094213  0.3621997547169790
  0.9871780471944060  0.3405225994359605  0.1296440027103228
  0.2868216638671347  0.2331368554364277  0.5846706813782012
  0.4456043664166859  0.8328797635346324  0.0527995929748679
  0.4724660914337032  0.0628343359340158  0.6255941563794740
  0.9269925447350740  0.3073727656085661  0.3400418963411368
  0.2921503978842370  0.4040697610253581  0.2990066863366576
  0.4246643576717575  0.5538634179794103  0.1265315664186258
  0.9102850277950448  0.1150340773555817  0.0406308923842117
  0.5779153697673165  0.8637873354089352  0.3635136821198063
  0.9384696722667112  0.6953209820093723  0.4357917638061805
  0.6014342781157943  0.2340046593325314  0.9907511290432628
  0.4077951766563314  0.5908789877930724  0.3585843054935228
  0.7160131614348052  0.5083214908005036  0.4715773405441818
  0.8539263274255182  0.7739118922979064  0.7971367920426823
  0.9894896154671570  0.7696291689017926  0.4402699958776013
  0.4013515105831867  0.9186534737312024  0.9671258293825290
  0.6886038951994405  0.5811443230850845  0.5491755707573348
  0.4072527027591151  0.5124675375937865  0.4208255721732874
  0.9210200465321499  0.9047170327014311  0.4985783423531201
  0.8396655911950429  0.3322762053360571  0.7117476937363864
  0.6512887403488513  0.5976327586918531  0.3031469517879125
  0.7185434647907182  0.7863374310132439  0.5485107901749797
  0.2629284436899168  0.3856864607595979  0.9889313379169473
  0.1264526551448156  0.3284156522044845  0.3884199402028863
  0.6005648036765142  0.3790168477581150  0.7589328160333400
  0.0330436903454116  0.3213457287373285  0.2493931383985772
  0.3345673696982723  0.7847397980355355  0.5045445875035265
  0.4359638628477581  0.2752683290312704  0.6276202245826815
  0.7376018330465938  0.9157186142813309  0.9284883767127937
  0.6290097660406161  0.2217368569043411  0.3237678917276064
  0.7450365312027512  0.0569652394688015  0.5122519118674541
  0.5056424882158856  0.5850821707079528  0.9358751297972991
  0.8563797143356068  0.8420660055265622  0.8716629148972556
  0.3999735843381433  0.2991556762928100  0.6908417848477212
  0.5852929420183446  0.2950181723897347  0.7025835957602377
  0.8500129806470802  0.7839796578764934  0.5409490816472788
  0.6734810576015676  0.4368161099214854  0.2278773965603351
  0.4110142486602368  0.5955016739284932  0.3094828860064842
  0.1872532248128601  0.4716388242701156  0.0147339619100542
  0.8031429478208542  0.6341555316295598  0.4887314411794885
  0.6646564676868276  0.5953679508492749  0.9130771409187274
  0.3241641509873185  0.3734329983845068  0.6049390370001042
  0.7107817843988563  0.8003129336176122  0.7694069715502220
  0.6279757469417401  0.0896601663537751  0.7307146073209959
  0.9125057783932320  0.3855388854223325  0.5275305743227087
  0.3035106112384205  0.2995241329961075  0.8739072705779402
  0.9502136711543223  0.1259801042650024  0.5812359633320446
  0.4655812172074997  0.6225501887255391  0.0377177497818080
  0.5976362168773922  0.1493272199533780  0.5600657935653652
  0.9980485898262652  0.8459126239480849  0.4901095389522026
  0.1517515649439660  0.5115054669281938  0.3782934409919417
  0.5321237256574219  0.4608165994501979  0.3984408148246714
  0.2913063924056062  0.5205265110875817  0.6001147178107417
  0.3811714624732118  0.9070171661757972  0.0386445917736904
  0.4080475097301027  0.2254746802938873  0.1633361884707378
  0.0056202897983766  0.2638183079562900  0.5497555149843478
  0.3467203200162787  0.0990745095450302  0.8372388101546860
  0.4414419968684730  0.7162344225957835  0.5413629143986889
  0.3084280970891375  0.2648947619223533  0.4494268992370138
  0.1082866351389350  0.9611960267505224  0.7668981545843718
  0.0374195020375874  0.5249483092032448  0.2838880790528900
  0.8006296343391145  0.1197326380497520  0.9386432114908785
  0.2751260184547146  0.1027852996654600  0.5311099262100498
  0.0590755230924192  0.7831137526048482  0.8864513433827617
  0.9037307114266078  0.4573644632930731  0.7102011096633248
  0.0628608912592505  0.8854114559008611  0.2828908290185326
  0.0443471246268768  0.3815235857804312  0.4019909734022643
  0.8988593571155786  0.2323186286098763  0.3171645482346716
  0.9934225489107723  0.6927051182332193  0.6551521911108241
  0.7893482807066013  0.4320697976196146  0.4767282211827226
  0.9580366406645000  0.2299044471615853  0.9244247088788858
  0.8911759818263963  0.5874819018857831  0.9406560949075937
  0.5319739278132077  0.9212344859482801  0.5139943718862485
  0.2016061464086699  0.8328892856020113  0.8273244719745994
  0.0622562114920032  0.5319516114472888  0.1382603013657330
  0.2162721902361243  0.9000136470672299  0.8586495386455806
  0.8365639637885358  0.6914707778229566  0.5407931989526846
  0.4383609558929128  0.7029693453163907  0.0413322851486537
  0.0910787551779295  0.4030065669428537  0.5900118606314508
  0.1821406424831542  0.2861225161716240  0.4585544609853860
  0.8456988965987202  0.9214778095513461  0.9898571728628938
  0.4984635664354303  0.0953035798003342  0.0540646853634427
  0.1221742860652128  0.7917653324059339  0.0467533480953121
  0.5477905163114291  0.7860972822731506  0.9591941251637210
  0.5466874111794353  0.2315416889902324  0.6967703454373734
  0.1331121987214180  0.6023258879795617  0.0184908870790472
  0.3567887375061751  0.2375379054762274  0.0733025021206934
  0.9739107898128782  0.3020981227173331  0.7822640322278557
  0.4847271060158441  0.7768570856401761  0.6316506168131666
  0.9652295130701751  0.1245410263630825  0.0908401595982298
  0.4374016369708391  0.8568918686700311  0.4143268352011827
  0.2206693067359224  0.1050071522681834  0.8042288564313722
  0.6961805356896950  0.7867689375852607  0.2021509421489688
  0.5234713195560844  0.2234096099614015  0.0210698148835667
  0.5091492466759576  0.7953401904992220  0.3359784409388093
  0.3309859385976748  0.3677719787174092  0.6991078343294688
  0.6880933904108293  0.7311162527254473  0.3349730523700324
  0.4383148173437117  0.7576151137034075  0.1856842304275838
  0.1844600177541084  0.1785681832522364  0.8455423618266801
  0.6882426890375267  0.7897013830263682  0.0236924975814573
  0.4192169924924842  0.2775209068441829  0.6047036127071088
  0.6370674887939304  0.1474249060140780  0.1595708324935358
  0.2533791168202793  0.6758890746096777  0.2131017119655883
  0.3270432196419965  0.7478660677400290  0.1418194752590328
  0.2958683602846859  0.6063138430498547  0.1267440645343123
  0.9850358938426518  0.9639633228481611  0.7255647848322145
  0.4434315886141071  0.8459277105250422  0.6137738339613147
  0.5703166706764923  0.9015740475718018  0.7252042002609386
  0.2949847898228163  0.2719915924569427  0.3481660134701010
  0.7349627191835750  0.2499433152750863  0.2812965941370764
  0.9135534830839587  0.9529159853405145  0.3511642888300236
  0.3158487401089882  0.7212686573903796  0.4264133844915117
  0.3118101428916790  0.8611905495226319  0.3359605806534741
  0.7862578342451693  0.2559045286682846  0.9330347893012014
  0.6262134941805452  0.9127200285700308  0.1560064935067222
  0.9566171762338337  0.3904044315666027  0.3572158092274335
  0.7731102664116853  0.2339671397781616  0.4135271024471284
  0.3376735564140044  0.3461301512788978  0.1616573318699988
  0.4787956345446999  0.9966875975810927  0.3335600877611131
  0.4841562600278962  0.4193262430221814  0.0824984171370169
  0.8342603674193598  0.8545927270236598  0.7745905806806623
  0.2323667348309097  0.5371432997308605  0.2438546763413916
  0.0309057681163301  0.1443931873456789  0.2533403155675754
  0.2981547476609004  0.7234602046824247  0.5098995687972948
  0.9958973104596016  0.8606574702877411  0.1635883487649489
  0.9455244637179866  0.5205797880420684  0.6629645789238873
  0.2581820614969295  0.9859466230702583  0.9822606836740628
  0.2152132047090442  0.8414489929846345  0.9774502927817244
  0.3320317498018637  0.8309834841958581  0.8449929536373298
  0.6791478442405804  0.0673769186497720  0.5634697210567767
  0.8559913322474076  0.6474935129549367  0.7203774601531868
  0.5758580417690123  0.6448375404344093  0.0193018809915101
  0.6194195648939426  0.1476587493318069  0.5159207315194067
  0.3424464884203193  0.6943906220558814  0.0644278521933502
  0.0800918688949734  0.9025081233039043  0.6837531394050346
  0.0592735089265468  0.7342909119199643  0.3398794402919758
  0.8114428139367116  0.8495735139743602  0.1948810428671315
  0.2050182210458554  0.2098044219846744  0.4608056104685038
  0.6931328358798396  0.7398453888882278  0.7666417977644099
  0.6950382093422032  0.5143229880306275  0.7676011748552906
  0.6074198006927917  0.3931807937696062  0.9065868450958409
  0.1774288689525201  0.1467668916430978  0.2319467800062019
  0.4045903011873034  0.6419390998534000  0.7768359183563888
  0.4020950493351432  0.8367762766987542  0.0302700745265261
  0.1293630724220816  0.1090178017279462  0.6322203983935308
  0.1436042030077944  0.8704423567775068  0.3323841486983292
  0.3270107552859014  0.2642962703494454  0.4285578853049263
  0.6630730060352662  0.1356331253242703  0.4838016316737579
  0.3981722138249066  0.0244207699623495  0.8488945762567375
  0.1114861044729897  0.0550981911068619  0.0453065727958755
  0.5630529911480820  0.2857022809442696  0.5270232295903714
  0.7704554696098371  0.8828208511343129  0.3104186310860687
  0.3738126203034322  0.9707493961872803  0.6642624256568840
  0.9522436043210164  0.1768992737893011  0.9899766255455017
  0.2073980835490596  0.7873523059159759  0.5759519442065250
  0.2233209141409287  0.7226247765285151  0.5083695724241569
  0.2538295624166918  0.7915921125338986  0.5649243563246922
  0.2719884423884433  0.4837942569272257  0.1638885652912221
  0.0904179770470296  0.2675321186515506  0.5656216068737213
  0.6847674212925980  0.6620125091102173  0.6541711299661591
  0.5461431023114127  0.6079960240380754  0.1981351395591075
  0.0556132990855262  0.4846543054788383  0.5381394956326390
  0.7603882497879260  0.3284169081417673  0.9403270403934516
  0.6029218029284307  0.0976425370439027  0.0985404951635657
  0.8758808462958173  0.6700185925831245  0.0123305528130700
  0.1234297998434221  0.7932404922580523  0.0753197073176290
  0.9251438534354076  0.5298482099852303  0.2637594232481036
  0.8077359540774448  0.5622609556250768  0.4134598878926114
  0.6948311622104515  0.1739633866812171  0.7665267881083491
  0.0388260170072123  0.9682705508943084  0.6586859163020001
  0.2535755742532140  0.8498230068880699  0.9477450209202923
  0.3604217267363243  0.3240531390285024  0.3079638258515996
  0.9969950159783537  0.9346179990302014  0.1585036942728542
  0.7630985453131770  0.1929874026571193  0.0490535275888407
  0.8886511437767777  0.3950230922401859  0.7223308286581428
  0.6788396940832995  0.3705531977458712  0.5103255041365795
  0.2864250227560861  0.3660889504275036  0.6773300501203787
  0.3128658119490643  0.3773552229653667  0.8437280798929573
  0.1629519034767515  0.2346218699869000  0.7430812917398038
  0.2476412392901518  0.8076002534256501  0.2683371153847059
  0.8097731396467144  0.9672510746336518  0.4832277858363627
  0.0934577295616958  0.2141184187218141  0.0974551978504862
  0.1788172874603309  0.5186004217370940  0.3078158612435583
  0.3856257599066250  0.5783212258537580  0.4801311085610181
  0.7942402768930723  0.2059730511427607  0.6302143248118213
  0.4408744057086560  0.8502998971348319  0.9567675532887450
  0.9881880814391761  0.7909126025639540  0.0639848431667997
  0.1044649262037760  0.8508259128517287  0.4236793980666047
  0.8929961644780819  0.5975232911261255  0.2290026426341657
  0.8575317861762051  0.3344043758807699  0.6383762667865458
  0.8109961281452790  0.1941533472266183  0.1690871973425477
  0.7936317044453883  0.7677787057947066  0.2042212141575664
  0.8184992798998637  0.8509387635026368  0.7978071800171341
  0.4220703215709740  0.6162092283679651  0.1629756193308125
  0.2463099051648495  0.9097108401315653  0.8951279509630651
  0.6293505413725871  0.2914962576852087  0.6817114214073721
  0.2777541104426471  0.2759560746647454  0.3702209527533280
  0.6284195961145733  0.3758726950547801  0.7585795443190195
  0.7476576235208018  0.3862141665795571  0.3883554792426299
  0.5093699115677706  0.2516964530272504  0.3626012043105024
  0.9971720975013508  0.1164145280754697  0.4585329753346815
  0.3820951594709887  0.3086353901057777  0.8871121999930919
  0.1559173123474429  0.8331899464226837  0.7539122962386591
  0.7259340505376408  0.1088687457296827  0.4363966707479753
  0.5340656261555745  0.2333243463963855  0.7523730029777665
  0.7662497879977778  0.0474453470211840  0.8621337853151407
  0.6188243896952802  0.0226752467866276  0.8790849897422000
  0.5702789694109796  0.4020108784622569  0.0340794701756613
  0.4589210259405946  0.1222694342502817  0.9341900022563849
  0.5624877386270725  0.3903973994105043  0.8333170085392014
  0.8846214401655150  0.5894516024624390  0.7372848736135879
  0.1446349200595152  0.5886350726002428  0.4877362312899326
  0.9684176618865102  0.0503950187544074  0.5155614415783289
  0.6644673605099923  0.4402749054051480  0.4994096973515980
  0.3049084725212526  0.1493457479534632  0.2576527989003373
  0.4363300514780518  0.9021792575621720  0.8253998719162308
  0.6223298415052007  0.8568050505205845  0.4354271971448057
  0.3482167277087985  0.9267180145809107  0.3081819229422827
  0.2454998092359419  0.8349341190398478  0.8503164670001813
  0.3021311726847606  0.7857045317948698  0.9854467746040878
  0.2061801631610216  0.8472223670618855  0.9267385036334680
  0.2187359296751204  0.0562595660890608  0.4663939278127498
  0.6531225521477360  0.6728625502994222  0.1940623295517656
  0.3787575923500603  0.3939728121060866  0.8150666286797313
  0.6717038908390311  0.2958063511575775  0.8332198170829741
  0.0831272784598616  0.3068838710867581  0.3942278937647383
  0.8373148155660013  0.9848785607931700  0.0830315324253633
  0.4222893201457971  0.5336135685623010  0.3245336755102090
  0.9634810967616607  0.1869485210030906  0.6049010598449088
  0.1580040726809573  0.1028002306682872  0.6696534642053370
  0.7627027208235768  0.3283993728885907  0.1983107956257043
  0.3555911450856735  0.5393928996653476  0.2894191120169721
  0.8620941475815672  0.3023223046531316  0.3926989675657889
  0.4813958953374352  0.3319814527038388  0.2662452695462572
  0.9160373102613146  0.5838227788693615  0.9293878741508999
  0.3388325079965468  0.3857607824914572  0.5345794830354105
  0.4966744113761983  0.3506846978847634  0.0919626009739762
  0.7375545091862573  0.0534136694202476  0.0190337094485058
  0.4381957110733701  0.9137401304207514  0.6098339957022016
  0.9060491590154660  0.1990759630082384  0.6875508609367847
  0.7555580405541782  0.4724582768780218  0.7043913303923233
  0.4037452115744736  0.4751697553451005  0.2405371062956015
  0.6737290396745492  0.0344351872231718  0.9095087933880710
  0.9014214164317584  0.1626819071008059  0.4176252002296516
  0.0785230446408506  0.9582368804295995  0.3911633157028377
  0.1079111795786969  0.7287867696984665  0.3395893248873559
  0.9611685491305046  0.6024069615947866  0.0938087590679834
  0.5695884032438729  0.0837490968327823  0.2166224768262814
  0.0578312612234790  0.3010111619317425  0.8368046761588365
  0.6212774875975594  0.5935826275181820  0.9371646957067991
  0.6587377258528225  0.5197282418916198  0.8110496216428900
  0.1854354003755375  0.6029198846069764  0.1869628108186711
  0.9066291450131138  0.1826891719504496  0.2416850985811190
  0.5598915806095281  0.4958766932075702  0.1506777479139614
  0.3235255588240041  0.9626528304700905  0.6665315676940569
  0.3002082015360850  0.3750815912447914  0.8683224002366987
  0.3711678226449264  0.3402117121708656  0.2067987807967135
  0.6799418439280782  0.3647031660834664  0.7081404571979956
  0.0304865261101937  0.4294950925452320  0.4483329327113780
  0.7352260492754986  0.3921591259289889  0.9261790710784035
  0.8684494519459616  0.7177399038798791  0.7628163378788305
  0.3918711120889692  0.9106514935364812  0.4576280087854131
  0.3168338586897018  0.7606367496114501  0.6546878216880390
  0.4734702892495101  0.0574365571373567  0.4131928814366226
  0.8550116705779746  0.8476987339319353  0.9203375473146159
  0.9115790357056951  0.8952470635260120  0.4055618681078154
  0.2970205856815239  0.5718410287379805  0.5213675714351030
  0.4888936815463500  0.6085431490030838  0.1944553915047804
  0.2975899641961330  0.1532685698309147  0.2021249773984299
  0.8307913743002916  0.0548466939227624  0.0488810437670438
  0.5958051358190576  0.7511376415544803  0.7628500804309163
  0.5943440155892298  0.7060872716450338  0.1639262153819463
  0.8240075177284069  0.6463802789673918  0.8431266039215950
  0.8926663902877291  0.0345796107328390  0.2571093167504548
  0.8037585370687607  0.7890661523897655  0.5590313499677746
  0.0126605960682638  0.1489351716314512  0.2998950190923576
  0.5215317246788257  0.0364486462533224  0.0561292974732698
  0.3169196107245236  0.8855526292800084  0.8499455494361777
  0.9039365109376624  0.5315972819875270  0.1342433987410175
  0.1976311182602003  0.8313570196253447  0.7285480777534966
  0.2892856598858033  0.7697677658134512  0.7667870308229772
  0.2632786658090617  0.5053472135463136  0.7451392527370893
  0.7829591267236757  0.4597419600391816  0.9451451850384788
  0.9553909948856961  0.7626552802511659  0.6870858542192578
  0.5355936079826483  0.2994168829583325  0.8221354157777832
  0.6360829856165094  0.2173983399538801  0.1726540917209491
  0.0726447547115819  0.7205622271114074  0.9890848217379389
  0.3569245481353107  0.7805947738350956  0.0076820782533930
  0.1076041362708614  0.7213642065003392  0.0241270091443802
  0.0642958385936001  0.0344253555937623  0.7991636137767790
  0.0507545109347331  0.1811393676377233  0.5153345265729831
  0.6351764242598441  0.1670142461594906  0.0001752295580931
  0.9153699316595983  0.5328103982008329  0.2369427940144063
  0.0619587796306581  0.1454078633218990  0.2915365538568011
  0.3874008475752010  0.2633244403275936  0.3157863121810229
  0.6781526128722157  0.3891663727346777  0.3655246616685829
  0.4446327880809413  0.7245583825454334  0.4102149273618547
  0.0904494552653082  0.9506502363139562  0.2444387449475811
  0.2373628205564357  0.1423360893437873  0.3080714184389860
  0.6803334609816671  0.9538964959130690  0.8342136301346844
  0.4470256006297133  0.5518915315082156  0.1791347126881935
  0.6754381922707953  0.9417613448230940  0.3006253247969431
  0.8776449304058821  0.5376982027122000  0.2048483061710242
  0.9778060617475626  0.1729187681437111  0.9774690869643851
  0.9565744568547446  0.4543495015348064  0.6991804378322877
  0.8739634311837503  0.1846992261018182  0.9577768237440448
  0.5249007307108811  0.7033604094357068  0.0936896518873046
  0.3680520755759547  0.9693294411186133  0.7507229466883518
  0.6465777898285591  0.0857778011537982  0.6841269708890199
  0.3741820727496924  0.4017767845624222  0.4449342959687642
  0.0714398015282554  0.4659140620897777  0.6536934094189458
  0.2164798039749627  0.0893348518712860  0.1907961968070893
  0.3720178077887298  0.5451109340936351  0.1924216242600365
  0.4670858828888357  0.5767510696259155  0.8094058601421017
  0.0828397204191965  0.4390113154499671  0.2042986675134498
  0.6371331814200217  0.0820477015804627  0.1644691894997000
  0.3544261874012538  0.2962918850601399  0.6304387968539913
  0.0714737320993722  0.2642346665065854  0.5863168998706662
  0.6910208186452401  0.4577661407232815  0.9121678676197749
  0.5184533257398667  0.2761377028530929  0.2442153230388845
  0.1081506287335181  0.5929067928461146  0.3176525075832513
  0.6650422835154031  0.5962617580307393  0.8639066350743775
  0.2891554638093102  0.0684294516879043  0.3510996174422582
  0.4321022264296347  0.9167675717114515  0.5824107600740656
  0.7684056419521688  0.2584567667021073  0.0597592287187095
  0.3175247946682577  0.0265807339549441  0.6933281041067523
  0.2563137395370170  0.8487080388306107  0.0458551579130548
  0.4563695288755919  0.5690145781263186  0.6849899000342049
  0.2920463026654179  0.9602087828697765  0.7629092045487302
  0.6843782910207376  0.8549535860964796  0.1687400552813608
  0.5772545467980411  0.7557224591650497  0.7840059130699826
  0.2743381683258204  0.1713953492779699  0.8822561543475869
  0.5990077169964376  0.0897071069534880  0.8827253636030791
  0.9763652403120704  0.0682916795547529  0.8403211442902031
  0.4557273928324792  0.8360943194481745  0.7626538978622417
  0.9624335379713983  0.9063973654682629  0.7377655521703562
  0.4080227339168397  0.5236453499971340  0.9188915856682143
  0.4516508388065790  0.1967826912504879  0.3288637044890783
  0.4043908837163321  0.4817051257423730  0.0802969792490320
  0.6123153474472491  0.8519244982375028  0.6047741219551952
  0.0590403744040958  0.5981355303336258  0.9782679198903295
  0.7414314145686963  0.8566453896277955  0.1190361373456733
  0.5121982257426044  0.7746915806223631  0.7139016217022041
  0.8359627165778915  0.2606123250564480  0.8153883162269869
  0.3714941933515370  0.9700983227812781  0.6343017729583176
  0.9671049476619692  0.6333720044372289  0.4173364295570178
  0.5978635951234945  0.2931842906124817  0.4930416899725119
  0.9585715350579787  0.1135175123304380  0.0356225038356282
  0.0242477649108574  0.3482753607963541  0.1973570036817267
  0.8241642223088230  0.7274131742341788  0.7249311054356895
  0.2534649293523700  0.8969801279605467  0.7121106170591195
  0.7833848877124916  0.6943229546364896  0.2960686994600987
  0.7195586556407781  0.0443904575915055  0.9232167828306626
  0.1102066385008983  0.6074288598067072  0.0893031948680296
  0.7816602553198323  0.1386135840660674  0.6409748501236630
  0.3833697143459678  0.7632985550018840  0.0930970493433859
  0.4648762533600888  0.9886667406278296  0.3797514871895744
  0.7246341131555983  0.2460622539576683  0.8745235586418644
  0.2919485291976726  0.8054668687083100  0.5987450712076031
  0.9265157239617947  0.1793213416269620  0.9792647771266699
  0.3832556122798292  0.3887209001983842  0.8647905207953874
  0.5420789756241733  0.1742842395193762  0.6664469497825101
  0.5646080816777541  0.8006461817273539  0.2708407498216202
  0.0028933830243735  0.5468074845903552  0.5271325055978298
  0.7347884675480053  0.5216245297356578  0.8743298170322942
  0.9725331305088792  0.9916004955446807  0.1411635751183718
  0.0126050382094811  0.5179117455431744  0.9280718645177691
  0.7281926815493144  0.8785491455474770  0.2867970209209926
  0.3859059749575788  0.3928431551812961  0.9634563503910480
  0.6738498467147618  0.3263162806707726  0.2875509927060901
  0.9775970073015641  0.0645292022678187  0.1413327766718427
  0.2233945044550883  0.4002696877412387  0.0795430130753347
  0.6807999445448520  0.1264996108200188  0.1550995220843109
  0.4755844085352658  0.3391483590483680  0.0237953465315695
  0.9083907813191234  0.5564534791813422  0.4057032333083602
  0.9839670004096930  0.5102931732507561  0.8469063910173641
  0.5944278053397182  0.5258077590632120  0.8494374531770227
  0.0698614217695551  0.1018623589052311  0.3946045008877708
  0.1435878464001362  0.1863649372275925  0.9515736071574340
  0.8182563332722929  0.6574600928131907  0.0968750940993806
  0.8859604734032840  0.0212469416245717  0.3840036800349011
  0.3588678061820111  0.8878054612009298  0.8725142124113719
  0.0728452066555100  0.2248400629434218  0.3195209054600738
  0.3990094362591040  0.0318152337166532  0.7239192477240647
  0.4599940317626623  0.4680861895907339  0.2930625160339809
  0.8449470699721164  0.1923728585901497  0.2037784786867776
  0.7703183729900449  0.5021476533513202  0.4064072636313221
  0.1458618435446729  0.7954044651680070  0.3504897243705359
  0.5371730169023552  0.2671301042097058  0.9391296978468954
  0.5084266605014296  0.4923278988015098  0.0941931626304279
  0.3155426067622545  0.8951901981466859  0.1446504884054889
  0.6798107241550349  0.7836875126983869  0.5173892129174142
  0.1918766587725721  0.8580863554480149  0.5211276339730574
  0.1394739851458556  0.1432437806293213  0.3230431653581167
  0.9271331244595854  0.6178701308923075  0.5661264304840936
  0.1356462694640947  0.7351110428522656  0.5599614475738319
  0.3461395371361145  0.0870565900805164  0.1883764886766424
  0.3090720393647913  0.4103599792571267  0.1782850891750130
  0.6850147405733050  0.8760274615989799  0.2120013765006800
  0.9665833570749739  0.9761414995314140  0.6748824435107890
  0.9834035583142965  0.5304613310042569  0.6216689177813424
  0.9768929328712955  0.7888283314301043  0.0158388586417289
  0.0541931391868311  0.7361253434303132  0.1863989037731366
  0.6538694831602556  0.6474538618682902  0.1032497309470358
  0.7219427437258168  0.3590847156641365  0.5827444219486189
  0.6387533200034150  0.1051325790675756  0.0055312528107273
  0.2744245645132739  0.0319096176872884  0.5997569209029420
  0.8684860023527314  0.8527984093702150  0.0926610924440870
  0.5506600467902867  0.0974941127423746  0.8912240637428464
  0.1744749867385125  0.3913725832505391  0.6359252953408834
  0.3918195204258343  0.6457877287868335  0.9526016417343219
  0.0331936601017204  0.0994122256163300  0.3518456931855894
  0.0904087261925145  0.1774696223589766  0.4821897329059748
  0.4950124665104685  0.4414267936134047  0.5472049051111393
  0.2277989560154506  0.7725140715010442  0.8101066619058540
  0.6044460970938393  0.9658427714846062  0.1718312446072708
  0.8567160017958249  0.8989560480957319  0.4564274036104315
  0.6713972231314067  0.6029819976785770  0.1820865386805941
  0.9763635440545324  0.6883962380683221  0.6780808013625529
  0.6035150124392140  0.1510447331982729  0.6171491853970041
  0.1668918509181805  0.2145319034092009  0.2973361384160096
  0.5818173264141834  0.2753981186059778  0.2044655866298731
  0.0425748541210110  0.1060921480928874  0.3997058769517662
  0.4342455459105727  0.0517759605809246  0.5034400374762238
  0.9839575962506799  0.0461156787963449  0.4687181637799214
  0.1124980664731925  0.9031549612612386  0.7815206659892118
  0.0628619071292316  0.6108204632255317  0.1743841575594636
  0.2661638315813525  0.4937657345228094  0.8699712560872763
  0.0032633853432555  0.4445433486545301  0.2065861668456934
  0.9894971116301504  0.4100055047885219  0.1824857936154022
  0.4641017074474996  0.9923168622194269  0.9362799101576793
  0.7190550505620685  0.1742627221999879  0.4044390429523739
  0.0520936582431038  0.6693682329592675  0.1893810066767533
  0.7075751881370282  0.5974116809284838  0.9379873430145474
  0.6424598548511578  0.5833993354300533  0.3993916064731851
  0.9918647915149027  0.4130171888144910  0.5210976951487057
  0.0783069177519575  0.7147782051218846  0.9143368020730914
  0.1906552924123372  0.5709127180583095  0.3430574688422990
  0.3554737498278800  0.5969534324721647  0.3054632536359591
  0.6354644514816107  0.5356786761970713  0.1861668226722412
  0.2377785162753792  0.2571452152139960  0.9739378067404565
  0.2130530065048138  0.4767434035296311  0.8613063803416174
  0.9099862153342813  0.2592999592564935  0.0989917816066916
  0.9135437292380977  0.3951275330621773  0.3342169743057735
  0.7273768571198146  0.6679541791331418  0.3561806982740287
  0.7415501717417918  0.7294283008687881  0.8933954371511958
  0.8682626202877641  0.4090584506809452  0.6495919468003500
  0.8906803483785285  0.1448313669504561  0.7119756548670627
  0.6025809859532260  0.0904840684901100  0.9109120522786467
  0.6958840150592674  0.6592364538961389  0.6281729775673890
  0.7423240424856251  0.1086758295362546  0.8604933886504247
  0.1048344341285487  0.8052468270140376  0.1705825799937127
  0.3833935492140505  0.1430287000709494  0.2902767804744323
  0.1170197710752237  0.0315107882345806  0.9172189054154750
  0.2135403126289225  0.6693173908515615  0.1194399160711105
  0.5861915686998380  0.2142727492097210  0.6355102561384217
  0.9227256611051622  0.1789991953903493  0.9517201568909862
  0.7454801772209743  0.6536333365051669  0.8049252612622225
  0.5772356950662327  0.3354801415515196  0.0381238221670934
  0.2611559580628488  0.3272287261149348  0.2965315798577490
  0.1091725033660643  0.8043013681332778  0.5866819936028492
  0.6374770277074209  0.5089006265955087  0.6827928945511881
  0.8611871706839771  0.4552401725961182  0.2447700019363173
  0.2799781629478962  0.4753927349219317  0.0607680183972532
  0.6434509117009151  0.7851623202709201  0.5611955708448896
  0.2929156547585557  0.5017740117162940  0.8746659719718113
  0.9587433939255933  0.1172510992192239  0.4903475645300235
  0.3995144910836618  0.4787277204252787  0.2118589711870192
  0.8444153415281721  0.0175532853291599  0.4005966707072858
  0.9298089786841924  0.9935618246541704  0.6490429795067331
  0.3026283276411313  0.1771364655838822  0.0770299867576760
  0.5704984373691421  0.0367110576011669  0.0592163377699237
  0.8148295075573201  0.9032761076316967  0.4820647730348457
  0.1663235720737436  0.0636000306236505  0.0652088288421024
  0.3017180204722714  0.9982008453674385  0.3334150190364099
  0.0767497635355255  0.7086966785106560  0.8115455932693838
  0.4329051210536126  0.9021240643513198  0.7971424775935682
  0.8202600600102239  0.8676447604001593  0.6325597538352563
  0.7360926863685540  0.9659155521881369  0.8347514668151114
  0.3946393968221012  0.0044292889689296  0.9109122246287970
  0.6074000872161269  0.0791848182194373  0.5563526017660152
  0.2382168608249345  0.6948600313654112  0.8615897320048765
  0.9837150016013788  0.4462215278804327  0.9213017842789187
  0.0405421297066785  0.8472380346987689  0.5173447105053685
  0.1524436319275103  0.0127452812361475  0.3429259316084601
  0.2675493130908205  0.4024693025038267  0.1052798503808094
  0.5242418130391747  0.4437018408925074  0.8195799500392954
  0.6252224815090527  0.6462937480864396  0.5422559787672341
  0.7068238084148485  0.2361121552755877  0.3743254715809829
  0.7648235429295634  0.4592724916899513  0.9220716162859802
  0.1223603450836383  0.3315890132385880  0.3606684857584295
  0.7093746569640327  0.7259032231014347  0.0370188112033424
  0.3496250536739370  0.6799782512240157  0.1942789861158443
  0.1873988887828945  0.0167459959159870  0.2768426494083369
  0.4317710662983408  0.2976393113112150  0.4852634856072678
  0.2196224367579164  0.1819311065667118  0.8897404195397620
  0.1271990704928494  0.1138390210594397  0.6055079407971452
  0.8610285192734600  0.8452759471557749  0.7728876449602722
  0.3035728808309360  0.5304864566415448  0.0818203417446434
  0.6369444562736920  0.5960293604004392  0.8145733805864255
  0.3826443283571614  0.5524404076424000  0.0210932198335604
  0.3467919864086338  0.9686394532765020  0.0742574834811147
  0.6486126836734675  0.6512257708562291  0.4150643074655032
  0.9832049091992160  0.8470749110793074  0.9945864890421227
  0.8096395799200377  0.5883370042828202  0.1086619362984154
  0.2049850117253686  0.7793239652679652  0.5055867247316604
  0.4249328229997413  0.5743059623698237  0.7828194105462469
  0.0204247277167473  0.5230668954851153  0.6532143060623875
  0.3519072658128697  0.7204477063492396  0.4928664078656596
  0.8107583092022675  0.7049248106938319  0.4477672654898325
  0.7182067299559971  0.4597524979057120  0.9063574590703178
  0.3568471412150505  0.7457666652506905  0.2336513470408046
  0.3100915010726049  0.3413733216940938  0.0915126899251305
  0.9236261772614356  0.7347053260202583  0.1808259548517050
  0.1316594792126314  0.7694628037930695  0.6842611895705448
  0.4904093167053127  0.0866556824400171  0.1837239825463409
  0.2625175332312636  0.1049103405663439  0.9545780209884047
  0.2730775135477695  0.7215626729849229  0.0707048763289457
  0.4765838249168952  0.2114729387878847  0.2332051325018671
  0.0845540479523689  0.0352153172305253  0.8805463807351901
  0.9870376972649445  0.0597606947791421  0.1148495529919521
  0.5094224662419521  0.2076409547233139  0.9780457004245415
  0.0275505790268069  0.9289115878869363  0.9016573462211950
  0.1254381615144921  0.8504219135869866  0.0450833603126523
  0.1196608189704755  0.6343329526228459  0.7658014264481893
  0.5549686956729684  0.3852323743310584  0.4334409217855854
  0.0516080604188264  0.7884302587845584  0.3856205709448262
  0.3251890351574572  0.9745846061797545  0.0575388108706344
  0.6356420723903644  0.6465598672031551  0.5159005966129029
  0.1063085396391130  0.0927888268259752  0.3628152171034394
  0.1372836672567408  0.9462805708410931  0.2502950307021427
  0.3699689873260862  0.5682608084822079  0.6810010361736384
  0.0720016413350960  0.2163196324824465  0.1157018842061555
  0.2222329110628967  0.5394019253745456  0.2171487399937134
  0.4864034125744425  0.9739409815014460  0.8058812514722441
  0.6294433788531564  0.5130921480070586  0.3823662954896712
  0.6539862715162339  0.0047646808002794  0.3321956798009130
  0.4924714560958683  0.9121627611178089  0.8749661017217878
  0.1265848009840692  0.3878295571969936  0.7831114578758065
  0.6385231781432417  0.5790865590503682  0.4482116723562641
  0.0123153979857969  0.9795376785828880  0.8502474387609439
  0.4955871932735031  0.8569272972348978  0.5123933892960038
  0.6518705236761081  0.9278593268049696  0.4226997738412153
  0.8352358640923826  0.2985217563220343  0.4780104341538366
  0.1973731103312069  0.0202047929955368  0.2029320530705125
  0.0395313278038582  0.5092963664419704  0.7818393334006953
  0.3183599265024352  0.0343593158796716  0.5617535304073912
  0.4477937622299916  0.9210275184824450  0.5592337291255713
  0.8857097906335740  0.5346139117192266  0.1559702278286000
  0.5676867110822226  0.5841344638602410  0.4690634953629023
  0.3205214952408381  0.8294497442335294  0.0818942112194378
  0.0708183589459735  0.8465486153348759  0.9474670121116904
  0.0227900308135496  0.9139868976220594  0.5761035502125078
  0.8142844753990330  0.7914715522343639  0.5848297164772874
  0.2821872979432907  0.5719916916924154  0.7797419202515800
  0.0640965592441478  0.0323514818529248  0.6947261724521060
  0.4889039038647761  0.1881200755616314  0.4972277344293672
  0.6019153723805438  0.8408842813982849  0.1722821699167098
  0.1065507036771945  0.2251020841589742  0.3550319103721200
  0.2611326007062937  0.7845620779600413  0.5163889828287151
  0.5475624599325559  0.7174427312519860  0.9737597069090551
  0.6124099781584201  0.9958792162998085  0.5813631477225546
  0.7824463135031651  0.5085484414769028  0.5091816943483123
  0.3509906533900681  0.7517424048051249  0.6181667507043017
  0.5859528075666209  0.6010916551035813  0.2251946321992612
  0.0638797177289355  0.7403574878746324  0.2129492442088544
  0.2183130058484376  0.2460797276456503  0.5559994863692729
  0.9165220081881561  0.6998852632743492  0.0521315245127865
  0.9197610188594111  0.6183146369061600  0.5178899161567533
  0.3368743555483246  0.6123795148562421  0.1554675820427423
  0.5235621806858308  0.4423405603910518  0.5470241939745547
  0.6709996634975116  0.2839503994899863  0.5020968887066469
  0.6605775337277707  0.3768170555083525  0.0725929221228941
  0.3544133609094835  0.4797998420828741  0.0878496345840743
  0.3361006981653611  0.4697598343166243  0.2922216998138841
  0.5856791350754645  0.3763296182851994  0.7347258326115187
  0.5948524456845118  0.4724633388501688  0.2121331041213128
  0.0818143140841169  0.3103435103279980  0.7146396531024771
  0.8125796308260128  0.6977154962784951  0.2002204783777565
  0.0863632866925017  0.8351779236881448  0.7789972694030953
  0.7122743072777653  0.9868887023452524  0.0783055416019982
  0.1076512311866386  0.2096290398361255  0.0472698754833277
  0.8577046834706429  0.4556683957435119  0.9614092534654414
  0.6664843641583761  0.0897613123930346  0.8281281166762494
  0.5591638444599323  0.1526749311047556  0.3149529010051714
  0.3667958632070946  0.2929187189879910  0.6050671071902234
  0.6580208078659886  0.3517061010819612  0.1415686087933913
  0.3993491679304294  0.1124664119631988  0.4551808330511988
  0.2685891411940235  0.9615271130707598  0.7206584309794869
  0.1138672903907762  0.3050752842063452  0.7515128274268419
  0.9354100991342104  0.7241024780912950  0.1328448173533561
  0.0537523900967289  0.2322104087995077  0.9380236828433157
  0.5906410841285239  0.3889673388408215  0.8327726405897096
  0.5157322856453257  0.9100710202283929  0.8590055238727312
  0.7334584980931707  0.1200459223216123  0.9907538385479501
  0.2690080624272128  0.5761256291488248  0.5199487168600032
  0.1981794282815649  0.3434395844773890  0.0688186315940672
  0.0679200670096570  0.5145985628519368  0.8629851449554741
  0.7667064491682639  0.1865587929173511  0.9196235126666548
  0.4283760211615401  0.5087942748496462  0.5481839140865737
  0.6668502025815056  0.9127233977492663  0.0804128430403721
  0.8661923253982823  0.5294636964261681  0.1019188172344607
  0.7377120732549352  0.3971794932571802  0.9749899803587340
  0.9939643413357878  0.9458895754781698  0.2383965414786409
  0.7659111838802278  0.9576317814565345  0.2616270230184921
  0.8109354787625945  0.1233984098656116  0.0233724884440949
  0.6115438970411002  0.2875403728659567  0.8793638081956938
  0.5036304380751510  0.5293954752144659  0.9587425978311991
  0.3506885935118349  0.4039936841114341  0.2514215533695279
  0.0533549704216419  0.5615930296727596  0.4647817945685996
  0.7992891877944813  0.1116170888823129  0.4682019730759202
  0.5855347966554199  0.2246610435571668  0.9443971332806345
  0.2763867824761480  0.0992335162291842  0.5865846919226886
  0.1256420745247285  0.0144560419684813  0.3339808145185322
  0.0924884674598857  0.8534080927819068  0.3984440714408820
  0.7938451935878895  0.0562443891508651  0.0065862232110064
  0.7013432079040969  0.1151987303689280  0.4238771317866313
  0.5961313209717833  0.3973947948315988  0.9820336203674248
  0.8656400084002616  0.7698634218201273  0.1158450707068925
  0.5616821369774710  0.3979920798321551  0.7823774746999924
  0.0943159882691878  0.5173775829390708  0.7181488123850311
  0.3199133899867382  0.6417559576042843  0.7904008150887901
  0.6817940815414505  0.5770991338653705  0.4259033242422726
  0.5779048570031468  0.5881565669199407  0.0103729690042131
  0.7035659242325751  0.7133118639519698  0.4816966371221041
  0.7852901158190587  0.7014340174541649  0.1943914944902481
  0.8623199793390420  0.4966649841002243  0.5336891522204108
  0.9990900419037635  0.9757791328520764  0.4351688803429027
  0.4668565082332959  0.3153496680612293  0.8399165623329028
  0.9343006032360028  0.0655722662388857  0.7530739470305964
  0.2987736236934410  0.7862206411665745  0.0569979115681194
  0.2507415964898992  0.9797642048120767  0.4446950218543898
  0.2694890599091549  0.1276245433864048  0.3721710085280709
  0.8306087377517303  0.5689520099495461  0.3428660980493301
  0.7213889617293817  0.2862436214004142  0.7645351999555445
  0.2656653939332999  0.8098087641626358  0.2464233248623002
  0.8260363737840110  0.5059875591677208  0.7666187168727800
  0.5277152417722754  0.5875579673629280  0.4418948028700077
  0.7283020384988517  0.6511978090240063  0.5499660887905664
  0.8329405270459970  0.7500600547195505  0.0376079793699070
  0.9775009291221568  0.0526627541063184  0.7368414006444817
  0.7195626534685823  0.8144865688193393  0.2784233748437155
  0.8830456911480579  0.5497048439891765  0.4763086367460667
  0.0626342292368878  0.6190452099644294  0.5297249865371860
  0.2379419178924710  0.4831742832282286  0.2301324880521216
  0.6720717207110591  0.1390855964720374  0.5688500658796296
  0.7483466238219972  0.3644710635589658  0.4827530132783468
  0.9923782997556110  0.0566621970584615  0.7963753711237662
  0.6787943258071736  0.8987026480726269  0.7925397265467514
  0.7948935941271310  0.8832738152632409  0.7754641334089447
  0.9223804901626693  0.9684593606776328  0.2070549091525229
  0.0064559697280450  0.4373309425820842  0.4530489779290393
  0.3567921076951449  0.0301078335914318  0.7581500978464418
  0.4564279966990030  0.0522062273245072  0.9132106200978637
  0.0094593374465687  0.3588000087102443  0.7308115602927131
  0.1117104597672140  0.9613692378424561  0.4474284090619142
  0.8977214638174134  0.2626433777751496  0.1465353860034955
  0.1574286026585331  0.9197928022325833  0.0196276659030580
  0.5690625269866717  0.5087632650946551  0.5715612680154910
  0.7279127212707175  0.9909888993228357  0.5360085784159481
  0.2852693103426244  0.5317332539104305  0.1035720609996188
  0.9895337058205330  0.3269683961407709  0.6032372195516190
  0.2716396976480242  0.6847774525048300  0.6449056420039605
  0.0050906267597633  0.2824826040695534  0.1778128712069563
  0.0179188530319469  0.7294410574039416  0.1529510682398345
  0.6048498961080241  0.6463127493275400  0.1613499181216964
  0.3429195358772326  0.3271453717291402  0.2859011388278984
  0.8356586038600303  0.4031361921948882  0.2157182678160454
  0.6205061836471172  0.2196368235559183  0.8044444784937352
  0.6423831675459480  0.1400564097434043  0.2170954056385042
  0.2086820986014170  0.4025625345957390  0.1033678392984719
  0.6422750775004905  0.5285429612508501  0.9077146463608521
  0.1796852970431517  0.4042291527550729  0.1026530038235336
  0.0962703698128953  0.2897552146911956  0.2269432647583196
  0.7507831762140273  0.6531239924905913  0.0198550903834643
  0.2530886963618414  0.9405420462908977  0.3057398094927134
  0.1462466403393834  0.3078046539511271  0.7885195129954873
  0.4883821223358512  0.7064068197178295  0.6819653613170880
  0.2702350486827702  0.3943222124331845  0.0593182782744184
  0.1879810716757234  0.7799218257094236  0.8732537969670685
  0.5907245984514796  0.9220498750424162  0.5831655755732705
  0.8741394554568278  0.2649494027463316  0.7515769016012961
  0.3995626344944773  0.7399073735909599  0.2705245253733125
  0.5730191613767514  0.4706104537757532  0.2298292299465111
  0.1179181468990880  0.7064197005317753  0.7736105656613276
  0.1286956583453667  0.9011347198922857  0.6792079933898238
  0.4023153181089575  0.0280590340493506  0.8199988490834936
  0.2884279243833515  0.0371533380232742  0.5211321090647488
  0.7662088672245284  0.5982423706154194  0.9872115158899780
  0.7725821829176607  0.9236244368262694  0.7832092024557720
  0.1222883735922512  0.8672860391663585  0.1408060525679625
  0.7699074960438689  0.7165804856848301  0.4105468196412609
  0.6697889026896275  0.7456482508246219  0.2158632784226747
  0.5576264492704314  0.9588983754144385  0.1675999542278379
  0.2620738173124925  0.2430921631087274  0.8639876797264144
  0.2791445628578220  0.5384014578288163  0.2266005905741666
  0.9353965705517410  0.1501197413731721  0.2952178087724998
  0.7140048891971035  0.5049395634141127  0.3958951850691756
  0.1056520896673667  0.9025126916688412  0.6958119463333915
  0.1018237342644511  0.3882579734513030  0.9598735114192720
  0.6177261688971143  0.1472910155874882  0.2058313914279187
  0.7604243489046557  0.3238926087700431  0.2721471779888411
  0.7679438179125760  0.2086469462475477  0.7109484439635669
  0.8639384143570139  0.8637913265310214  0.6107316774515158
  0.7845944519889895  0.2612697773116602  0.1927165935258639
  0.7301927585041208  0.9775877793719244  0.4624525584429999
  0.1040964655704743  0.2311737577854464  0.7888112436817475
  0.6734734896417601  0.9301512356740340  0.9596964697376302
  0.4650888937598301  0.4041569606905510  0.2535298666636093
  0.2571185279470820  0.9462762288832043  0.1908091066349699
  0.4622638930585526  0.5738455362583456  0.5858594725516062
  0.9821553299006722  0.9264201107552072  0.9568382950091270
  0.4966511028174042  0.8508897427844855  0.2666831651843390
  0.7055338720541844  0.1027916012734173  0.7630970301391904
  0.9881802099868071  0.5967716938959455  0.6674578796090238
  0.5197712442095632  0.2808883338654671  0.6735289737729138
  0.4741462182916757  0.6610520738609523  0.3415565214857603
  0.8999306982500042  0.1719326846755707  0.4921042915339281
  0.5413243328274062  0.7721785035029346  0.1094410343305301
  0.1989113182724604  0.0839996504247576  0.3204524239528348
  0.9251040531785221  0.6013097982089536  0.2667755188119310
  0.1401068338820204  0.9021291287084948  0.8219831724770589
  0.9955272956410811  0.6462584290959769  0.6713659272817060
  0.0990552513314887  0.3052996590848301  0.7984883038026881
  0.3534813523091611  0.6610467290213943  0.3519262949378218
  0.2702135389269751  0.0353223850248363  0.5709259773454683
  0.9560588365996766  0.3928533628601036  0.6934360614351542
  0.9327081763359273  0.3853875683489306  0.7436869642369170
  0.8035473568476483  0.0487240098558378  0.9040099618450801
  0.1873847171803431  0.2185478833077125  0.1759981247294565
  0.3722357287322682  0.0296261304258564  0.7130099180982170
  0.1221788678618857  0.5853147949558557  0.3673980055939026
  0.8064578299425198  0.8380847771127041  0.2443294168342633
  0.4286086720001157  0.7007080140347680  0.7258312241359648
  0.6137529599979680  0.0814963686170483  0.6145191902429724
  0.8569175776945777  0.9749539780073154  0.9122203963382353
  0.2534917741498226  0.6363774864543367  0.8251497958563944
  0.8117965621140062  0.7771017761332428  0.8917760171030199
  0.9075606151459158  0.1362510596671510  0.8251322462021441
  0.6471227397392896  0.5360313434211954  0.2891783388571051
  0.1946459412492303  0.1233133817993109  0.9762608763380068
  0.6290543106966634  0.5115581166464457  0.7312591035310646
  0.4171846142783516  0.3374620842399723  0.2254041939493651
  0.3546359250405596  0.8609646742214775  0.3135220159887716
  0.7856329001371841  0.8864375363520647  0.3840387272375426
  0.6448552512376133  0.7809113955530088  0.1122591865484505
  0.7886941747353186  0.4758573484403734  0.0740397948202062
  0.0866412871166754  0.4536024519910013  0.6996837122953795
  0.9272371244975613  0.3255419593347714  0.6618110373643468
  0.8697985326450086  0.5620856755348492  0.3736373856509885
  0.0538261360320023  0.4740964203537678  0.1145888551526830
  0.8969127672920363  0.3091607007363454  0.8866585583651224
  0.9256185185197023  0.1942616313264127  0.6349751109260385
  0.1305188747984105  0.3128776747447984  0.8349940436393412
  0.4465991194352926  0.9166180653017784  0.9079173301375191
  0.6837487393011139  0.9165089385792007  0.1529487846003439
  0.6015937975091381  0.8409208245513200  0.0721910781280967
  0.9114674533006768  0.0268973673683945  0.3768357435027524
  0.5045641079375666  0.1176641099961150  0.8983182023455538
  0.6104073061920814  0.7155934836499120  0.0402145807967457
  0.6455400078338311  0.4526147424309465  0.9056337126917986
  0.1254642998544105  0.7057004282290176  0.9059989907985609
  0.3016210505776843  0.7240395125141948  0.0756585944078415
  0.3271099377368755  0.0821328538857719  0.9066632623467514
  0.0269910734584371  0.5548225406794460  0.4593257760053680
  0.5595629764397555  0.7935366401685746  0.9117053459509258
  0.6869526374122648  0.9250705779093790  0.5510614741988344
  0.2754984311828329  0.3374961234857728  0.4249181166736445
  0.3664106383797063  0.7529644408130863  0.1803714015716037
  0.8409808795695862  0.8486541408965090  0.5128335034412519
  0.3747459768245553  0.7689934676300756  0.0662090475075938
  0.6988508150140017  0.8536387216326906  0.1441188054270537
  0.5182390142668175  0.5753584531333003  0.5895594474993197
  0.8288309570402271  0.5267661295110859  0.9927684795353832
  0.4758858350091128  0.7737080359517411  0.6797419762407287
  0.5897243663681995  0.6744621299519948  0.2293705240298252
  0.2424425050292482  0.5478229675413142  0.6606362005408957
  0.7770652983772187  0.2548781823423518  0.8590059968336086
  0.5822377677583763  0.3449051647386964  0.2006478203748371
  0.5806848361950477  0.4430060396496402  0.5483073228063509
  0.5393456697856124  0.9695742564854435  0.0950652181168819
  0.1669794322581668  0.2457742979019918  0.6246224462324944
  0.1902416701384803  0.7287257955132623  0.5442989392892353
  0.8662300903853568  0.6016407662893525  0.1845125331825670
  0.7409714535798286  0.8527271507879860  0.1679931975493247
  0.7529924559764188  0.8580189769327147  0.5553804807843752
  0.0179110550393738  0.4703584997001697  0.0719148467305206
  0.5590053832886036  0.0860086938070836  0.3470866987113059
  0.9134671228742919  0.6477724517401041  0.9231187656969713
  0.9170369096038560  0.6842373897813896  0.5168964638379154
  0.4255273518026975  0.1215123432613998  0.6617983135143026
  0.0154332779214392  0.3807975626140691  0.4052609247048039
  0.2338332440218540  0.3391388332949000  0.4594701232643260
  0.0839279390763501  0.3061115762339602  0.8454726742479145
  0.2285224500972077  0.0329823462144802  0.8463233705405766
  0.6838361158891445  0.5126646102195115  0.6656342947753319
  0.8322484984948698  0.3728500040070350  0.4317709450253189
  0.6653755519124438  0.1353602100832501  0.5123491915028281
  0.2175354661882662  0.5866575031703974  0.4683266864462530
  0.2642994213815296  0.1754019275041431  0.5775479005854121
  0.4574094811917419  0.1617009649265503  0.1114065234600043
  0.7695834386832183  0.1209984133144221  0.2706166545448949
  0.4534754459128454  0.5746370904578533  0.7841298809257122
  0.6000872112976195  0.8457654446182021  0.0230242868302984
  0.8814669570408208  0.6602100591672873  0.0412466277252124
  0.9320666748330680  0.6203147972344699  0.4923575941489024
  0.0828758410776954  0.7268590462162380  0.3510388139125153
  0.8429868642767530  0.3292776173292646  0.1557536656562897
  0.7550612854370533  0.0074585507818826  0.3680081291338491
  0.1460234462093042  0.7742752080814455  0.7312766852504593
  0.2677982461606432  0.1711487683794824  0.8340252393960573
  0.7481653956268773  0.4371549834107157  0.4534885910564089
  0.3543838775736201  0.6232808775114012  0.6394353604637618
  0.9967387509430594  0.7421974595626355  0.2467834384767704
  0.9353608981979550  0.1880495119794085  0.0343295257939681
  0.7863669644552386  0.3256017779361012  0.9503031681064662
  0.0156622599804638  0.7121232041048368  0.8709043537883905
  0.7298246271576777  0.8766514644146363  0.3359668794502434
  0.1450155666885426  0.9396137249012362  0.1515180390673214
  0.0911038901422008  0.1758951954103082  0.8851627354194457
  0.2018856578982093  0.9818240995177751  0.4587218129812564
  0.2688284794878261  0.5390675241985394  0.1999570147193906
  0.2580888502606671  0.4986864303633403  0.7938236730397253
  0.0600229791181833  0.0854336294762640  0.2726813091410381
  0.3505843025209330  0.0291528258463811  0.7305838977686924
  0.8359427526210556  0.5572708858302994  0.8917675458927290
  0.4522481720367640  0.8571078535868207  0.3407804447918605
  0.6075006207797388  0.2328455931423721  0.3811925448729808
  0.7576612885251314  0.5929647572778942  0.5758770460418223
  0.3747750088492763  0.2462711966259493  0.6948454768334218
  0.5279382658243139  0.7164961170727535  0.8255030876114300
  0.0535212036307786  0.3717022125850077  0.2341396310489697
  0.6558189843027674  0.0783127498075016  0.3364277798252375
  0.3124266854773716  0.1594646209000962  0.1294349538021194
  0.9718887849233280  0.8021610999051065  0.1868893736221023
  0.4141361609624655  0.1048417422355879  0.7872678540986797
  0.2026046495602034  0.8979420253802586  0.6875114348378847
  0.7766516732952446  0.4305711992389776  0.5009878675957958
  0.1664831949994460  0.7928288361227195  0.9541630078388729
  0.3676488106025797  0.8485117557578570  0.4875117432151905
  0.6905401838699075  0.5233661250657929  0.0417202709889300
  0.1452598600225282  0.2755383585625459  0.3406872434420180
  0.3506127752666521  0.3216184800382799  0.3345071859058260
  0.1036797999850466  0.5297573956258407  0.6712002266407634
  0.7275519363050074  0.3592561117878559  0.7826493891271196
  0.7239870561138992  0.5049709760054680  0.4227982799683560
  0.2185603121991270  0.6892679695061157  0.6581077817515644
  0.3847366124167947  0.7203817894347353  0.4560415256525741
  0.2280302340410525  0.7689543271435054  0.7071410988804052
  0.2679744469492161  0.7816031704534386  0.3933209331643132
  0.3611989446787554  0.0369080192899569  0.4984911512137489
  0.7530066297911040  0.9654526360427002  0.2384775540655336
  0.2376438918496709  0.2775720775436376  0.3383803406893733
  0.5241232522059264  0.5424611307305068  0.2420088783790355
  0.0572173509386020  0.9046050712893765  0.7004305956795310
  0.5616795610005668  0.5776606098918304  0.5673704699010039
  0.6727509207390994  0.2326344834011507  0.3372497697975293
  0.6375983959932696  0.5955141175321610  0.7656821280790880
  0.0402694730089228  0.3911266016324210  0.3525865703674128
  0.5529109430762048  0.7109059632472814  0.6084181512425163
  0.2783401259944059  0.8118023027090878  0.6245040677322182
  0.2026905369721790  0.7175272095516108  0.0005093177447512
  0.2447394496577195  0.6181257551620249  0.9658258082319392
  0.2917245175233574  0.4110332477277363  0.3471054127311061
  0.7068102184897979  0.4370488312404603  0.5271294694294857
  0.5277966681678512  0.4140246681716613  0.0578893005328787
  0.9431431057655972  0.7287981641139633  0.1603830664452889
  0.5505304948668389  0.9903936619883671  0.5380165298126667
  0.1456457161230314  0.2802879573248838  0.5026838592083890
  0.1064568219348711  0.7063336922813171  0.7164725007547080
  0.5433109232273922  0.3040807303199403  0.4311872231235015
  0.4113326994349332  0.0915199660967879  0.1492956947052996
  0.5652256266504965  0.7290823570580450  0.3182421936018953
  0.1599552723861651  0.7746836941690047  0.7787613100230056
  0.4246624557120098  0.1536130012442438  0.2296600662699919
  0.3591463618814301  0.3100563654232441  0.4778762234885977
  0.4328042077240455  0.9181419881081255  0.5348963187255300
  0.6958030344349528  0.1788374032019133  0.0768611992453800
  0.6269783140104519  0.2187090804084840  0.6742483833406760
  0.2901681612854054  0.3695063240359444  0.7252954396247686
  0.1238786690296701  0.6620627186286706  0.0028177563336335
  0.3206790213478481  0.1627195211096844  0.7055487718750306
  0.2299260594044275  0.5740680660448492  0.3721001144982537
  0.4909382011634351  0.1963063293057934  0.9379287038820401
  0.2198732760512594  0.7526359503958252  0.6344175742226265
  0.4953312878204742  0.4487862546866682  0.4967915703090736
  0.7118656617696638  0.7293982648706179  0.9624084674898827
  0.0214869466081323  0.7641281104085380  0.6133924771887934
  0.4712178718361650  0.6576526249950582  0.3942036665442023
  0.3054183057841763  0.5022003132169507  0.9024797670688622
  0.6682707037033550  0.3600596677436753  0.1172037957214997
  0.6489353784853203  0.9251599443238798  0.4721943741227094
  0.4307599526450798  0.9062509075582803  0.0346850637123569
  0.0212677751551550  0.1620851967091194  0.3724884474437162
  0.8633669887323240  0.7290622165423183  0.9747968539991185
  0.6488012207925216  0.5169866601714586  0.7844600737524743
  0.5682515148472644  0.7111851746903106  0.6555428628077439
  0.8748044368456224  0.3094245561496784  0.3195190997916395
  0.6907502171151707  0.1891130238251286  0.2903424739386700
  0.8544316849843134  0.8545459003890555  0.1176755986463457
  0.4565786690750653  0.3647262903485247  0.6662517832780931
  0.7332481965486047  0.2125759991468471  0.7451960200668024
  0.5413731730304479  0.6561099127763864  0.8273081387917581
  0.8806383117853741  0.7620625393363374  0.3691822324671259
  0.4181362261121276  0.9766196389353093  0.2409300666421905
  0.0853304507918205  0.7182953702578673  0.9417883371950806
  0.9649873461023575  0.4716443627696814  0.1491369433827399
  0.7024572164519879  0.8893372593216854  0.8626086480563746
  0.4692298897005932  0.8494722704029639  0.9556015884898874
  0.3402977923352231  0.2377375486096159  0.6378801027691866
  0.0053968970882888  0.2958704480504207  0.0280091828509631
  0.2777805226503664  0.3050313083716676  0.5764798887899574
  0.9509391175066987  0.9795964440985739  0.6984358050204467
  0.1587439327698496  0.0116735492267744  0.3710290885792417
  0.0454277395702158  0.9385320413995228  0.1559547856559540
  0.9558172771691938  0.7984109370084654  0.1633600902300599
  0.3344767725376560  0.0714467382688913  0.3068613380138850
  0.6364301659256218  0.0884216449241858  0.7887325898870271
  0.6083882828719889  0.4451901982250057  0.4984029680589781
  0.5121176485571630  0.7836971507663794  0.5623178088073773
  0.1488299248381994  0.0187960789622224  0.2135192722900149
  0.6061009576380442  0.8150243097173256  0.6971048610463917
  0.1972191416272552  0.8905613024401329  0.6300593559738376
  0.6894328094775998  0.3873454058077280  0.8542036903657587
  0.5058023935763011  0.9980682215144911  0.3417084922327587
  0.4898882625069227  0.9173330184264400  0.6063411415454877
  0.9720247253234573  0.3662976824397338  0.8920143713485692
  0.4319490830739277  0.9147382133039668  0.4846577028862212
  0.1173182860628475  0.3518530997306707  0.4947172801370899
  0.4233248448305920  0.4616412915827756  0.3499124255179216
  0.0403435159816618  0.6421969093975034  0.4213469534225106
  0.9865882692081199  0.9854146818933444  0.5312638188616304
  0.1533716743645606  0.7047436002732979  0.7085169260400938
  0.8244611514965163  0.5095464760872876  0.3417471708129841
  0.2498701885103426  0.2110676123085352  0.1210511031930988
  0.8465950870308071  0.3685742298337763  0.4554665575351309
  0.7642851350016013  0.4822725745125628  0.2291511202845148
  0.8976089368489378  0.1979579016599024  0.6388662201862821
  0.2815906617437620  0.3324789996168618  0.4518371860268651
  0.5667964080859212  0.0088162931406426  0.2831440214095736
  0.7441451400619046  0.5076513029244518  0.4768602814792267
  0.4480059186828433  0.6484597746382414  0.5223365780896099
  0.0707957723026280  0.9104483422299406  0.8708392595415356
  0.8386255009683136  0.1195885713032196  0.8477841583080409
  0.5606856836140780  0.7756719333664982  0.0894002330127861
  0.4369676854060096  0.0897721781478471  0.1616516557382489
  0.1395713942606946  0.7396209864011152  0.2041992314971265
  0.7601615347393783  0.1133118200926200  0.8146928994033934
  0.3139455447933108  0.2494471772324789  0.0592861968972109
  0.6993944498044183  0.6076913387224008  0.2330362012976434
  0.8880269914709574  0.3787477560451177  0.4316617471766496
  0.8117126945522549  0.8547995326426832  0.9940872427627745
  0.4479430816222368  0.0531203663927730  0.4016458843119366
  0.8696662350707728  0.8960835489246429  0.4313336686453350
  0.0499301187494721  0.9984189200668625  0.1638990898731864
  0.8587332711948771  0.4563804707831780  0.8570641697765032
  0.7419060570798879  0.1899181360887936  0.0677661509520338
  0.0485204643087241  0.0210728634243896  0.9635034220227752
  0.3556918235609845  0.5457365406466763  0.0163048399793146
  0.8713464043097918  0.1900461085654548  0.1126593218718749
  0.5885536287664183  0.2874080314824992  0.8264058597023903
  0.6388961013792728  0.5087774155418912  0.4088507037762339
  0.5608910191679805  0.9218395413013256  0.5156406705415739
  0.8193298287372145  0.4352816938812760  0.4423032927667607
  0.4255032435029507  0.9199506498178148  0.9517074871508731
  0.6383020865096269  0.9447819635784740  0.2251297323473432
  0.0532349727969977  0.3736579329015731  0.7841740366333860
  0.9836740224328883  0.4981253331487541  0.4218342534315621
  0.3058905493349436  0.5113009921322930  0.5030428305020960
  0.5823100121161394  0.7877798849296737  0.9942794211965637
  0.2957245301057342  0.1696997465199025  0.8304523927248514
  0.0564736338954519  0.0926971329771491  0.8669683132447970
  0.5513712876668287  0.2194238269074048  0.6710183070490557
  0.0332862825314756  0.4229017884148799  0.4948028038889612
  0.3743688575456269  0.0525482424704297  0.9831128389307872
  0.8251429850425088  0.1885880797036657  0.9661877395392726
  0.9212038965145565  0.2457574770733416  0.0226063693803280
  0.6624190343099624  0.5451985066562505  0.1919184546098849
  0.9235848806628345  0.4016993050978598  0.2596795144186439
  0.6466878452314573  0.2282170428622739  0.8999395803715993
  0.0453234291536716  0.6564115784410631  0.9733599287111747
  0.1110533251428844  0.6086651497077687  0.1455856943898360
  0.2245310650683387  0.3118035007758089  0.8163170831295589
  0.1434184651663583  0.6631304117525216  0.9549076085855696
  0.6075991915403414  0.2777969869660369  0.5839596207723673
  0.5232888020185911  0.7180635992930798  0.9604521730405161
  0.2893463754302720  0.0997078921216377  0.7558550672134476
  0.8676976135054130  0.0453651203613801  0.9409951377141629
  0.0798365754301579  0.7775808741177380  0.4633833975555175
  0.9429615484823057  0.5716905932950361  0.3651152879762921
  0.3742484177961152  0.0633173936902041  0.9572774191430472
  0.3065317958910201  0.9947785535905432  0.9890241584932021
  0.2130612480450816  0.0533447461598099  0.9282272461944849
  0.3347025781135343  0.7341300109644580  0.5751888458797516
  0.8704669900688462  0.9091113352318496  0.5315445912848507
  0.6196050753025244  0.6546700809195378  0.6908813271827692
  0.8641542760741143  0.4592850864098740  0.0106400698319295
  0.2366396284758070  0.1777620518322884  0.5864035058211552
  0.0952915031332474  0.7232564670136333  0.0712404682488694
  0.4236666093571088  0.6583028003003457  0.3779237098382746
  0.3158591243216355  0.3740781606191913  0.8919722878508410
  0.1178104092607361  0.6684591421816073  0.1350025179837994
  0.7245726246898038  0.5198967078343902  0.8477089535203965
  0.5255151259864311  0.7257043184079842  0.3833041187914160
  0.4771067087044295  0.3900255337041917  0.7867411139622275
  0.6836166678314447  0.8909266735177305  0.8849477005500364
  0.2200038582921652  0.7209063929932974  0.4055140589777710
  0.5026021985407505  0.8444688632081869  0.6597718304682918
  0.4442305002182323  0.5184460327596128  0.7988366374847973
  0.7461950756114967  0.2572669822136297  0.2341281878006232
  0.8499394498266681  0.7169221316589083  0.8225763696289959
  0.2274256073989978  0.1859112770621971  0.9379083164625255
  0.4730976433180183  0.1319090393889912  0.6600887723742015
  0.0436474219173111  0.8371797773281163  0.8036142257345903
  0.5941347334161173  0.5895866044301713  0.8383871731934337
  0.2376214557493654  0.2816513263075969  0.1853220514170111
  0.0664054096244625  0.9910694304771582  0.1150854839142263
  0.0488911425427267  0.9642458746226049  0.6846957263847687
  0.3640614306442881  0.5428466248010027  0.2408970595843505
  0.3609794612748383  0.9709778272738049  0.5757119666630491
  0.4691486012229257  0.4200225975371836  0.1070299605417953
  0.2362054023079462  0.7814867188065571  0.8849190904250988
  0.4683737482083127  0.5728630509780224  0.7599516920034078
  0.2546419626544712  0.0618665442818118  0.9120810492377054
  0.3515366113774815  0.9204083939804836  0.9703310231222282
  0.0048313328639866  0.3095575464191304  0.3691310404643655
  0.0786024122503955  0.3761274062694019  0.2487202894243057
  0.6643070562203450  0.8000877496634489  0.6876585417033179
  0.1023186620668392  0.0418342917045809  0.9904546467034422
  0.2510009476795896  0.6785180229200918  0.6256974782904635
  0.2739935698431684  0.9273220912298628  0.3475685696906253
  0.3482790458521188  0.4481900045433768  0.7149693028258588
  0.8079052261462403  0.2318663587141467  0.4481443976796017
  0.0322520406567606  0.1799502920801993  0.4931509279026116
  0.5406031220867874  0.8499994241694597  0.2404590176490481
  0.9993628916548449  0.9832271589843808  0.9409755419028963
  0.8670770886671572  0.0777300402703347  0.6876816847211646
  0.0470630202565970  0.2373858346012429  0.4129321477244735
  0.6944839119845673  0.0759363826409264  0.6775457303008157
  0.8122536108926152  0.8491300766500888  0.8952006226043154
  0.4573643351290368  0.7684714873181941  0.0878819658689997
  0.8161244150122209  0.3224230749582366  0.2616586192099861
  0.7954053674162191  0.2872325528538275  0.6803619497921678
  0.0456084109714492  0.0035774835247198  0.2107123637149181
  0.6548167817464655  0.5150605052706140  0.0873897606945098
  0.9155899555053045  0.4486895585573255  0.0797619729188047
  0.8005194228331228  0.6533927065543761  0.0109444926037004
  0.2431827814858934  0.1699384371671678  0.6376342492880308
  0.7378176769595234  0.0558126299321622  0.4574208639455555
  0.8251166469074864  0.4656600836876124  0.0415333676721807
  0.7929149839912337  0.0488001522267775  0.5055199129955178
  0.3079035541377314  0.8847630682867477  0.4925528488324659
  0.0313371990674545  0.4453944584173596  0.8617170145948908
  0.6765537333792716  0.3927397717469889  0.8789480575478447
  0.6876562805266254  0.6676509705700803  0.8507758883703979
  0.9361961169494187  0.6192720304026367  0.5396712295357798
  0.7981639104266474  0.9803151018483143  0.1790113977589633
  0.6870108870487008  0.2363177480255058  0.3961441127960343
  0.4823847526726945  0.8436172223135481  0.2438878397168097
  0.3344367984643912  0.5739672626265176  0.5962386691479278
  0.2794915227836833  0.8096637905143912  0.1496500981188042
  0.0615973242724236  0.3057498269208553  0.9669717022545812
  0.4245103350389459  0.2693574230024277  0.2739944489437602
  0.9946554085207121  0.9438267779947526  0.2104912044029612
  0.6246233868292476  0.0391080315047096  0.0456177155200445
  0.2966665664116220  0.6569280381980593  0.5702661327912530
  0.3953973014316876  0.4141065750550456  0.1798147683036302
  0.8859651348963684  0.0248171582059605  0.2824695711821622
  0.0042370769587699  0.1441491975970798  0.2430298586241933
  0.4893859669890171  0.9029918984335112  0.1723252678754384
  0.4845824305749730  0.7739495088901140  0.7072338853874442
  0.0931099882110727  0.8131491357462451  0.2660965013055386
  0.3026958924506374  0.3837874659897509  0.0141806773854590
  0.2826364554338750  0.9545104751581724  0.5482363746666027
  0.9561951169896153  0.5431909942945313  0.5419961829605535
  0.5740467077611410  0.8076253924722470  0.2214646703294798
  0.4663906278721055  0.9085902692059903  0.8642619870149298
  0.0700908675374135  0.0513768700682653  0.5198071051586621
  0.1788122039288639  0.5284868547827452  0.5838944383463657
  0.2757988774937475  0.9336486930992949  0.3202387879253424
  0.5186809148771133  0.2041938576267406  0.2955325882852457
  0.1676482675512121  0.4913493466245049  0.7795268092274531
  0.7523531043706161  0.0566892000024130  0.7209982854350194
  0.7511569414357611  0.9219950663413763  0.0736166669847058
  0.8567525365195371  0.5288747173980559  0.0748079131457158
  0.7057990698711409  0.5069085333008825  0.4447616472118817
  0.9707485466755976  0.7166155278312375  0.9874684138092488
  0.9899984033667060  0.3241443805213014  0.2862961393192888
  0.7182485297938803  0.1880189573798791  0.2958482034958130
  0.7436351207396659  0.5677478655365225  0.3287317985060808
  0.4759361560720548  0.7059340101384916  0.7377796808745318
  0.7088449778743264  0.3591172733767993  0.6083263787956635
  0.4887952545487532  0.4358646579736309  0.6227722353046639
  0.5395549637977710  0.0872404616110536  0.1776497846768969
  0.7444115412603468  0.7230847550948054  0.0702775317265721
  0.2292563053848637  0.7134345868257270  0.0089105556742214
  0.3094462030129344  0.8186161450795276  0.1045679041757732
  0.6095228605193080  0.2326088844593388  0.4574120720838224
  0.8002210645179171  0.2534800319931670  0.5482736083112663
  0.4632608409949030  0.0545630222667487  0.9412114371526976
  0.8790250717689054  0.7703305855196843  0.4202116529218929
  0.4136476728569451  0.5117222468128109  0.7194971557079729
  0.0119736775123549  0.4423024332170755  0.0187883451211253
  0.8042837595436522  0.0211063513592839  0.3119617400991245
  0.0522345555564594  0.3010332770972672  0.8088875190693655
  0.7086932381094596  0.8667512621361221  0.6284937993557504
  0.6653585880776438  0.5989139875773087  0.8149901172374596
  0.6857866652690543  0.3091626750570662  0.0901862679380404
  0.5949865562814461  0.5260704173126455  0.1579616734919199
  0.6046291504244824  0.4650347812293195  0.2677276351517155
  0.5847853620674421  0.5113864358767762  0.4744127410039968
  0.5878312165636695  0.7815656484957182  0.6270546054588524
  0.1084553521701499  0.3509060415438874  0.2216756048685709
  0.8946382823398897  0.8626578573068669  0.2336142296322889
  0.9176256447645444  0.6498630293837292  0.9509862879472484
  0.6368958066111750  0.2309388660111105  0.3750065813380362
  0.7006579004151494  0.5165429954736336  0.0673230477341221
  0.3751276131705362  0.3986651194768225  0.3971716323265431
  0.5074435104778574  0.9846148811728660  0.9180647197899283
  0.5537388864689892  0.5791912518363000  0.7635184503053534
  0.9480232229811784  0.0605891966502224  0.8346373409545884
  0.7787208045172435  0.6853449953339444  0.3665735786706495
  0.6440138046095443  0.3658061301117619  0.3052633595268401
  0.9030079164668685  0.6476592918396565  0.7091211716382887
  0.9762933005530550  0.3365886496886296  0.2039670417755550
  0.9345679460209335  0.3723683898883348  0.9692862645685535
  0.9888826006313433  0.2150402042861753  0.0707298163977193
  0.7074814371410820  0.4829184281070060  0.3013585163645092
  0.4970961068192304  0.4613422575922341  0.3583763029110570
  0.0927400112665702  0.6306277759824623  0.6947757431610114
  0.2452804354030578  0.3411761471043935  0.3864923821349626
  0.4395924266219085  0.3085337396457640  0.7162197953530450
  0.7733858595866046  0.1307874891924025  0.5857118686764374
  0.3235217568387759  0.0281088743975454  0.7209554303697583
  0.3784479790163046  0.0194047709404549  0.2305274143928660
  0.0243642761624766  0.7907934055411718  0.0266485778168684
  0.2957232763710216  0.8242334767679802  0.6985620795624891
  0.7092803359286938  0.3570000243762184  0.6583039542998814
  0.1247029407838268  0.9724929739221663  0.4708132942915820
  0.1994288835607805  0.9172385025123415  0.9299412944914216
  0.2092085729598916  0.4042853749788236  0.1517505434281206
  0.8653823693788663  0.2460784179946970  0.9079921721882194
  0.1401810909952850  0.7778704039360976  0.8618442310505448
  0.3568812301327962  0.9030404705394536  0.4884199363195969
  0.6639589590865717  0.4401757994002503  0.5484347316528704
  0.4466644117109007  0.6283525175087082  0.0166493809360424
  0.1244913414132827  0.0918576969120884  0.3842961402031926
  0.0676226127282195  0.1480443178599034  0.3197717270345135
  0.9964164749340532  0.5300904581051551  0.1012252347375241
  0.2426204233971012  0.5130837510640908  0.6953459075190349
  0.7726149290193183  0.5802698857535237  0.5055057221651252
  0.2747538512846318  0.6508457186058861  0.0419348916167573
  0.0634571012779146  0.1723719773777395  0.8895157951881568
  0.1300601715945359  0.8540540001978973  0.4751875411043421
  0.8229305210817052  0.0117842583523382  0.3565299317842479
  0.5330494564477561  0.1477818554200487  0.3030917937276253
  0.9642233274078245  0.9524719342598745  0.2770045423134024
  0.2079558167913548  0.2395901285353702  0.6541955816427046
  0.3344083746037708  0.0306778943461575  0.7746197980392688
  0.6083360565231490  0.7188072855731601  0.4603929881762884
  0.5369177410497765  0.6414228399228897  0.7056402477192993
  0.2170260753044017  0.3338386483545053  0.5041272997328258
  0.6605518414552043  0.2930413398913845  0.8075653789814728
  0.7744518282729945  0.5184940642546384  0.5563399901439759
  0.7751988387495566  0.8743595525202998  0.7033839217194602
  0.5075102391317865  0.0402086482446543  0.8265188211973634
  0.7379427395483071  0.3173210915647559  0.4001544001810883
  0.7325614659791747  0.6506506954578872  0.4021048687945631
  0.0602723012602731  0.6052841114862914  0.0624338012370618
  0.7949554394454756  0.5743028033652979  0.1294138242749230
  0.8932745660931829  0.9077585370710617  0.7860998150858051
  0.2451743380381692  0.3073771034015250  0.7980753668712449
  0.9678595124619824  0.9772210940585353  0.0144034133405576
  0.3264762312339740  0.4814273485946336  0.2097335030407757
  0.9467180003483929  0.2378883137150037  0.3045666079916179
  0.3722557634763611  0.7381758635343377  0.2792925246268810
  0.7335649736163444  0.1841065911278017  0.3203868848021037
  0.1626544538187392  0.5346980467026238  0.0564549198145364
  0.7205681659965223  0.0508148971808298  0.0726420876085393
  0.9403698395959199  0.0929842814961821  0.3212225846276245
  0.3467980354431306  0.2281701815645739  0.1209816398699357
  0.9323849109964791  0.1224112159526933  0.5403228634090013
  0.2649180516229767  0.2395211743511589  0.7325913080661021
  0.8923720020978386  0.9228195328837907  0.0633333301390905
  0.5932869645938849  0.5815634196808414  0.0831613786236585
  0.4971739769705589  0.8532367239589013  0.5614862674302485
  0.9455449498469036  0.9039302440016250  0.4833163036710764
  0.9162452823925971  0.7235940315659770  0.7332353745652855
  0.5749281780787094  0.5909982610810686  0.3711169190174259
  0.0123814577907605  0.9773865983920286  0.0339712284695114
  0.8607007233564219  0.2532859714950502  0.0400930216345691
  0.1948304098909209  0.7769719817673927  0.8458245511284610
  0.2112884699277795  0.5673076765648667  0.8005617602809219
  0.7639061053728234  0.5912372283908565  0.8882222732414878
  0.8991138504084725  0.7157621553233791  0.9162857676329305
  0.5122909852894083  0.5867728218999931  0.4656574696086155
  0.8859887740096942  0.3775374221817582  0.5291560807360736
  0.7872789000844619  0.1208258754713474  0.2259336335701471
  0.9291276445020673  0.3735875079602463  0.8686330934476270
  0.2565954149695064  0.2990803626580247  0.6188715806517978
  0.3187723992246523  0.6077961872544535  0.2288891360317407
  0.9549720458493074  0.9071179868955463  0.6522972128763863
  0.3966523198354116  0.7251364176795556  0.4001444138927327
  0.2743698384280175  0.2409569695925387  0.8078509210948971
  0.8860916371885197  0.3129278002140685  0.8304396909195939
  0.7397430411394118  0.4145564038747431  0.2469767291702499
  0.0882947017843118  0.2376187818860569  0.8716627986611079
  0.2143139264613739  0.2164310795831346  0.3877386340468246
  0.3766730036125888  0.4632487239336446  0.3305404009011321
  0.0117967885096503  0.8464199940435486  0.5151079021580067
  0.6941779369352300  0.3243205003996743  0.3085940622532632
  0.2977759836960173  0.0200510458327819  0.2072426385475503
  0.8014116677116767  0.4069501399061621  0.8053768687576049
  0.8920932280709595  0.5472858236099226  0.5033272222784712
  0.1636874970747471  0.0415521237314939  0.9075858326602011
  0.2389334377606508  0.7977498979269628  0.3156130121008983
  0.5719316433113235  0.8429191801633276  0.0239975026362067
  0.1605491484958591  0.8423173716964157  0.9016000137433148
  0.0082207091424392  0.1670729323305496  0.8979780653159378
  0.6623258823480594  0.3009502394520531  0.8799743545947298
  0.2444237784078050  0.1930339359355168  0.0325006243589559
  0.1195033352686062  0.7834620104247435  0.4921259294940677
  0.2770630204809627  0.5370102260836150  0.1517072865465209
  0.5884085117043670  0.3853343786944639  0.3858670637247950
  0.2144619335751763  0.5309206974317439  0.2649943601721960
  0.7733032797424261  0.5690575952460358  0.3344780366856510
  0.3529876637361168  0.8563870091925243  0.3631255596018528
  0.3176653162197622  0.6439310632938637  0.9397361258789695
  0.0718471628110420  0.6590063220582756  0.9831433849888076
  0.0437431229865792  0.0995287201497624  0.9410156213291102
  0.6438175783484166  0.1419771438820394  0.5286624137918211
  0.0474710633685224  0.4253142145959089  0.4697868529515479
  0.0597685035362363  0.2899581048082573  0.1925648494393538
  0.3391160351451017  0.8050128139862550  0.2312596780753209
  0.6167906361060329  0.2942916947530199  0.0681489883325899
  0.4253225419994707  0.8516359213713521  0.9329686709738028
  0.0554545759489142  0.9605962858439173  0.3738073269072553
  0.0949350955967668  0.3992823065978370  0.3481060195852499
  0.9908212359784504  0.0318075611498069  0.3561091649453984
  0.6618577099990337  0.9247383394109931  0.4980090818313496
  0.7853142957190239  0.7262064472674933  0.7882808140496375
  0.5278924624345454  0.0744544834424836  0.4924424184798153
  0.9791880211569117  0.7612553692183657  0.5734034967264803
  0.7283821872046663  0.5928205253491418  0.6232691769017706
  0.5361200878289620  0.1571002934785579  0.1448075735429916
  0.3449562738927397  0.2392245826903185  0.5877395501572139
  0.2842386010964704  0.6357772908971974  0.9712564712823722
  0.2367405023989047  0.5130526928072018  0.3923045682958528
  0.5370033334963795  0.0793982793300799  0.5767328767657040
  0.0024856847064946  0.5100553558256216  0.8251350859714798
  0.7488980609008844  0.2356227471451667  0.3325564707915549
  0.8218855624996944  0.4585944130223357  0.9141868233731781
  0.3024847147858948  0.9377459042258928  0.2792300456933522
  0.7932808483265064  0.3465517658999673  0.6010437993525412
  0.1037693378622246  0.0114916916993101  0.2491821798106279
  0.7991711445813309  0.5961947932023578  0.2718660949345361
  0.8754382759364275  0.6215593119850142  0.5013139119945235
  0.0263708394881219  0.1804459557980926  0.6460618870559738
  0.8372334109509963  0.1838810571901890  0.8730892125939593
  0.4129902398219651  0.3111514808153678  0.3719075913641641
  0.2657551159108865  0.6293014758887477  0.9514390758407527
  0.2560998570445104  0.0972195495868853  0.6588742188614807
  0.1605906794579988  0.7319686176304803  0.3212545255194189
  0.7159603562693958  0.7167575925829063  0.4269315973036709
  0.6600127085822928  0.8711300443375587  0.3130381910397257
  0.4237358802598241  0.9229203749359564  0.2708163442387195
  0.6682759607931873  0.7200618563950670  0.4161027872631236
  0.6708117037131538  0.6722487157835058  0.7547250494453416
  0.6898105744139965  0.9225176002115749  0.4999252447486431
  0.5147547235693012  0.9128810400437603  0.6479566364691375
  0.1999829422458053  0.1125174269320406  0.5497312677230968
  0.6818116716065654  0.5141132912168346  0.5904466840279013
  0.1138783639133592  0.6685198103100877  0.5479069534073735
  0.9402059965949722  0.6021210805658201  0.1932148135201896
  0.8063400320941017  0.4699197752633914  0.0950517932426221
  0.9902738665310222  0.7169612198285519  0.9667568677923233
  0.3708727557721258  0.4171887699461868  0.5799503113742122
  0.2830905695472072  0.7194010151629798  0.4630463427878905
  0.3890525659917737  0.9705615850476943  0.7951313657760717
  0.0716676965434717  0.8419308233228840  0.8997183549252824
  0.7315031421987871  0.9857417556057945  0.1241351429938816
  0.8025218647002865  0.5647659575796823  0.4620093880886925
  0.1047597941099398  0.0812301554732797  0.1396994970662954
  0.0387352628094903  0.3624471711389748  0.9885767575439280
  0.1562137988787617  0.7267793357426777  0.3487190530370350
  0.1365233395243803  0.6506448465037108  0.4067316646914080
  0.7122589712637061  0.9201106628410392  0.1504957519671292
  0.7678468584240108  0.8907066937904758  0.2621455825350232
  0.9549416949381890  0.7223726377986179  0.1123281735038147
  0.6938617755792278  0.5413539758774979  0.2740259128665342
  0.5639418494530051  0.9659567282677197  0.7719181052227426
  0.6356785687839765  0.4554283911969651  0.9797004883268013
  0.3613172872856459  0.5838886137496164  0.4290401110049038
  0.4574122480567794  0.2649922698649728  0.9810245924047780
  0.0201592839692328  0.3010832541771790  0.7719111891719468
  0.8047013785299061  0.3888419517067156  0.8999388368610675
  0.2810505761798187  0.7970419275937152  0.5720644302505780
  0.0147689978967136  0.6495425262651261  0.9357517130612362
  0.8752452918104174  0.1047440150210188  0.4941706034972136
  0.6633357061962274  0.3823568476421640  0.3882305253837153
  0.6340345735770943  0.1554670250330783  0.1317895877264266
  0.2987263459260678  0.3272425225509776  0.2691372509571345
  0.0057735108764065  0.7019490607630808  0.4701669010653703
  0.1481324261510904  0.6735931704175576  0.1734097078467240
  0.8805550349066926  0.4544461452523480  0.2274387033017906
  0.7498784375806214  0.1781539778799456  0.3665766348797088
  0.8889559043662186  0.0462819455910367  0.8081054582179241
  0.2352287861805482  0.8728400244615901  0.1395362037160557
  0.3382871675737820  0.1368018334685893  0.3228459767455418
  0.2297915948090510  0.3149316909001429  0.8442286608839339
  0.6444189598419712  0.7850223742074471  0.0374155215685488
  0.6406305342895273  0.5231606399731121  0.8326380611753121
  0.8491559210269183  0.9176876579485528  0.5754879074596111
  0.6508449872396703  0.6497933084921849  0.6117885085319923
  0.6358191325866842  0.0777218587537657  0.5974394526852741
  0.5373699126867779  0.3452789166104870  0.1833390729558390
  0.1868526067944807  0.8736735848012394  0.3103099743367082
  0.1681791225058951  0.6020536814220486  0.5880714103714759
  0.7102013386635188  0.7803815098813170  0.1548751608672957
  0.7905794718246186  0.1478487089023490  0.3579435056309075
  0.7408381120120664  0.5000313085581779  0.0881018948814540
  0.6274591981936747  0.5085589970616579  0.6561202638680054
  0.1968548343857658  0.9554157478901677  0.8513780978319345
  0.8252940343063977  0.8536805199325226  0.5356581965727513
  0.7233942242548405  0.5708504434528539  0.1576170800084777
  0.4032747235984782  0.3069329439183321  0.3973670473358278
  0.3012862196033367  0.0067202869363863  0.9058416531480474
  0.8554924830851466  0.8935163381532922  0.4070152107496041
  0.4507191976022299  0.3186329076834813  0.3435090843539675
  0.4405319111888834  0.3493589313807323  0.0987329992589758
  0.2926533446770432  0.4857733655184765  0.1819361613708567
  0.0975299866992806  0.3248650144887811  0.3505364593182486
  0.9153031063179611  0.3885003301420311  0.3829019818013631
  0.1979337850329764  0.0520791902560011  0.9738677604328899
  0.7079822027416576  0.2208642190661144  0.7531747077381907
  0.7937569123593802  0.2700108034949301  0.7783179893633345
  0.6709292964012967  0.1119365633337683  0.0728042350306871
  0.2903773995785011  0.0269586732012474  0.6842124846205335
  0.0682089534314087  0.5102599464392416  0.4401544310937311
  0.5112399198821089  0.2063488125406866  0.2679642538713335
  0.7166782632262576  0.4793099424269775  0.2264222903356138
  0.3180681384173801  0.5113853465553504  0.6782651599092933
  0.3659320455548100  0.0293855327011183  0.6850398354841259
  0.7207539560531796  0.9375088497032009  0.6994899646735947
  0.2996964842855130  0.2364257925481508  0.6997895192550467
  0.8111325153269342  0.8291840792154945  0.3197991006473268
  0.2814136969506746  0.8536031872213476  0.3850810728891140
  0.6355744549674238  0.7812497009047847  0.0849214864962076
  0.7455801464591876  0.1118008318518047  0.8887147377428317
  0.6641715828673129  0.4890651635275023  0.1727475395715879
  0.1325254068522417  0.2774500401553116  0.2595701462238958
  0.9704306680550232  0.6399394529037762  0.8135950129138755
  0.8646345753917051  0.9680239540282739  0.4927593122880087
  0.4892777096954117  0.3292282314464141  0.9351546781123493
  0.0692825621021666  0.9464567337858906  0.1988856946026803
  0.0017001845108256  0.7235855081793879  0.0982807771148599
  0.1407369215447326  0.4686955636061528  0.9944238746713120
  0.9111541586254817  0.2431207600517266  0.2710075206367514
  0.4745480567287461  0.2745602974045168  0.5515505738641059
  0.9404344234315937  0.9855751371693999  0.5513540506032738
  0.5086025206139594  0.5199727938244341  0.4126272843575802
  0.4876127832198855  0.1594217133545456  0.1509377655713585
  0.4379523595647719  0.8569179101696254  0.4638229225037404
  0.0191425326032406  0.3456117397099877  0.1685878412400806
  0.6650008744031605  0.5904723251989029  0.0606167420610345
  0.0004483169309770  0.6253909186783636  0.5707583848610163
  0.6166377245605249  0.0840475851175741  0.6436908820718736
  0.7363599715062964  0.6837732861374215  0.3073555360370887
  0.5428839272296492  0.5052040375359331  0.6419226136201185
  0.9886205007163605  0.9712535163928273  0.4097184086238375
  0.6888782541461858  0.7950100984372165  0.9246428761120719
  0.8142279891341702  0.8950999938984857  0.4328589113608411
  0.9290452811262010  0.5133055054679154  0.9121352593721662
  0.1564057777861503  0.6599459384141526  0.5188416296781634
  0.7603532982061109  0.9746754063355755  0.8844016612049016
  0.8066822869523126  0.9692493833416722  0.7661114082137300
  0.8251568626513552  0.0564252611034261  0.7770134029378353
  0.9006000546051536  0.2616362334388476  0.7422324351847918
  0.7894827309471681  0.9522181713884489  0.4329592291686308
  0.5527660228184617  0.9654367579878171  0.8573994208797675
  0.7844085156359637  0.9415951830109505  0.3595669718994709
  0.1525848899420585  0.7716317154370492  0.7036628423806012
  0.3775721712086021  0.2672919964606169  0.2893898585850784
  0.3323528330175826  0.9551470609927066  0.8739183370608418
  0.4439388257279752  0.1127097625988289  0.8241930461032689
  0.5083952604242267  0.0730751673916771  0.5370057182263722
  0.6401555214783676  0.8611555622118852  0.9489749035760259
  0.3145566955649177  0.8697047459556465  0.2849911099939849
  0.8033458552415916  0.2937965979131513  0.5147608089961648
  0.0546127420488094  0.1170445051379726  0.0244635019703545
  0.8314098139905012  0.1518717205928733  0.3299640439621295
  0.6396520194817392  0.1567960163932616  0.6853145255503004
  0.0110355382319549  0.7414312942005551  0.3181399037877355
  0.2213397858905707  0.7794624397624659  0.4100571768726092
  0.0318027753287247  0.2617584384025105  0.4540097197926212
  0.8072617444373610  0.1924394348240532  0.0118254063668174
  0.2917371621824029  0.6374237162131055  0.0220112890023891
  0.4185019484053325  0.7701309522241995  0.7415739594114207
  0.8249266573708685  0.9310372248258465  0.6730973047850266
  0.9654796274781773  0.1789876296951524  0.5301949332909955
  0.2438308012860404  0.2524378711257536  0.9467986302128241
  0.3806654921758900  0.0369224549030979  0.6391261061761808
  0.8416774394647040  0.6460820734489534  0.7943863642150721
  0.9141500632798361  0.1434298164674463  0.6956879644491615
  0.9781981870220519  0.5304325207816649  0.1230548169806004
  0.2731488317684432  0.0067761252673158  0.9028554182497825
  0.2612086077231684  0.1705437301972952  0.7857718948761401
  0.4141177864709090  0.7001862401162658  0.6784632022563333
  0.9386825728525836  0.0575940171019171  0.6112622052831300
  0.5482259449658552  0.3968935182595065  0.3048997427953630
  0.7485580518444070  0.9191483009726882  0.0245497726396792
  0.9966898614613779  0.6307000360361146  0.4544965508489384
  0.8124859237405614  0.6506864516593009  0.7543030982002272
  0.2206855512036530  0.2145223706064930  0.4151698238348008
  0.1371313871170768  0.4088108454550505  0.1279510228164012
  0.8552572623812043  0.1833393419510212  0.8951248546725755
  0.7507454498691933  0.9498322539019138  0.7417569251284586
  0.0985793421022630  0.2336572448611867  0.8163640846187828
  0.5587440114334802  0.7279516379243220  0.3463548097902241
  0.3317930875095538  0.8787917869799428  0.8739557891493005
  0.1878964317744482  0.0779815866130185  0.1235854742752346
  0.9366893999328577  0.8840914470274396  0.3064894464711255
  0.7449366646915844  0.1266885491657102  0.7312256034716321
  0.2364262397539486  0.3012680378697657  0.6378231390404651
  0.2875095420675690  0.5991179451655638  0.2763900498975549
  0.0108675045875774  0.9078855875007056  0.7334565679464583
  0.8085555986650259  0.5725976880271290  0.5365353065279714
  0.5902833623870131  0.9406319289327153  0.2972585948769080
  0.6785975026647351  0.5253538374105884  0.8642353048067888
  0.8806775784635714  0.7685007999362392  0.0521769487977289
  0.8564580491840669  0.9795989379647636  0.5402918664348901
  0.2509433769466845  0.6585169420094782  0.3413857786008879
  0.7867438654735480  0.1864732832434951  0.5071086086233086
  0.9733753639533740  0.1021610145655184  0.9634508892961717
  0.8971720671203433  0.8918534905668094  0.3813104183472354
  0.1063736225626835  0.0187192483795416  0.3538956619456761
  0.7789417119885114  0.7856483342967187  0.7975825195922418
  0.7643847167950798  0.9750442106250289  0.7877748601429311
  0.4092146733000693  0.3156006243130235  0.8876582553707987
  0.6498618895408739  0.1062428826441981  0.0913486306187581
  0.6802615037495713  0.6008011847418433  0.7420921842480088
  0.6206690326057834  0.7231243227273790  0.4049812645412740
  0.8775523358150513  0.2623987507852157  0.1661301810053323
  0.1544789603561214  0.5389355321123062  0.1048773504534053
  0.5883956189032270  0.0919278159952119  0.7978122182529211
  0.4210622704380897  0.7722277446790957  0.0527934859677425
  0.2598073861319409  0.1437522885148025  0.2910966240861323
  0.3950373398019290  0.2555097003843677  0.9257514102335450
  0.5760383930129059  0.6541554843617368  0.9451099875304738
  0.2503064742977273  0.3804261549404120  0.7504956408890606
  0.1935373131124643  0.5175088600507138  0.4852407834851541
  0.2824453650144113  0.0461393166685870  0.4367266331065132
  0.0455843648189078  0.6396902713977347  0.8167986054004348
  0.3518689446515665  0.8520636981950764  0.4128906955092724
  0.4694791690885505  0.1698091658985917  0.0083302744625832
  0.5319153721235740  0.9904748676482930  0.4524670897526573
  0.2950414808027989  0.2412703156196328  0.8274750879692541
  0.8507620688672303  0.3889037533716790  0.9712362361722927
  0.3174772928174833  0.3802367064261198  0.9900683398742806
  0.7753018814164190  0.7543818626887905  0.2874619618290688
  0.9948063827663151  0.3942652566483288  0.2796374894647748
  0.0318984846725396  0.2162725041884908  0.1552261244924531
  0.3688910672226184  0.6407020540907651  0.7332461524618894
  0.7359074862835295  0.1375367660410003  0.6765243211843539
  0.2326109944978801  0.9506145198370417  0.2628965702576360
  0.8803781481677021  0.4076363338956651  0.6233261867241370
  0.0702437394436776  0.9423513471896937  0.1699860206109963
  0.2167138975330583  0.3882003784543887  0.8718901465459007
  0.6586365805025608  0.0903437649102359  0.7701914232589800
  0.2857976674236092  0.6529002686478611  0.4074589362317210
  0.5333373095218420  0.0134365351751216  0.2483644324577319
  0.2654631446067423  0.2814671238604624  0.1919608749920346
  0.7067277438439339  0.5619069790058854  0.1787239998753168
  0.9279352213799154  0.4968138261830325  0.4120115915028956
  0.1038481401704773  0.5898325161820539  0.3471078536902105
  0.5624626634604959  0.0959576181459683  0.7884474265431191
  0.0846407005113706  0.9537764110054879  0.3046189904128578
  0.4144236997167043  0.7175582819857015  0.5507145634075004
  0.9462573560515850  0.7669461029429570  0.5014509824698132
  0.3188954384518581  0.1635727856360992  0.9003497857535685
  0.7474669604348759  0.1242244709871784  0.1034200165027887
  0.6905769595240686  0.5784342294051540  0.5002360201265035
  0.1831285934668927  0.6907763330181321  0.8465892767613041
  0.3436805590916182  0.7787436652933426  0.4563904385113510
  0.8480106038312182  0.6820520803418161  0.2662990908908444
  0.1339905735084448  0.0847588147541853  0.2830198431263350
  0.1370566150281351  0.5192964691802967  0.4760249684395082
  0.9633865107693795  0.0061181000644456  0.9187052691436043
  0.8056659726052328  0.2782071556681022  0.7250547406155476
  0.5430848429734642  0.8471809546372672  0.6325664654707576
  0.7633423099341516  0.9784036168235052  0.7394362844655836
  0.3659915576839545  0.1036414530175414  0.7927063049710172
  0.9528588122213166  0.4026994852250476  0.6452100444344055
  0.9938087902602879  0.2989216900399422  0.7627984314998506
  0.0589333535772857  0.3737128894623051  0.9371124215054210
  0.9550940343174241  0.5108246501878301  0.7654829494234996
  0.5262736430794520  0.0400867116469444  0.8063151690283702
  0.3690348983129585  0.3617563401607449  0.0836027827897404
  0.2901995964871965  0.1835166958539976  0.0519931742374277
  0.0233135177363131  0.7101703392913122  0.7948635416589050
  0.6417706093934765  0.2855013555210851  0.2795999471930980
  0.6377460212477295  0.3438417918393491  0.1927617332326513
  0.6557963606171873  0.5405269395777746  0.2409938081407732
  0.0646478908219050  0.1795121638290974  0.6150191960654243
  0.3797887271759712  0.5195349432158337  0.9129967315573605
  0.3704730259088095  0.7842120702241601  0.3860526367388731
  0.6125076750952917  0.2292619246172334  0.9357509695507044
  0.9396046582830380  0.8505470032701820  0.1156345836769705
  0.5256046031046846  0.8530046929309074  0.5600644949270240
  0.1745934205982707  0.9626128574023401  0.6036346309410412
  0.0698035723346762  0.8241279412132236  0.6034379192974868
  0.6348310615162234  0.1529081644136557  0.6572678914125073
  0.5152619827003858  0.8401432440227166  0.0261599982081550
  0.4511601735539061  0.8391362861793037  0.7132464847119757
  0.1634444756838395  0.4667498849648141  0.9400674530102087
  0.6831951889216458  0.2539539986085568  0.1253234095013641
  0.3541649778689039  0.0313116902166003  0.1208278243751084
  0.0707675018739851  0.4788341777975627  0.0941510631001277
  0.3504429178261939  0.4251733826867813  0.7893160412391901
  0.8706716862589937  0.2462605366564635  0.8799126672694493
  0.9474601266065806  0.2670448206756594  0.2366869742856101
  0.5164142147064330  0.2271074253721002  0.0479288659022637
  0.3549954751231357  0.2442269446522299  0.7816548506015211
  0.4382985404530955  0.7706598719860630  0.7216082987510325
  0.2276733698061839  0.8117437703378091  0.2155810430272490
  0.5793266428362047  0.5787546104402000  0.1074665020287549
  0.4764740283563635  0.5052149085358570  0.6059521452523540
  0.1301900060666598  0.5325056715310551  0.2512615362753997
  0.3642255601806506  0.8291364668629922  0.6698045451445832
  0.2000225515171616  0.1481326517066300  0.2147225428801104
  0.0408845599503697  0.8483854411843432  0.9951946626204856
  0.4944286566598520  0.5557147926424798  0.1600670367927324
  0.2523462708855012  0.4040939816312784  0.1287203035033891
  0.9944242639714470  0.1727208607499311  0.4505568949603332
  0.4757534237120233  0.0940367969147115  0.0711367196710545
  0.9669222591589247  0.1528878073096969  0.8053224902811369
  0.8970182801372183  0.1103273994227866  0.9270020230050220
  0.8040091200562302  0.1213610610467149  0.9668104426361142
  0.9616434432008635  0.4061081096317140  0.1834754512248278
  0.7708149609778154  0.5935950445630667  0.5514836859732456
  0.3956461154357662  0.9666597071222092  0.0792967116841956
  0.3660060583525015  0.1673751644569584  0.6470447418446442
  0.5917825109723636  0.0908809627958437  0.8263355147881680
  0.7226834843655415  0.7229554382189903  0.4003628536796448
  0.7899837826760858  0.3283634089284737  0.1919087539017201
  0.1197666438331022  0.3055759449176214  0.7794104608516208
  0.4545301904232140  0.1457663188406358  0.2682852480098452
  0.5981620902989275  0.7124384254544364  0.0878659006305199
  0.0136341159503136  0.6096428636403195  0.1752952964485888
  0.4265137503536390  0.9615066830437119  0.8836143276413061
  0.4619320737447398  0.1902673963667008  0.4886245480130605
  0.2128672375264990  0.0140763330936205  0.1558450942044707
  0.2323815903478638  0.0836416906330268  0.1360027364488837
  0.1067689526067417  0.4509396779302092  0.8734781908504495
  0.8472442504155295  0.1862556785260593  0.9476474066049755
  0.5687439025545692  0.1539937973840975  0.4895951779654939
  0.3931000272408560  0.3086780881355943  0.7366698881961478
  0.4380689849318715  0.1858444001484698  0.6567471454539541
  0.7879855138119275  0.7645493134107952  0.2323776032759099
  0.9939586967910701  0.6346339429842692  0.4263369932935309
  0.4000310743340847  0.0471190870835645  0.4075196656108178
  0.5265162411244033  0.4184223474891176  0.1073600367315952
  0.2323751779382236  0.7366191167898040  0.5817380032870837
  0.1937376928929305  0.0365548803911328  0.8110497679401105
  0.0874161585005216  0.1679971984331440  0.0351706782972650
  0.8391334839917016  0.0990514141304911  0.2703341946934595
  0.5138451428183052  0.0267906251571965  0.1675959262445014
  0.1331262534618608  0.0872006636408444  0.2083482206716829
  0.4947913186845014  0.0654064370853242  0.3966829174430025
  0.5667995921072093  0.2275514055268153  0.7168447109448383
  0.3098320224875510  0.8537338498267822  0.3861195566948775
  0.3970891761050894  0.8557742443797829  0.9336234031415853
  0.6559363372031655  0.6468006713870218  0.4632320861480473
  0.2687990983424733  0.2602466130512324  0.0418245099630445
  0.6263897013215565  0.8574884192067633  0.6282808888021463
  0.8410700530701828  0.7198714647052165  0.7716597683801246
  0.8082993123446217  0.6594875855485495  0.6114393191113464
  0.1182464481379090  0.0451046218517927  0.6098279955120880
  0.4508322226483375  0.9841432378559146  0.4264165389000752
  0.6218533311712283  0.5926447354953349  0.8879863118573267
  0.9909006804611789  0.4759052720744032  0.5968080739628473
  0.5997430114109545  0.3433598971934365  0.2222768684083528
  0.0411906729793363  0.6528705528088635  0.9454520444606003
  0.8192438275655458  0.9733362822472421  0.5091373783149173
  0.1807781692163546  0.9918352885274238  0.9737709056606769
  0.8720803437975613  0.8729701414199205  0.6855792052792612
  0.8839963240442292  0.9752814665943669  0.9621408878694410
  0.7280156972564663  0.1877168862771729  0.9833794786416888
  0.0265403860119097  0.2399062020153883  0.3263648918482274
  0.3076946032438624  0.2406928971095787  0.7717265079696926
  0.7222960067631066  0.3955755422573550  0.9510337102914904
  0.2860136006740609  0.9728892991892321  0.4777337660690776
  0.2863047772618991  0.7447012396144370  0.2049199837928034
  0.3495880816133908  0.9354080345907925  0.9152526086451805
  0.2820394253405037  0.1732388657474208  0.9302191209295159
  0.1086227803038125  0.8197463359760537  0.6332315045783379
  0.3803845364229231  0.4109696978393281  0.2037072279322309
  0.0856771102856682  0.7421786468736993  0.2978705781952197
  0.5175753880298898  0.9895254102120981  0.4999536364297857
  0.9752370249829327  0.5126059814470587  0.8958022989828293
  0.1765146688935637  0.1123120471110103  0.5961226273950371
  0.8449571881485960  0.9486304122837947  0.7438548152465945
  0.3537826935337587  0.2563374154653682  0.4351960154712058
  0.2491959263837777  0.8559420429711692  0.8961309927640987
  0.8936961150470522  0.9070052772876780  0.2334476552161661
  0.5492062245323158  0.5876030633521943  0.9610031083323600
  0.1935392568173883  0.0622696403532158  0.5341353407064185
  0.9674861946069029  0.7135614279179788  0.8827204516237976
  0.9263260551270486  0.4625518004494498  0.1765611243314094
  0.1984992751783974  0.3117382112644785  0.8066371050804935
  0.4059301972360354  0.6128156115376434  0.1861390947395842
  0.4307532909806367  0.5401868296387045  0.2762718677962870
  0.7855961351337784  0.5460335136057384  0.2387699220465355
  0.6714858474843649  0.3158321196100875  0.0074802462672418
  0.6111980754205335  0.8518631368515451  0.5563600909812640
  0.7856438289201969  0.4224645367019713  0.6618508322124055
  0.4584098615949047  0.4873905571410664  0.1011421998420663
  0.3625261263403818  0.4671515199618365  0.3043357048839587
  0.4148840638040391  0.8945185884817982  0.1616682608735946
  0.3791566168674480  0.5775097006847644  0.9035628053925309
  0.6856972539108728  0.5075040324743553  0.3911922564995752
  0.2592812489928653  0.6696796643788171  0.6003160127658491
  0.3343983934899969  0.4014446622674631  0.3237339808335135
  0.2207989621722147  0.2184169390850294  0.2120046731983210
  0.7657417732189074  0.5917630981614224  0.8389666464636408
  0.6892039935453808  0.8705416062272631  0.3613232900727865
  0.3715030658778675  0.9196081957058440  0.3504562383396039
  0.9691233696884808  0.9159945542053854  0.8233134651278717
  0.7398577816693526  0.0554123803217911  0.1698795747533303
  0.6775524079813752  0.1177171189875151  0.1285367566056119
  0.6317486317868526  0.7193073584394832  0.1213463023259289
  0.1192372226590324  0.2255524945330210  0.4096989591097915
  0.7410307345993644  0.6550210710640151  0.9918368227616878
  0.7281853840562283  0.2949126922160076  0.6641830223394172
  0.1820352216736616  0.2834461603299610  0.1714324075213733
  0.3819187524540245  0.9809420759016982  0.4556675979731561
  0.9270912844448684  0.1255735325999815  0.1820685936230339
  0.3987737371953556  0.5990688010787575  0.2840241314598506
  0.2612162268261738  0.4218680779309264  0.4924720747300834
  0.8706250158128823  0.8386721759994661  0.4665313530086976
  0.8729978651740371  0.7685199052245048  0.9486501217423523
  0.4011221661380630  0.6488008770884949  0.9261462443869998
  0.6513498538804121  0.8065901356483529  0.7120086238475439
  0.6224980103409417  0.1646048416927390  0.3835108267436835
  0.2623237288756718  0.5353385016521857  0.9753547394109742
  0.6551935558595977  0.7229258147365762  0.0248699817833787
  0.9361311783210715  0.9548545735679270  0.2798217918975128
  0.0127952127162944  0.4425884767392380  0.8398850102309823
  0.0736384701469402  0.3456414161919337  0.5304539414975710
  0.4332803848145736  0.3217761250983588  0.3214127609939709
  0.8896562218977345  0.2282570256356899  0.4652789165321425
  0.2188621848010830  0.5314940182160012  0.0668430000590664
  0.0904801212734809  0.0287115989825820  0.9077572649456745
  0.1193071256852107  0.3953912740227468  0.9826127088559012
  0.6734280507589739  0.1763878965926801  0.3102709350236103
  0.4240444269930226  0.3199558836126296  0.9110287473588511
  0.2072471258765750  0.1447909249118906  0.2706396011637333
  0.3357681724444627  0.4817173444255844  0.1319894301305006
  0.1215568298420377  0.7277473391352843  0.5137747997989309
  0.7062493895750269  0.8691909901955422  0.4346366871278600
  0.7493443467534434  0.7324453129639622  0.6194125737448596
  0.5354948265382191  0.6551726695155864  0.4346711812067636
  0.5635709910640527  0.8652217782045649  0.3391941801028165
  0.8787701898359799  0.3055973657809825  0.3469039013362750
  0.1865488301383612  0.9531887974471887  0.2319184043576314
  0.9761342023362122  0.5194502024218011  0.9715583565989955
  0.6226361680001394  0.4452273001255799  0.4733936846674928
  0.3201316213764148  0.5141852204909448  0.7535631829727308
  0.7838482236126165  0.7229018439937541  0.0277577093520599
  0.5024462531599658  0.7861248540212714  0.5354722868746588
  0.2270534351158036  0.5278665533554366  0.0184115825021839
  0.2580191415902400  0.9486084640888192  0.2194881648188916
  0.9359568854170687  0.0410018833474716  0.4805134653652251
  0.7687044970449558  0.3998254403883997  0.0728128387101050
  0.8578068304101240  0.5359374523533563  0.1507706197944470
  0.5075363443657379  0.5829323695208779  0.8858230849996827
  0.0726422466271054  0.5846914120087686  0.3872298343585679
  0.1616491959421656  0.6720710225108794  0.2580785979627590
  0.3759070770599874  0.1145158872069973  0.5812195319496992
  0.7165878874186746  0.5255226997331864  0.8959440229121751
  0.2508012803854271  0.1002058696549417  0.5741790964513597
  0.0039274403147107  0.5217448721148493  0.9768380429219012
  0.6507877768260738  0.6647605157012336  0.3422589866288697
  0.9366525580319014  0.2640562466409862  0.1075355529140005
  0.3629176241145040  0.9576552522585301  0.1452452759885795
  0.2061246173299092  0.8590056357130563  0.0962870766706794
  0.0853346214094380  0.3950097392284095  0.0158417715797156
  0.7213686822266731  0.0058100707538935  0.6851969206216287
  0.5885412903910209  0.0883399102711317  0.1717140206525939
  0.9880166121813579  0.5323218162157258  0.1499733279994971
  0.3421865555839794  0.8278370374757491  0.7704124543103599
  0.7261024494975848  0.2572090500021028  0.9756966360153796
  0.9790632513627880  0.7033495948114755  0.7021945333327440
  0.0942269124892998  0.9646323397599513  0.8646277180418543
  0.0160762235627163  0.8008878073597141  0.1614337057464149
  0.9193019456210128  0.7145141739411033  0.8952853988375119
  0.9003238804596099  0.0206472787353013  0.3287876960687567
  0.2093517617280309  0.7304802967649480  0.3315311657600694
  0.2798123946082150  0.7927371343327754  0.0773945662451085
  0.4404505616182992  0.4066673107614449  0.9609644678294935
  0.5596428507599376  0.5036616524191434  0.0955090772705688
  0.5242456469889933  0.8491325880209004  0.9046853159087445
  0.1901877564950685  0.7211731384924860  0.0472001297864882
  0.3041126162249793  0.3770985086894009  0.9655247065072781
  0.4629903493997252  0.9860537692358847  0.6083168253867550
  0.1995886362612553  0.8313904714011023  0.7776777606611008
  0.9433883615856486  0.7125801836453678  0.7695358794422342
  0.0834167987631681  0.2773156810700239  0.2721825117737091
  0.8160540142048657  0.0744685296644766  0.6680284467854217
  0.6692827085519859  0.4459616670796777  0.3982600295374409
  0.9414862375811056  0.2428883572070624  0.4802392642925001
  0.3638533173127314  0.8189861449604505  0.1565994070825399
  0.3149236383221347  0.2006220493224503  0.3926506494015800
  0.9022399594735828  0.6600373246411835  0.6445336302169102
  0.7633950135202392  0.3457225815337004  0.8135971833233254
  0.6354702518980424  0.7279324839427207  0.6828623296169428
  0.3224868698497241  0.9208078177443975  0.3487883418055693
  0.1225922221599900  0.9649009732395427  0.6704669028044774
  0.2442457375103496  0.2387454282442269  0.7119870520217643
  0.1296121690227327  0.9174488049856218  0.9792827356115095
  0.0032624217067271  0.2181730444513512  0.7989536131350136
  0.1174032192234927  0.9189386386177113  0.4830534596716227
  0.0998404466855092  0.0305282725600179  0.8339524996163754
  0.1926640735637375  0.8611029875030753  0.1200689564428944
  0.7041016540162642  0.1192556224242819  0.3956091920396607
  0.0535721051860371  0.4065174713321321  0.7137160547003405
  0.8134285145580177  0.5270051088814536  0.5866374851785889
  0.5928925393617609  0.7960182259814031  0.3519236235104932
  0.8902593936818047  0.3177848172812866  0.2764301453563408
  0.1781811939909351  0.3821257010096999  0.7311641606430763
  0.1560603690083111  0.6335821847721025  0.7342984523366721
  0.7637515171743831  0.1878454128847921  0.2829254273091549
  0.8447186200584563  0.4669152421725151  0.7941093895073713
  0.2600508125285743  0.0317980654319386  0.7773974351458282
  0.2707880171162527  0.5111977900655734  0.6954074685878100
  0.3423846387407679  0.1581987988538255  0.1683836638289141
  0.5534176357679451  0.2112340994901128  0.3297511394207399
  0.2373544294690740  0.5557730448161420  0.8491108456341995
  0.4010204888922811  0.1190052702026813  0.6214133185004128
  0.2180099465323672  0.4217335285673064  0.5172318011162547
  0.3548050239001834  0.9792704214411213  0.4474092341056657
  0.3227664576097112  0.7909072406094595  0.3282686195017749
  0.0639006797365164  0.6118294683116587  0.2309681878776423
  0.9658613625632889  0.4064997661514113  0.6204814773521381
  0.2955415798972381  0.2110709069501423  0.3102975270485331
  0.2393660833257986  0.6644617120457900  0.5804394090354120
  0.0644880507410049  0.5893047085493189  0.6809821518077595
  0.7155934713306277  0.1782964069782069  0.8993009990161502
  0.1923152752839554  0.8548961958289918  0.0726749335390295
  0.8730147704041115  0.4586439809168332  0.7917164920460494
  0.7192960871608907  0.1821193890082330  0.9272040153770166
  0.4890589321539456  0.0636724019554991  0.9483410758782087
  0.1193515923319163  0.3875101245239304  0.6867971416646981
  0.6107909410054702  0.5987243011475866  0.2759899911296624
  0.3961088337282083  0.8521897250655615  0.4884472277654781
  0.8363715523517361  0.4976984926275447  0.4446862079478701
  0.1967216543655634  0.7839721539201292  0.5511677962048809
  0.3178873943700085  0.0326468579572262  0.0882652613803040
  0.5227292325166618  0.7761449614081187  0.6650571061466508
  0.3398271795863609  0.8556388969386644  0.9371213376195879
  0.0969635046003532  0.0508741708201368  0.5278807357180390
  0.9132526704946085  0.8933059566450864  0.7107906233318185
  0.3288145196240845  0.9935476954607364  0.3400556202228665
  0.1270178653981095  0.5760619587741217  0.7619916404059230
  0.0289234100636928  0.8383973230980863  0.8273925462757961
  0.5523254586831765  0.5840281893644995  0.4929136939330387
  0.6368107949371304  0.3728680324930471  0.5357139698829932
  0.2470146728353093  0.0296930567566357  0.8252430833813121
  0.2525878558667436  0.5201784101052556  0.5693941973486827
  0.7646544764695040  0.5957197072243531  0.9380438157457480
  0.5199673428697200  0.3906384163141263  0.8099942815916201
  0.3248963041280802  0.0869109896391898  0.8788449340399351
  0.5588280161409871  0.9904665741976052  0.9571285867720402
  0.9748592747524364  0.7708159485952301  0.7056248885152139
  0.0335410220080168  0.5843447176271612  0.8806979867411728
  0.4544449932240269  0.0525679052586694  0.4583788061212321
  0.9641687978181884  0.6843632588277838  0.5312323749795715
  0.2831496061968011  0.3843308805940696  0.5825038371714741
  0.1093557088210541  0.1197053180950216  0.5645507873740753
  0.8804202766420001  0.7494659233307178  0.5857781192725561
  0.6659337827808310  0.3677766211592019  0.5845926849189376
  0.1134603629391801  0.4429846050752996  0.8467761804788676
  0.8719867551386494  0.5155941385723876  0.8259069561192711
  0.8564979352812063  0.8344679696586647  0.4228668532833597
  0.7119828158760710  0.9328911459690168  0.3773645578532220
  0.2129817805383645  0.7772162823388196  0.4580140310364197
  0.9421417085147548  0.8425260454423408  0.8729884518863651
  0.2253978688315049  0.9553378266205874  0.8148904828180564
  0.5564479040471026  0.5237011120784254  0.8178595929252318
  0.8708976130920912  0.3254976735165890  0.7485179950617810
  0.9318600850844205  0.0461262768303912  0.0528450393045969
  0.2020159763083557  0.5454412613730165  0.6844248440544712
  0.2512952834054017  0.7791724483822897  0.4900122553086855
  0.4944856938536623  0.8589484472279035  0.3156090139782273
  0.0152182105852050  0.2999619888826073  0.9800695160513669
  0.1463292303154143  0.9308011206678201  0.4416299006891089
  0.3548098538867365  0.0811452915492250  0.2371231905117630
  0.3871773703688950  0.0633893441265774  0.3243461545386191
  0.7505672125444085  0.2477515330332762  0.5077506089247610
  0.9666927599917307  0.2167372649482541  0.0527792338127616
  0.2238778220500329  0.2542068463530635  0.9269709458680503
  0.2225810576182234  0.6815446105704756  0.6314429489106438
  0.6013083282690579  0.5157046298211972  0.3780701693886087
  0.6305563677355899  0.7937983076266696  0.3841210164179899
  0.1990682550714398  0.3312427714452716  0.9368100552116344
  0.7764806813850679  0.7226729905683812  0.9269689738616803
  0.9422109686881921  0.1971544326761694  0.7319593060774344
  0.2070016781231897  0.5168607917289060  0.3124630185069881
  0.0126804130047604  0.6077405065963026  0.1474599621921239
  0.5911985669600578  0.2821372002518114  0.6061424719240639
  0.9874899139568240  0.1221041115306514  0.7053962239554361
  0.2268991336207050  0.6761493186961081  0.2034138699399010
  0.1137628087791515  0.2440289805381857  0.8614231034788229
  0.6025461442456911  0.8269990742133894  0.7981408198469008
  0.0423200894217005  0.9503502658917703  0.2415565634464085
  0.7122795582876791  0.8079626963686057  0.3262619066212522
  0.5265088098374975  0.5151983245051867  0.7382786445797965
  0.0511485308668517  0.1099911757761563  0.9969738973515668
  0.0596454254701774  0.9768772776505527  0.0460908653813553
  0.1554094305131698  0.8620414753088113  0.3561075456556149
  0.4843885556596310  0.5871072015963390  0.4637766525006191
  0.1712467329004851  0.2803093477524781  0.2197840739942592
  0.7575570505638052  0.2884416980460377  0.7137994841974794
  0.9331709628048451  0.9689798809243874  0.7929302479383076
  0.7788792255854771  0.9453923084337144  0.4078737409578154
  0.9246401275052042  0.4038682315477572  0.6465032677744190
  0.2697122564447535  0.7750567254604780  0.8482672597872700
  0.4763766569983004  0.6504417813004364  0.8637930543213064
  0.5995436239286125  0.0321601625614587  0.7995576563219858
  0.6050299706519856  0.9239213283577535  0.4931257567643924
  0.2245204955086830  0.8539043772435525  0.3830827991537379
  0.4962136812557893  0.2153689578044179  0.2132139860640321
  0.7239537065518072  0.7907240500511159  0.8825327021880550
  0.3428145182053793  0.2089190088981883  0.2984901288875693
  0.6988179424217804  0.8575340607667647  0.0455980257178240
  0.4331717668329391  0.1044298532845693  0.7428681687546190
  0.5754141441528203  0.0818665777935840  0.4877481374787989
  0.8603115529069195  0.1899392427108096  0.0318652515220012
  0.4128936582805867  0.0375882041500071  0.6771750091358206
  0.9026260006872170  0.4456455206510406  0.8600852414499007
  0.9730508327405194  0.8345246410467805  0.3898581220436697
  0.7779452916030004  0.9755796733299710  0.8122722856330291
  0.0409779275293134  0.0785694559247020  0.1767412514815546
  0.5281418560588996  0.7831048720924775  0.8753011604341866
  0.2766242997641006  0.9210045848236889  0.9637704445113362
  0.1517640997091840  0.3308482262778532  0.9451925793257197
  0.6748602895560869  0.8049337315389814  0.2936524625819217
  0.6314949486185429  0.3838810914742438  0.8071125550146812
  0.9193437572843072  0.6020393941937552  0.2385989106160801
  0.1056621171206831  0.9665152304946023  0.8906069459933152
  0.6204839322151063  0.0306032936386453  0.7805375606916021
  0.5687831691682450  0.1657822073512587  0.7067837809456975
  0.2582324746591923  0.9744105727830810  0.4712101986509111
  0.9602070473257723  0.7157001626347460  0.7208036399891963
  0.1195196085833393  0.0175727881331428  0.1771914727606706
  0.9862796259993275  0.2526463919948697  0.4681918024129852
  0.6192196668655946  0.7218113054629738  0.9913797521673574
  0.5349162528916159  0.5924267991258033  0.3437620623093565
  0.7704202472281391  0.9082713517126687  0.5044448568886906
  0.5743874204722812  0.6551281019145602  0.4034954379043105
  0.8388977224776502  0.7806983596981713  0.7510386019803494
  0.5910445489354856  0.4522527982713820  0.3403661350714300
  0.6606350035663181  0.7856612080503698  0.1663350486187283
  0.0548543452614615  0.3719289679886885  0.8867695418415110
  0.4002422746319684  0.1122632039656651  0.4834233391265819
  0.6495256583807264  0.6584571279391400  0.9556212484314425
  0.2114168859609005  0.9204175819936075  0.0708832348859796
  0.8956032250216531  0.0566608159185043  0.1608179331296841
  0.6710454826227847  0.7152825658188880  0.5177333280289860
  0.9991448147574261  0.7974605048050256  0.1382229007819123
  0.0921540515029387  0.1508567853359668  0.1428573859003432
  0.7346973026851158  0.6584693383345116  0.5973740558236205
  0.9758664729014473  0.3280385008543288  0.5165564310200182
  0.3284784072850893  0.3223475288152642  0.4408769489764122
  0.9360863816996877  0.1156325887270470  0.0521371804034141
  0.8667041806297885  0.4585797704136722  0.7432167749904541
  0.2729372048587053  0.1789590212473821  0.9560719160172847
  0.5173719053498254  0.8318252622685722  0.0745030866537383
  0.9411917736390897  0.3731212460786390  0.8424175934809200
  0.7952461754228325  0.1212962128102547  0.2830408538120906
  0.0444202311802307  0.0169507527468409  0.3097092659247358
  0.7466589612529766  0.5230189920060728  0.0495569631792823
  0.8336040071029213  0.1827122508356058  0.2506680004353768
  0.8148483118607694  0.7206031275972203  0.9593315283148822
  0.0581953260075214  0.6422451414622945  0.7245543620357939
  0.1918202156655936  0.1849106909957438  0.8937894817004740
  0.4947526087030353  0.8594411808430769  0.4631059278421527
  0.3706073994106946  0.8294473715971179  0.7684442175988397
  0.4611262910273736  0.2765278944860328  0.5767138701514626
  0.9600404842483061  0.6600848679706820  0.0733963892638081
  0.8194248943090899  0.5760418169485941  0.3176840857381016
  0.9851273974073790  0.7770276673607592  0.8841176662346864
  0.9046307643813363  0.0544972742231249  0.5733882858236869
  0.4738409297801775  0.2292135998093919  0.1306619650241873
  0.4835501743311608  0.0665621162960983  0.5256514666877139
  0.9554213431682387  0.4456227399425196  0.9262810101800482
  0.7715930432735597  0.8832562279516966  0.3597034110922337
  0.5794247205758983  0.1627371871568928  0.7925680100080323
  0.6461903141863471  0.9932090182728543  0.5130454600568153
  0.9664812490572943  0.9837395663283320  0.9649388282245113
  0.6024944479271773  0.7177372058038753  0.4881961717146714
  0.5474890798896813  0.3137095203354315  0.9741756519518413
  0.6518680101398223  0.1683611910121964  0.9537493394213269
  0.4809998156689763  0.5832948162641682  0.5131225586920407
  0.2891557970759059  0.6391102069018177  0.8702871198027113
  0.1809061948084466  0.5797352618646479  0.2988159488302873
  0.1101184965967255  0.1426236042763696  0.2831344860373087
  0.0869202073181462  0.8073970613152817  0.1921912766810010
  0.2026063935927903  0.7401840615796655  0.2283147490950367
  0.6073149060241290  0.0946842100788232  0.1268289802508862
  0.7482735708021095  0.7257898206533693  0.9951793555222597
  0.6842079939774532  0.0704988017393073  0.3762264757013425
  0.0506254276539491  0.7145112967750469  0.9065378295147449
  0.9360671087723776  0.5145399942177236  0.7112512952426600
  0.6715821496321482  0.9336164576350304  0.3497499574443316
  0.9284314766910889  0.0578257774018720  0.8569675194195847
  0.5206457573746386  0.2067750767553006  0.5319084304682659
  0.8106888690948951  0.7450844768891495  0.0609081250408871
  0.4066327701542755  0.3639983989611240  0.5939243513306802
  0.9756040781044527  0.2319288856973260  0.9708140023530949
  0.7417633560538333  0.0682237237088012  0.6681392278505872
  0.8990905180446173  0.5309923690297332  0.6036543089192398
  0.4248627247555083  0.1266611737658772  0.6069743099037768
  0.3570097976151211  0.0066297558185198  0.8405301649409981
  0.7663981982700856  0.7141908093209044  0.5388197055615824
  0.9384964670759953  0.4450214883098638  0.8283645049276432
  0.9864519495699562  0.0728416607657765  0.1889915197869129
  0.9489781968410180  0.0696064586507051  0.6865508172267365
  0.6430990134611684  0.4442961302984006  0.7970128943294557
  0.9236790619269554  0.2552709455985977  0.0506250242748962
  0.3675374673925498  0.9792116500842786  0.5017765879768793
  0.2963726192113978  0.2484028013578009  0.4915262311341384
  0.6810092489867736  0.3622867399803750  0.6582309139094724
  0.1129078575510576  0.2165516202482184  0.2812372996731837
  0.3648367041978434  0.4451616299389226  0.6962890937161518
  0.8624144675667597  0.4325415359046757  0.5452311551988832
  0.0477542516798938  0.6675369902094658  0.1610092957059597
  0.2781724594741721  0.5881002207498326  0.4240013421350140
  0.0084154843413385  0.2984768226308109  0.9518071135539903
  0.4203594891564167  0.7372222567736427  0.2896557447650908
  0.4805039653154154  0.9184721565874029  0.4118975698540913
  0.2678568051155249  0.7211099964063814  0.4158992016542752
  0.0135550981894643  0.7553063825244258  0.5380120787698335
  0.0029778403417430  0.5824637746786139  0.7269766111285137
  0.6183933490402623  0.0803654536185446  0.2105117741929836
  0.6214364534035620  0.7173984832062981  0.6372923306388388
  0.5364381698574943  0.0875778847773514  0.9639607050486860
  0.3906241241679307  0.7882457815222779  0.5136230915853010
  0.1498980895752524  0.2575460873481392  0.9249697842656220
  0.6679563645686946  0.2130311679221587  0.6127527094230079
  0.7022180201310887  0.8992556226544874  0.8088530009416038
  0.7736140813311738  0.2590215658851343  0.5516652207832224
  0.5208127052282168  0.2281175595573680  0.1197943631733741
  0.2728039162668312  0.6620614456356815  0.3235446401649887
  0.5749972760065670  0.0952723896697430  0.7107795869099894
  0.2073066995120123  0.8681396933318456  0.1427683205532918
  0.2739385622927870  0.5837247747414800  0.4723250195447244
  0.6054156115043711  0.1579168892245796  0.9619088083718028
  0.3077921417854854  0.5078813479930724  0.8514698562502866
  0.6696672000393415  0.4388913410337953  0.6785291181725089
  0.1324947939077755  0.5888944739269513  0.3020235915453768
  0.1947780719095314  0.1041651884169695  0.7928193646654947
  0.0919360321499237  0.9745930903339033  0.5918327519930277
  0.1854580558482091  0.9215645317881597  0.0598286804182579
  0.5195662908421332  0.2841397351303039  0.6240606388526855
  0.5498986489734959  0.5792447152286395  0.0588317273872989
  0.0626480738564562  0.9626474367659688  0.7853811430163599
  0.3041323121870917  0.6585203216274107  0.3610842384103502
  0.3620323365737163  0.8245710368435430  0.6210596038862878
  0.0636231237218624  0.7102796233080418  0.8593828684940811
  0.7663062388394003  0.5962791515457897  0.7899143688142036
  0.1940268735260760  0.2376319863662899  0.7043917692839849
  0.5853477580770575  0.3563188628846434  0.1280053407699096
  0.5792140470370214  0.9257006897527521  0.4429462470062539
  0.3216504155850207  0.3268311799203040  0.4139225478423951
  0.5150201221221302  0.3150200298729338  0.7209703326455384
  0.4906336086207820  0.1327977441768421  0.3642784658707233
  0.0836231839772819  0.3358908036023163  0.5861624981849209
  0.2113456874679814  0.6062229123758918  0.6111336360792038
  0.5194903635145492  0.9755186138323667  0.0496391118743164
  0.0258507980133398  0.8485017495565569  0.0191290128890003
  0.8858067245903967  0.3812489050209893  0.8462557892409726
  0.2326739339609899  0.6058282391840220  0.1301908957899226
  0.8507763459150892  0.2036945511609849  0.6962363325253956
  0.0529743083091087  0.5794235822266063  0.7527645724987245
  0.9484105691291810  0.2642629674915470  0.6134093514709434
  0.3215884739050685  0.7237111203675758  0.3985541831461619
  0.2133523944295015  0.0348034995849174  0.7902771759007888
  0.0286502803976090  0.4883566817980382  0.5303256187944410
  0.3277754840222354  0.1017103832297051  0.6117351280831382
  0.4844695580031216  0.7615286618086110  0.1703871383302769
  0.2631148160051359  0.5223065549368998  0.5956850604246836
  0.5118067857106499  0.4049234282880576  0.9844291892560753
  0.6909893071937738  0.0449074501193673  0.0052354016532300
  0.5400766471227526  0.8394545239981109  0.7565291286509853
  0.0087419752710863  0.6609955236922311  0.0657040792032582
  0.1684713280296757  0.8824999910746122  0.5893805460393126
  0.1780198625212114  0.4145776726576516  0.3457434597585110
  0.2076800009661959  0.5954178757900639  0.2305327331986649
  0.0852524827192247  0.0505595149035753  0.0356053794453531
  0.3593549624429436  0.9001874606237333  0.0827677655509773
  0.9135491835834686  0.4765048993410773  0.5767897923967091
  0.9439309913522763  0.6502465546330025  0.9612888207918631
  0.1203753041896403  0.3208511677511911  0.9088680215824569
  0.8299248968729841  0.3099099636747720  0.3594957391815677
  0.2490443082852427  0.3392327023377221  0.1914089003887032
  0.1960959469928584  0.9197124772241156  0.9004893873711808
  0.6691231748497372  0.0664369956645188  0.4776248948840650
  0.6570114335742425  0.8499645592860942  0.1203457555939306
  0.6878423576802272  0.2114302988109272  0.7342852895949664
  0.3422489423417489  0.2448210267776840  0.8386111742787978
  0.7064153645696049  0.4565614883912045  0.0112705478043734
  0.2741163258311374  0.7403596833941997  0.2587885984147620
  0.8554512156847978  0.3010615421985059  0.5219069131732371
  0.5089612871379495  0.5797563778276502  0.8361364365490478
  0.7182970740364668  0.2423384051389739  0.7989544388124775
  0.6910875559938932  0.0623560817474055  0.4606654136416518
  0.1873705043949346  0.2190936173184309  0.3795487873803354
  0.8273921206053363  0.8430036762582729  0.4888572287321530
  0.3454568617004578  0.3831225550078069  0.9897299323583815
  0.4657678445870000  0.3235889074017079  0.8864478863593996
  0.6315317401377013  0.6665759243986229  0.3214320962759405
  0.6607907594375533  0.2190099535955941  0.7412070780474468
  0.4219156704028511  0.0297941320209754  0.8624913717954313
  0.3595402813391730  0.3154620368461145  0.3832433433186743
  0.5120579955065246  0.3593793326237585  0.6634040898436097
  0.4425679995433316  0.6567596550344900  0.3988902058169591
  0.6749970642694645  0.9978787190300630  0.4163873453774344
  0.8834662196921675  0.1572899031407932  0.3962868447733519
  0.3520580811641856  0.5096928009914691  0.4858187336610105
  0.8527132119224003  0.5219370848659739  0.6170923379044304
  0.4011975376737184  0.1660836473844201  0.0609315221750019
  0.7259869708589884  0.0539166531612376  0.7116407544763136
  0.9376924112856052  0.6617320561883568  0.0912297446875744
  0.6983537199893831  0.4458828059150591  0.4015005390253644
  0.6857426336060068  0.8757857653498028  0.2630682590642632
  0.3487131899970080  0.5153534692306583  0.7580342544966311
  0.6148114133764003  0.9334980735277342  0.3466667615580634
  0.0277754097094731  0.2297859272479975  0.9483895884373545
  0.0101987223132869  0.0105933430327202  0.2725383386792102
  0.2511669976313976  0.2605593115133346  0.0200320361101620
  0.9502533573191455  0.5289968074438637  0.1178210756004164
  0.9044941207997742  0.1363618226589500  0.7970099162791855
  0.8747989966788533  0.1826210432741501  0.8419916320887056
  0.9977662001028081  0.2001888146488991  0.7238491753635682
  0.0806847296613987  0.8589083334247223  0.1166020103214955
  0.4272772007346144  0.4089436932247722  0.0350088467167878
  0.1667279309163412  0.2216840071588246  0.3986558717388674
  0.1956270924653503  0.5784779631700547  0.4184597256692650
  0.4723410244193767  0.8356787767775431  0.7861457804700562
  0.8302147708817138  0.8422594950395972  0.8217697609055761
  0.2088457510731962  0.7379441547041101  0.1992398593312675
  0.2901708765000541  0.5320772957691366  0.3283173144314286
  0.0420375106509487  0.2259666420069015  0.0205291484541618
  0.5008955982505278  0.9770375482608683  0.6932052445025700
  0.9483319454529694  0.8304231999656793  0.7246125282074239
  0.9449993356172065  0.2006289215783804  0.0573911715233998
  0.9150801624197563  0.0518195579963246  0.7966575744540476
  0.3755297440647911  0.5310961574433447  0.3413809648211106
  0.1644964315431015  0.5318685907414477  0.1316863576019124
  0.5663868796370690  0.9261942794633006  0.4175643926917657
  0.7220924236645742  0.0023646493677392  0.4018772403397581
  0.8603223165749854  0.6034644712892557  0.0684636944963184
  0.3982431789507122  0.2521327261767713  0.4159658791176264
  0.7936962391716006  0.1171967970428242  0.8822744815815848
  0.0652149751921170  0.6723722070805996  0.2746719072825145
  0.2082074377872348  0.3020258454010268  0.7325699326393309
  0.0641266688399168  0.7929355202690319  0.0657027947938247
  0.7673857810255295  0.8198101032682700  0.3374293646662803
  0.6338975941096999  0.9256784302337414  0.9850698307970409
  0.3383066804005758  0.8941663434631157  0.1274714320696508
  0.3703264197454065  0.9702056488439402  0.7224262425029369
  0.5161507818112470  0.3879952648603777  0.4046474784142868
  0.1502415917706934  0.7451956522964867  0.6056176877614096
  0.8921681550988219  0.8347914196517920  0.3336353827319756
  0.6009173438244522  0.1602970909988558  0.7748220950301334
  0.6880895877872454  0.4573092020390579  0.9888576482073678
  0.3698320417030805  0.8608385875316471  0.2898026472152295
  0.6799566918595298  0.5288129438756923  0.9396109736169751
  0.4048880195872869  0.0681684121620011  0.2779351750065541
  0.4350919722771271  0.6729980035130743  0.2474816650086270
  0.7527825428282868  0.9980369068952119  0.6176007447946703
  0.3007997585051560  0.0556534991046497  0.3935893144133608
  0.4251481765719350  0.4126581290512258  0.9857996014145322
  0.8689913660291233  0.7537579856180123  0.2107225664429973
  0.6150940300802460  0.2992065759897223  0.9585330060200226
  0.2709093488247468  0.2053122079768815  0.1010398579220473
  0.5576185210044458  0.3787407644396648  0.7352234736295838
  0.2108846994919047  0.0709997288047939  0.5775775548316087
  0.3585853666251824  0.8978813725322149  0.7892799879926485
  0.8900226064996541  0.0792826175572019  0.7660716093575282
  0.6645752594121143  0.0702471285410224  0.4207451948770647
  0.5906547046258999  0.5017056814128585  0.4252257236144409
  0.8940468801580718  0.7714625486834684  0.0264453385115778
  0.6244294067955309  0.1019157859011796  0.0805709755056482
  0.6206154538282582  0.9251074089240403  0.4697126401793031
  0.5228719042372200  0.7752763246945172  0.8475974048958409
  0.3645824614384136  0.6708929501983696  0.2766621947929063
  0.5736455982914619  0.2233667099975951  0.7919593534484343
  0.1376140856928072  0.1176190041162815  0.5626051806380941
  0.1762151984770009  0.2785571411232274  0.0678955470358669
  0.6220702337603667  0.7892343289840957  0.4323047895952894
  0.9633736671468691  0.6026941841065800  0.1497357884090183
  0.2898980628865922  0.4750096644628628  0.2788496809362304
  0.9001555823587790  0.1110674177813356  0.9554410503371655
  0.3576643884278100  0.5767869622115330  0.4775275110369722
  0.5648175654433389  0.9034857201317458  0.8535523009892619
  0.5868086775459703  0.7837293213170377  0.5512650918728270
  0.3165303399986674  0.2546537012506009  0.4735370639599094
  0.7104047142269568  0.7904748324881585  0.5971253685853436
  0.9308772183510182  0.4428719169456516  0.1034448593740939
  0.9335504624744201  0.2328630884359441  0.3514991711841291
  0.1146598628995205  0.3456946985012880  0.1468779299230001
  0.0481159231642125  0.4190137786061897  0.5189293098109842
  0.9704201536707391  0.8204009724456867  0.3381123983319873
  0.7641699547929200  0.1129376371314460  0.8430422124701292
  0.0042992580477908  0.7898105836397744  0.0070058793533412
  0.2904531809568866  0.7351379696870981  0.3053259486843021
  0.2358709186155910  0.3348998393775570  0.3320369372962679
  0.3041108344471811  0.0482710763907062  0.4199782006352675
  0.8920115638450157  0.6677943654308177  0.5966848576339356
  0.9404705206654981  0.0256860487912231  0.2656126282587764
  0.1470221573666430  0.9664948973315979  0.5992727352210235
  0.2024976366963198  0.5712469864528533  0.3687728768114787
  0.3514659452808563  0.8555707455814635  0.9118597616651715
  0.9386038674599908  0.9045835233072256  0.7530758789555362
  0.8573129583124824  0.6968137920365605  0.4576270488351578
  0.0453339798642825  0.2182920016792403  0.2108407144750493
  0.0643062021975763  0.7779787335053688  0.7555856057698538
  0.7850960139474552  0.2594651329555315  0.0352731085968378
  0.5168827160396657  0.9712273801438241  0.0777686965361566
  0.2628145831277262  0.9492894212408074  0.5673688947007937
  0.9526536525449866  0.8938383128163169  0.3808257697247972
  0.3113577774112306  0.5328799309412564  0.0333625352354047
  0.1025364849854829  0.6371997706247511  0.7438515065245244
  0.8422378762783379  0.6699349737080125  0.1064143536617786
  0.0807970135339019  0.2726676183099077  0.5396870857496008
  0.3564278655699931  0.9498742152236587  0.2002021771966883
  0.5137044220488627  0.4861389605898892  0.1527202420885213
  0.5941877799606867  0.3729495500271377  0.5604053955078869
  0.9519464451945611  0.8759315652510695  0.2340702821582900
  0.5982619830852406  0.5808344105866748  0.6914951241858013
  0.7778211747080357  0.7084537243755796  0.4840471905564010
  0.5962002214388973  0.8618192784309956  0.9257227720516061
  0.4822933768808236  0.9884799278254515  0.9584573302755722
  0.5791356338533522  0.3594849941761089  0.0796284360224089
  0.4992644562034961  0.2622018083566276  0.3378750942199114
  0.7244451844893758  0.1350905520340701  0.5918976859141615
  0.6087369427729238  0.8700274101236054  0.9015615796598142
  0.0146482114122863  0.0612767211118791  0.1084991435652399
  0.1473490186925663  0.3416112898174700  0.1832458677982607
  0.0919381117622470  0.5343764456730903  0.2193200572880604
  0.5258406337127622  0.0327747411438303  0.1189684448201001
  0.0056007437187851  0.7202722178322852  0.0223724531511470
  0.3810700567248491  0.2261772351089492  0.1557785586293827
  0.6260447542157807  0.1477785855233121  0.2625075138423568
  0.7942984296298462  0.8645702774833990  0.7981945389838407
  0.5734626401190455  0.4708728222286820  0.0341210747002975
  0.0008992700122186  0.9778058332444639  0.6301303441950159
  0.6169638335679145  0.5180275938587742  0.0523960483249835
  0.2384691320912329  0.4748508290963181  0.0866284355702122
  0.4880149892117429  0.4865714918163494  0.1408009798621456
  0.0695268996538181  0.3771276998390451  0.9109234113559896
  0.7954098788212551  0.4085170411193840  0.2429142798118225
  0.9936887200532706  0.4432486519968425  0.7426779062131975
  0.3339569238507498  0.8944812182105718  0.5032076232986427
  0.9656988536354779  0.3745546085960366  0.7901914958313395
  0.4262965903532265  0.3807849868119805  0.4958256539328418
  0.0236452433754359  0.1252346999342662  0.5273004187337241
  0.9117430510607512  0.9784800263723270  0.1841874547463093
  0.0503433407611976  0.5516986910302669  0.5114524356345536
  0.5001295239989139  0.9282718569701761  0.3392373999090931
  0.4023818439074260  0.0631373168946503  0.9154977366524480
  0.4475105459088948  0.4797743039129875  0.2057352240522351
  0.2835567191310525  0.3709881448774208  0.6292582203697233
  0.1869075143306921  0.6217509605509841  0.6583329772635510
  0.2345717911515209  0.3315103983661989  0.3041007415274115
  0.9842029189822478  0.6443890603153231  0.8980198502070104
  0.1433187373537663  0.9220880197225095  0.4691059977115769
  0.1725664193662855  0.6199189530433481  0.8445703210079006
  0.3781589967735841  0.3814900362519278  0.7677087233531037
  0.7949397900218889  0.5974193692880706  0.7385968450426171
  0.4938618511865124  0.8614241407050437  0.3648297679076545
  0.6338544741044299  0.0953717036822588  0.1380720958033138
  0.2637218100072362  0.0996638572154018  0.7437913262610224
  0.2622216473640482  0.5868315994348403  0.4472788131396602
  0.3434435368366646  0.7693246339932279  0.7532820017189216
  0.2087749736829822  0.1688116212332692  0.7180878545417817
  0.4238772499087346  0.4724261817563806  0.0358659488236380
  0.7333222668676821  0.1780994704030418  0.8531633127124143
  0.7752920378273231  0.7884623296349631  0.5562147697435500
  0.7673066220977561  0.8400662108066402  0.2152425012385585
  0.7448335113734341  0.3465358018728107  0.6944273233038271
  0.5199955538296405  0.6611738306167938  0.3393208073614454
  0.3164325135452695  0.6690648867332277  0.2870280703258724
  0.7905646185709485  0.3612229531264177  0.5051517690664900
  0.0206419014366927  0.5100780465758828  0.3794765065330304
  0.7731211617397360  0.7838924993600667  0.8256029925804877
  0.8964300129664885  0.1817385193537085  0.9408315453564532
  0.2363446141584567  0.3872359645592593  0.9411209713604721
  0.7580440867049212  0.7915460119266026  0.7791619379472082
  0.6153812659076600  0.5096372603790195  0.5543062904364422
  0.5966893655954709  0.7828863804061088  0.5781561783754938
  0.1201875251994265  0.7214972680672840  0.9771845949844343
  0.1406147487348040  0.9464199365541229  0.2203583747558881
  0.3686588909173250  0.1479973428934149  0.9667554609341203
  0.3257027652268155  0.5403065585615026  0.2095331319626362
  0.2813853390504086  0.8967228836758104  0.7531192891486067
  0.7508924635616813  0.1345568486870757  0.6027569097440093
  0.6782906512004744  0.5767692438465039  0.4750184235214676
  0.7914845365305060  0.9904458686098699  0.5767074430941164
  0.1646294898941070  0.9612129777696965  0.7747367516446984
  0.6717203213851799  0.5832022503005975  0.6212191981213264
  0.3280150141409742  0.3474325941865672  0.1132023775553391
  0.4801748590483451  0.5154666454079049  0.7553300525825691
  0.3605561487946141  0.7258199706908754  0.5681829786109616
  0.4590482965006538  0.1936475313958777  0.3567875010674760
  0.6737319274266644  0.7258708628563040  0.0036639643077322
  0.9083843097257626  0.6447492672809718  0.7373765218080068
  0.4333440254341243  0.3913515749757828  0.3505409384180829
  0.7511208223578619  0.4115354010490628  0.2212106642854040
  0.2440084979325339  0.2822245763844576  0.4153249850636500
  0.8140745734067287  0.1863497002910243  0.9125360937157347
  0.7568145004195708  0.0626488846658095  0.5947735565941357
  0.3482206339011655  0.4012502872273589  0.3483617270860412
  0.4213707545721230  0.5756311114879281  0.9317464418671823
  0.3310392565270424  0.0974128450473183  0.6671690247653865
  0.8423005483696386  0.7899453533202478  0.5907296489053583
  0.7230493483979664  0.5849143990429378  0.1101950037107418
  0.1149696550732755  0.8441188475403495  0.9241656605908801
  0.7113851443945929  0.5454337911755656  0.2516947003006364
  0.9643211261586656  0.0313499427169900  0.3631375880390814
  0.5564589717621801  0.4110504179803482  0.0582348453490687
  0.0346497999074420  0.4148763926136287  0.5438717614256118
  0.2829813596030278  0.0173817422669334  0.8574157741033239
  0.3427041343282097  0.8923913181755925  0.6187540759267018
  0.5992946135525762  0.0217961237836872  0.2166929299603655
  0.5356991304384982  0.8637660965161926  0.3395126471071486
  0.4069401747321294  0.9039716234504862  0.0503852806065660
  0.0682685552814063  0.9185052435105199  0.5156706093659256
  0.3911996782312789  0.2776927336859442  0.6096486972459211
  0.8240188826210209  0.7345969897765081  0.0861333056537544
  0.1609059537067152  0.2050317882482137  0.0467374143239236
  0.5698692786273163  0.9302226164494840  0.3687136885633764
  0.3321818520689531  0.2372216218281490  0.5622391389800847
  0.5965093961987114  0.8989976957208575  0.7348405576894245
  0.0088078503168497  0.2131468766042875  0.7705498394248775
  0.4995277593389373  0.8485223637703725  0.6105004677209148
  0.3786120840137774  0.7785105903668597  0.8829637659463447
  0.0941339307877468  0.2361197277703720  0.0014468268461599
  0.1619458164294126  0.5123623942031172  0.4051178360027567
  0.1003789548544546  0.7360848273058581  0.1728082743616778
  0.9447151574405043  0.5199211738613319  0.3168424137794683
  0.3186245185999692  0.0224829301168049  0.8185738179599868
  0.1829488938979958  0.3196805161619135  0.8527515160976628
  0.1467631234727382  0.0420359119003090  0.9548442338320740
  0.3347165783276919  0.7478117198290811  0.2158282232037471
  0.8153708901647442  0.8449747838836883  0.8460525763894259
  0.4089127891672096  0.4846590962347516  0.1085310588049190
  0.0217421591859613  0.1255307348312004  0.5563531448693956
  0.1966764759217305  0.4781767741478514  0.1136531086702484
  0.3511310065452382  0.1081842630654239  0.5690427894208706
  0.7869862613126427  0.3994732175728659  0.1454807165145543
  0.7711885239572809  0.1165557633188315  0.8995428563787066
  0.3946394550126668  0.2521603754738178  0.7156324520940013
  0.5852501189295097  0.7136762473652005  0.5716745581781926
  0.4954133195221664  0.4796122606725831  0.1987175532030404
  0.1011462888514770  0.7428611938892294  0.2478903893817472
  0.7495007599371341  0.7828002394284548  0.0625240269415199
  0.0487429099130618  0.7232573532405825  0.5134076819545185
  0.4801330886012085  0.0703997901912089  0.2839382690198933
  0.0577102459176022  0.5175294317122291  0.6851777196124504
  0.9755535587048513  0.1686475332227241  0.4295630093362633
  0.7203672779255739  0.7926261301514597  0.6238576925426502
  0.5542107309570253  0.0035917417368628  0.6461568539928204
  0.1299015740791910  0.6187517331281770  0.6645863437357350
  0.8663697851921947  0.7965787222334764  0.6397748080927769
  0.9735548004902788  0.3252894762967478  0.6510102502557834
  0.4837101920564663  0.4569605458295593  0.4174875666102663
  0.0609938156753103  0.0270965538665258  0.3645607894452956
  0.2905015863652756  0.0892440832892351  0.1980286898937056
  0.2933063381212259  0.2240833403681985  0.1049944884334142
  0.8136386293614244  0.0428570225846808  0.4874803915204213
  0.6283436510273550  0.7919949431047207  0.9814571191352731
  0.1960334629090487  0.6750098388745754  0.1653432089762379
  0.9946072203663198  0.8722066030378756  0.2107610386038566
  0.0920311128453682  0.4176219128004839  0.4455963930993616
  0.0809640864545530  0.6025835759116168  0.6607123171810789
  0.3859256347577615  0.7806814948141216  0.9108666540466341
  0.8020762120647682  0.7593732389752006  0.2802162973832393
  0.7517730504809161  0.5957791304515351  0.8147378467193153
  0.6689263195848980  0.5904815565665484  0.6691611880867157
  0.6657196084782183  0.5397189640473939  0.2680098244534965
  0.0358650012729591  0.8798382586897892  0.2345525439315547
  0.4622411620399949  0.3284073699491331  0.9340085476092685
  0.5114629556178065  0.9603948811120070  0.1340454904663620
  0.6939910329314124  0.3966361408969284  0.9520131401219429
  0.0847283819491084  0.6839541913776876  0.6292884257355863
  0.4295444519976763  0.7684769073670157  0.0807226141779967
  0.5207853256556875  0.0829294968328329  0.2224280134778873
  0.3908107047201801  0.5201271547048308  0.8636119363582045
  0.0398935691597612  0.3464827311999659  0.1492273420385697
  0.5456453326844374  0.1552582932003145  0.0432771173109947
  0.4555790374672939  0.9045251891895865  0.7805748063606948
  0.9073622661785661  0.0958024682556680  0.4293632274551490
  0.8903934728200897  0.7714171518327230  0.8631544569332853
  0.4842368045213596  0.6370007246689632  0.9863463502009828
  0.6267889939075175  0.7317739891413216  0.2742074576968686
  0.7073495659030697  0.5923424949627532  0.3062633992287453
  0.0620517785400215  0.8861481254141915  0.3314342749145691
  0.1448882700770513  0.3120068045006451  0.6584091179525927
  0.2722435734660235  0.6358491362096491  0.9978695670130807
  0.1312150594966146  0.1839923993393836  0.5823486298489803
  0.9518666668517338  0.1960084590406076  0.7057083600978546
  0.3079340303142194  0.7846417612959550  0.0121889978269527
  0.8891790891608350  0.7779614948861207  0.1029029662525150
  0.2516449599971895  0.0670481827538171  0.3847934064598846
  0.2163692880409144  0.0732524710951494  0.5462292509514196
  0.0405246783786502  0.4360411179586290  0.7575732038162735
  0.5173720192282201  0.2877226970873625  0.0941644555084289
  0.1519816185278200  0.2178792895375249  0.4450045466916253
  0.0134953782196092  0.0427920837430741  0.0353390940542951
  0.6551186028138937  0.8571044935933909  0.9727402858315355
  0.1739742057335581  0.2528057497249281  0.5766139671864764
  0.8490513262545811  0.1159808351982841  0.9325304045824908
  0.4990861180997691  0.2819268234361709  0.1903826474313914
  0.2830198569935122  0.8914117157364230  0.5105398055158147
  0.9051702500886245  0.4022153139299140  0.1868242276702023
  0.4512830183934518  0.1186384083953913  0.7013089241102317
  0.7932364530036724  0.7752928783265799  0.0981800412577524
  0.5983660161541090  0.8527651219410597  0.9741994823662176
  0.0210782308151191  0.1465759089098066  0.1676293150779648
  0.7295787806826957  0.7785374057298415  0.1341718098996063
  0.2738883692390556  0.8912906143100988  0.6676973561346211
  0.8503669768082114  0.1308184090241137  0.5875662280323025
  0.3523819206217034  0.5164940384782818  0.8327518944413940
  0.1672103593689600  0.7904189150809130  0.0594520781049970
  0.7927868817880959  0.4285678000323314  0.5240876556159156
  0.2820295064276214  0.6551789778380765  0.3789684984530219
  0.1220032854997097  0.9084560134376306  0.8947444638625239
  0.6741285747051837  0.4391235056014017  0.5937751281657279
  0.8284934895083454  0.7775896475758231  0.4896607251325110
  0.4685234084607853  0.2470880586618812  0.8228986583977058
  0.3784020457977814  0.5689085108154212  0.5783403325069398
  0.1352123659777973  0.4588035802757572  0.6215066180497595
  0.4616625394664860  0.8951557414743271  0.1310388837803403
  0.1205462583268427  0.6550558216443421  0.4825680074165073
  0.5241150656036391  0.8571028076954726  0.5113290489595632
  0.3259674890633130  0.3421064063923027  0.1872647195829309
  0.7987056529189857  0.6504091388167247  0.9820105615205816
  0.6939985091128866  0.5081232596965243  0.3406815719196326
  0.9178164143322906  0.3133988848801306  0.9985070461291968
  0.2942031846492500  0.5648539789172830  0.8551414515412865
  0.2498517912827825  0.4845402749653370  0.8911437806379849
  0.9582213593112791  0.7857986694143131  0.9949793832543515
  0.9481355257432221  0.0862641562281817  0.7094972677230852
  0.6467233402234035  0.0756608388362787  0.2508397233112198
  0.6430611321168945  0.4278634778726921  0.1078385741383578
  0.5604900989774112  0.3874811445408515  0.3815494359404560
  0.6850377020489523  0.0482643746915477  0.1053883854830290
  0.8844545635278267  0.8437200362766285  0.4901192947723340
  0.5442379263557536  0.3873320493848556  0.4063652843453128
  0.5174082189802790  0.6564575667630774  0.4131306870812488
  0.6656892998932744  0.2717666805419072  0.1427407222840617
  0.3029990937058740  0.0448772984174167  0.0067069321258023
  0.7621096026110346  0.3657614464003195  0.4577971263682876
  0.5249327218620786  0.4006158709199848  0.9593701147078179
  0.4770609269885384  0.3943224935772204  0.3277996908162946
  0.8264524695813144  0.6575377523153999  0.6334014298020326
  0.7015039103849096  0.0370047589293036  0.8262730037894951
  0.3715609782862451  0.3062940264378081  0.9383408772622363
  0.7980718813972812  0.7053605655453273  0.5034718761603709
  0.7210263316476011  0.3644749431887395  0.5334851217076862
  0.1775005786399913  0.7245826118190046  0.3674756373121508
  0.3899764255553743  0.8317578011675202  0.8409508456047723
  0.0539964414335139  0.9831361674536676  0.5629145691984665
  0.9594971168592127  0.0442821497090468  0.0469322523610193
  0.6605031913483659  0.4467971755198775  0.8207107213382909
  0.3044139076702891  0.9484176047437803  0.8737941848305329
  0.5751708748915260  0.9211178229764413  0.5400145931205338
  0.1801984949021414  0.2074320411487473  0.0677344729944221
  0.5103847913807656  0.5614201066581147  0.1357106730867520
  0.1864454818471880  0.0142201068293244  0.1478256102504878
  0.7782895114452382  0.7783717979940377  0.4317243162933965
  0.0949304021431203  0.3124065033402615  0.0018013328981871
  0.7554393824281108  0.7526731818247524  0.2671073309284767
  0.2611561520383242  0.8398564928621360  0.8735126288153505
  0.4430956650954868  0.0342617889546802  0.7899717974875164
  0.0790748515427497  0.2185500151986232  0.2459688515446523
  0.4073436753068777  0.8362979632055595  0.6913143248700703
  0.0456658326364147  0.7877286589956312  0.9426364602599183
  0.0497370350150457  0.9756890672505281  0.8817507756094051
  0.9023122672956198  0.9742366318943644  0.8399272159770726
  0.8446516613048591  0.7315594614289123  0.6416015613635330
  0.7582020594668183  0.6405658128140252  0.4714096919457272
  0.9059501788218254  0.3270047613712044  0.2296880912060474
  0.2052076237060560  0.1723756026276436  0.7931950940052039
  0.6366958965958361  0.0807857494292863  0.3814137683152261
  0.6479737298240110  0.7208936785242185  0.6282197485883889
  0.1593029678635735  0.9907975316486886  0.9938569368684264
  0.8871350014788321  0.3884084302104603  0.3838998470856754
  0.1094473085215644  0.2867490631120446  0.1023738711316263
  0.2970768409672783  0.3889816170094927  0.5586860704906531
  0.0612865946335659  0.1747423594382504  0.6908441276073214
  0.5099209149965485  0.3781136865204885  0.5070324178324792
  0.4176035596717241  0.9045946652822725  0.8703959168370778
  0.8468552626035637  0.5995277036201343  0.6603034565310959
  0.7899388231822685  0.1169132129051809  0.8540840813655727
  0.4703221474719416  0.5238107766440440  0.3815127694480309
  0.4819917019343857  0.0355836858634937  0.7471297667075621
  0.4263563159250180  0.2901929421041058  0.6984509317522364
  0.3804781746420368  0.4293520999252207  0.6507592322823355
  0.2388693954205672  0.5357458154228700  0.1201138662826791
  0.5743179444921551  0.9894906729181825  0.0027475972569627
  0.5895769155535520  0.3398585699245668  0.2474822662300813
  0.6618944427155219  0.7389532066769188  0.2418247503005192
  0.1611785202373407  0.2525725822695160  0.8699935413625149
  0.7201289571009764  0.3908588476459883  0.9019709252951039
  0.6355795840514358  0.3949343294216249  0.9051749185959659
  0.3873895275044105  0.6992737910970904  0.7880075168131654
  0.5842809961352489  0.0920583496627216  0.9565621820521775
  0.3977852000220194  0.5759814311678281  0.5058217421981385
  0.9967119003722771  0.4692069584756656  0.6244520280072072
  0.3987746872934253  0.6354573720308996  0.6538790405510977
  0.5332526883522988  0.9380542424197125  0.2936851069028176
  0.6540080301808375  0.8556321281943200  0.5798215858527078
  0.2872468889589173  0.6725443688130720  0.1212182369455813
  0.1666141459577956  0.0356245434240529  0.8026049131937886
  0.1072325309891150  0.5982331803558225  0.9195526486979103
  0.2224306697989186  0.4049909992411834  0.2252108751988843
  0.5590070076069947  0.1483860590094006  0.9702327895488132
  0.5951678303724307  0.6450857379366032  0.0401536981061780
  0.3587372153019722  0.8441164918140691  0.0087257483156654
  0.6701619239372828  0.9772561245692590  0.2036092328433263
  0.0434770322942493  0.1486941756451268  0.1495667802484486
  0.3761649306924547  0.3961210814872707  0.3487962879491234
  0.2922309463007698  0.1023883287699464  0.9946102753669255
  0.9940001760971531  0.4057063285440367  0.6190925195158882
  0.3495382218779464  0.2691649271387512  0.2839749435286044
  0.7065429310652365  0.8834031659331364  0.7256566995681449
  0.3243130826323899  0.9575914033178408  0.6389351382015863
  0.5823432448412715  0.2218293974424106  0.1596091689787536
  0.8519464193463171  0.9830550871060997  0.0590523590272261
  0.2602676662306594  0.6496465855552861  0.4534591452336497
  0.1485456818341904  0.2447529319705871  0.6467427242593011
  0.4165884544291196  0.5158661360709329  0.4472116486869310
  0.4910518837221787  0.2465457516436667  0.4620613456467713
  0.6027414530026107  0.3045191181693403  0.3472105002290997
  0.1695298297234251  0.1978947939449295  0.0209224438815079
  0.7343312318555089  0.5850608365083445  0.3069441021592812
  0.6993145408567025  0.1791693925749245  0.3578310631904565
  0.7221190556356536  0.3244999659372725  0.3034809162772644
  0.8912014793765510  0.9522572420691493  0.2696008688531020
  0.2605703048823380  0.3438165895159335  0.1145233486683176
  0.8994959347251505  0.8600804273425146  0.1869004397041898
  0.9829680715616127  0.6827741951122800  0.5529278820326433
  0.3250115893032944  0.0967811931773527  0.0891866807554831
  0.9007192748264052  0.5499322760409154  0.4543460931759333
  0.1612121154083289  0.3046256399405264  0.7419434761294358
  0.5843071594566236  0.9936700293132311  0.5745218788553744
  0.5079196005489069  0.2691940884520439  0.9784982297928205
  0.9102210480231847  0.0256326209095159  0.7284798952324381
  0.3058545561438031  0.7790414560550738  0.4247491233432040
  0.3046053068867307  0.2967503701750960  0.6176012919061937
  0.5679580260222723  0.9757226148373803  0.0562569602356501
  0.0461545786947007  0.8024701675051608  0.1624941840366403
  0.5261896560708286  0.7098994526935962  0.6173632783528018
  0.7554321852973431  0.9078768503377969  0.8277625078976871
  0.5807922521933955  0.3787156019053968  0.4857248950164265
  0.6573974568665248  0.5298406276703600  0.3150441083038573
  0.4442845499558004  0.3212637966905512  0.9541197439430228
  0.9517018377420591  0.4007260096130583  0.2580689223054882
  0.6625996552943977  0.5234000546097712  0.0375177524630060
  0.2762772978379520  0.3067908277270008  0.8370442729287246
  0.7544411278256462  0.5100074756067193  0.5035796431019791
  0.6156503674688264  0.8425559256748421  0.1467016932768855
  0.0227864947246694  0.0379993178689732  0.7543168922244599
  0.4247761711776656  0.2887450172512525  0.1264177710294955
  0.4662715217229063  0.5229463519454329  0.9269572941328951
  0.2484860789920988  0.7909693047425342  0.3412285692109512
  0.3204476829838355  0.9086226121436499  0.4308918530433713
  0.0802375540822533  0.3961451604445946  0.3238083920088383
  0.2940156807888686  0.1537131025544288  0.1741236647367105
  0.8371795605852018  0.5896777471527896  0.7592431805765399
  0.4192211795782261  0.8388882723358783  0.6653997622941602
  0.8920923827988269  0.7386937627021533  0.1424758565772644
  0.8792534967541197  0.6486922918424918  0.3578432138760476
  0.5175728253608602  0.3370996396970768  0.2360057282516939
  0.1630260411932174  0.3332554704207991  0.2960009237655578
  0.2854157977533273  0.6026149330773701  0.1000943157384581
  0.0718690599370679  0.8361789435744086  0.7547506534630078
  0.1236475469337999  0.2830690169943196  0.2330321590853991
  0.1803344992402187  0.0396680746924981  0.8596621298473796
  0.1235141870648720  0.5351451945428496  0.6506454471139699
  0.4497759441537289  0.0955574359990577  0.0596589986892522
  0.5751848722273025  0.8324465145137213  0.1223219927593429
  0.9206893953001400  0.4039473172203399  0.2106552576971191
  0.7917642906841835  0.3137221572411485  0.3904074079846575
  0.2071377244973109  0.1006397289794216  0.6638063811471689
  0.4369671201006226  0.9862881572062643  0.5993716321421096
  0.6651363459140998  0.3939885784366765  0.3415034175987753
  0.1988864050978529  0.7005424257695003  0.6980738677008985
  0.0658895663202012  0.3680850532923746  0.9847134086823001
  0.3220136298027086  0.2190674085962990  0.2162255163529500
  0.9734506461095015  0.1604518210257053  0.8530710172028964
  0.4632909245976126  0.9609774935004959  0.1284994760656749
  0.9256161079451010  0.1087709271888032  0.9675743546159226
  0.8053283410188388  0.1412202508494919  0.3324796827874143
  0.6193327440081340  0.4501876569273164  0.8951502582830904
  0.6702414650767855  0.1728725269731226  0.0670741701090514
  0.5002835253616431  0.9086975200573931  0.7476768141006684
  0.1592926703713093  0.0337981589259336  0.7746141665983137
  0.7627383420078750  0.1239798886395661  0.0296793261495724
  0.5937146177169064  0.7230795456330638  0.4133690633715849
  0.7801146734740559  0.4792023689313993  0.1852736250329404
  0.3109499794644205  0.1856186930254866  0.4953396685947036
  0.9476308988310095  0.6591493630761365  0.3067185779795662
  0.3949037205395355  0.1114698879694434  0.8319849362728839
  0.9146804454255013  0.5978206661589867  0.1818387805298712
  0.4222037165207900  0.5730952425088093  0.5576599417857752
  0.7352439977407093  0.4414122747787649  0.4296341478628052
  0.3060835255051402  0.3004227643382218  0.7762365366397588
  0.4731820766270589  0.1536088065201565  0.2240438201851231
  0.9937457882563754  0.2419929919648917  0.3947874124948780
  0.5699214489510250  0.1510399044849157  0.5182412699746345
  0.9627661561031704  0.5845974900835254  0.9271107418805995
  0.2683864775098548  0.7563944148084013  0.6447318429100287
  0.1748657840687691  0.0433563632727508  0.6242759683206074
  0.2722351630804452  0.1016845401536282  0.8279008008566007
  0.0163488452669630  0.5993518518374304  0.6655426966827008
  0.2352714781261482  0.7192918451260640  0.4526284976724163
  0.8230010768621784  0.8614620476891229  0.5837210200260217
  0.9792572864348120  0.0018891077179496  0.9455393939216212
  0.2867757152649961  0.0306759337972912  0.7848248247884284
  0.8198011798233183  0.1171879274529298  0.8932050523614121
  0.6819811885986358  0.7390498861283812  0.2616344440953094
  0.1876364409903458  0.7352068875771428  0.1794388848508215
  0.4733946659941763  0.7748786769593621  0.7560153688857307
  0.8168157414376650  0.7944721435358638  0.6300579491156345
  0.0988069259294697  0.1140152083729291  0.9899183491499384
  0.7012978898040260  0.2299276973708360  0.7794816174148065
  0.4953963377610075  0.6184905092712607  0.0329077248329281
  0.9828530825380175  0.5146065316645442  0.6952889898839583
  0.5957878573631651  0.9068344943027123  0.1069460514703430
  0.1957332579153574  0.8279317943653371  0.6804308337382562
  0.8115854688307229  0.8522299853945041  0.9444522372309908
  0.1784539294209319  0.9188119953710494  0.9744196797238476
  0.4335131459966692  0.7495379062588552  0.2366295977181567
  0.5268545748306571  0.2800422396462269  0.1952879401282522
  0.9134968835919013  0.3237506074307845  0.7103617620481230
  0.9235410117478982  0.4560129665933469  0.1268838557370899
  0.0728861281536643  0.7920185065010480  0.0384365164434287
  0.5571773015618258  0.2053058435981568  0.5662378388236432
  0.9703435248796494  0.3775592870524017  0.4800254298619278
  0.1009468897677910  0.4687982370895964  0.0252742038094350
  0.8090177871393790  0.6195620349155473  0.5336034320695310
  0.1265661640408131  0.3826522836398649  0.2515912120517112
  0.8466694333553049  0.1843126799669674  0.8463729813309122
  0.8927893659713957  0.5192150855441720  0.9554722517265711
  0.0668303469956853  0.5137605828822194  0.7120140548813475
  0.7586602081035001  0.6161390350759171  0.2158303996254117
  0.9726068563374780  0.5895619255403678  0.6899547547385055
  0.9775372187204194  0.5812602409490665  0.7703506246960017
  0.1478054726769900  0.1494166020920419  0.1929670966533399
  0.6069506988438910  0.0028586181867642  0.3456618800193797
  0.9783428395337666  0.7182043741471128  0.0152480198410685
  0.3787251596465111  0.7193825205760620  0.4840344887511436
  0.5423171093244750  0.7667892175133589  0.8276971030197476
  0.8133873400909468  0.0482600968569787  0.8769849713001160
  0.6187487720364018  0.9236627452921204  0.5181167429829525
  0.2615447468744500  0.2102323355015386  0.3765681398334523
  0.6536725095600869  0.8628322708136260  0.6282499399257514
  0.2326334154833255  0.5917796709467619  0.2692829669969369
  0.5644960282383552  0.8960041660990672  0.6984554489294295
  0.2661600864354299  0.5806718394193082  0.5678890414419641
  0.2478671321139973  0.4271042902796162  0.4682640792521472
  0.2712359105378478  0.4721001903350888  0.0094857462836841
  0.0707610690213381  0.7106287345122527  0.7836001146412733
  0.2994699540672214  0.6235639567396629  0.6484426037706320
  0.0988373456017101  0.7934009206059776  0.3683330652810293
  0.6607329709983730  0.0146104790803002  0.2566634569321752
  0.0912537697721261  0.0320369421355059  0.7030513560720251
  0.5658278415122401  0.2806682667344696  0.5552295240975631
  0.8067475285253282  0.5817268663574591  0.8637797973882395
  0.9808898477116303  0.2783077188464265  0.0955463764483708
  0.2296877334813102  0.1776885845112437  0.8637459746732933
  0.1660397069581385  0.3995974587508320  0.0018677438561001
  0.8777543267987187  0.5871695627640038  0.7846470997184002
  0.3273933048482131  0.2262442502801863  0.1412733447286442
  0.3931627023602041  0.3878088528801289  0.7902462590895384
  0.8244471056159175  0.3161341825406397  0.3099838537832630
  0.0116843906397991  0.7887246568880979  0.9790840018597972
  0.3468850371644258  0.9172438697118491  0.3636746531519753
  0.1410461819053809  0.7993871210737467  0.1285054856749247
  0.0272724854986518  0.2485079844068086  0.4298271780269879
  0.8383534226919429  0.9847409607962344  0.5617163448604440
  0.6541932558916946  0.2932606566047222  0.8554240336410843
  0.6368058825599203  0.5839432836295626  0.1085049651925817
  0.1896106156883228  0.3946994881398466  0.8741331294375979
  0.3644794541393457  0.1607576494797122  0.1511538555844201
  0.9213635699274495  0.5244728864908884  0.0367163427019086
  0.1078554979757900  0.1034888257096257  0.6752360338724801
  0.9111962068514223  0.0890526424591774  0.2485292573194228
  0.2586209833419726  0.8979092238286910  0.7699085104873824
  0.1438914933640023  0.5145306775761694  0.4272489460360981
  0.8002603332728234  0.9784522980025101  0.9102722584599316
  0.3814770609905324  0.7292375492976263  0.3534506538577901
  0.6435598793934985  0.5103115865276736  0.5590352799520141
  0.2064704140525032  0.5893917107828140  0.2584093739743318
  0.7789754088176978  0.6430923847148541  0.4184228427371164
  0.8306698788821915  0.2616569343418750  0.1789513714081536
  0.7835597103805984  0.5199098259880633  0.0829902218980183
  0.1300719084035603  0.6713830500696572  0.8788589565283204
  0.0982875496779233  0.4677442538823755  0.6467473316197124
  0.0908453500210440  0.4155167757668726  0.5423511761723048
  0.9313299641061449  0.1522011221197812  0.2676834634114696
  0.3037116664151110  0.6130266464434482  0.0330346915812716
  0.6008437777893052  0.9533690044087156  0.8638121410984083
  0.6722875834116261  0.0659895220227718  0.5060724956341466
  0.3847115972690741  0.7775776870178659  0.0167638588918897
  0.8559159896323679  0.2792159534707161  0.6032600018365932
  0.5982283278511430  0.0281601372530360  0.6992670678316348
  0.7615547333782006  0.7207685766106159  0.5657999592181335
  0.7975452799628736  0.9335180031048609  0.7414417187484802
  0.4540714181694736  0.0314069811424714  0.1271336087405981
  0.5903838397802305  0.1612205256511929  0.6893864842280630
  0.7075799788058403  0.2447640329915308  0.4670327476527090
  0.6482785208749278  0.2830830177307873  0.6094893134383914
  0.5018099978885261  0.6049308768207396  0.2193190051505154
  0.5008508645147743  0.6834161539635378  0.1879549921553546
  0.8590982591560024  0.7837467484704100  0.5679731242664167
  0.9161345723708622  0.7702166597731668  0.5004070455854596
  0.2071767187288587  0.0790666033175038  0.3692057241934162
  0.3160017085358766  0.3321894457863237  0.0636366201094380
  0.2964658928556261  0.4041266219253759  0.1061427366388641
  0.1019669579707666  0.7471284845573407  0.5933836368035589
  0.7235521701169498  0.1090665168875790  0.9063791852096040
  0.8577626042750801  0.3950163493807791  0.1168307780909563
  0.9375107791271402  0.3228040584243277  0.2669765692703138
  0.7797566740325095  0.7810212685727824  0.9303780417965257
  0.7938245180638024  0.5531955922147787  0.1885408590149138
  0.1358273689438079  0.6024545810171129  0.2161680175371341
  0.4373066150157737  0.1911637606235708  0.5832270765199002
  0.6999882677198794  0.5032038636059566  0.1138146346298197
  0.0985507402813604  0.4849099516427243  0.0968937261526558
  0.9775682593336981  0.1016566608668552  0.3627996214189154
  0.1145467795036201  0.8340993677943223  0.7789487668643071
  0.2791086366810767  0.5426686549253966  0.9542652194942434
  0.3034564524244374  0.4812602473473949  0.2272547455693530
  0.3036712711362916  0.7805565572104223  0.8864838714675098
  0.4905032828105953  0.0373553098374873  0.7737774086230333
  0.0956698802888915  0.4462892936012613  0.7472148876410590
  0.0952693917118572  0.4445695062034126  0.8242741769303809
  0.4134657136758726  0.9011585743822924  0.8423024555642824
  0.9213158915660420  0.0035900173944151  0.6739944173780306
  0.1391099368896677  0.9606489626353696  0.8455444260203399
  0.1142064216157008  0.3232638187103932  0.6222211016097400
  0.1884830698344131  0.3354067604050928  0.3071584215751599
  0.8684578122957073  0.1150744187897424  0.8869524093590447
  0.6252172207749959  0.6698018176910268  0.1979277215643024
  0.1106304938085738  0.1971634517645214  0.4757173975719991
  0.3732826832868222  0.4806594272171070  0.2006162963299177
  0.6128956617446294  0.7285810198630075  0.3299053687563349
  0.9239469182989756  0.8504541947529668  0.5652755738657105
  0.2418804277355484  0.3033281727216863  0.7701435900800774
  0.9199368702486080  0.0394263949692922  0.2503840936443082
  0.2650137777451660  0.3264399213684201  0.4962067421597803
  0.0662959749661056  0.2279295864545041  0.7247277563072798
  0.2926419873450601  0.0264547928521193  0.8116687374517210
  0.3561744332620785  0.8545928088538176  0.9606001817381307
  0.7733376604728200  0.6595718621693094  0.8403642518684750
  0.6172566381366636  0.8922478274449747  0.7168022005798776
  0.0583437165606100  0.8059453288149544  0.1885057078009607
  0.6757604067131009  0.4167254562979965  0.3286836086024487
  0.4791401843887287  0.7163761476714622  0.9185926583611462
  0.8062079796907995  0.7786027513950358  0.9200414136832387
  0.4154536854721495  0.2616953398017895  0.3210342479989283
  0.7462386110238197  0.3122139537476532  0.4486041116442595
  0.9848637872522740  0.8453082263508145  0.8981450826318653
  0.0227455055070726  0.2966206365386196  0.9037812812527302
  0.8693569605245031  0.3193241816282542  0.0072941010306243
  0.5646422451642313  0.3478627889405133  0.0582730605879599
  0.0769330063875978  0.7202116704449498  0.3770641395169473
  0.1637464889892364  0.4097508772004592  0.3215221732782922
  0.8567260266631127  0.0924804162282993  0.4376900323689231
  0.1995107946482153  0.1888722037473781  0.9422111582072321
  0.4133291563503201  0.6709074025157012  0.2661217606229044
  0.5827847322526474  0.5149029542598150  0.7480510403867421
  0.7614155946729076  0.3926882972810274  0.8764321481729056
  0.2849980954287179  0.8273195881585134  0.7737462473150580
  0.7309347479998604  0.1888287241839088  0.1433841198241738
  0.6011722723312731  0.2171447625422535  0.3182414420750774
  0.7711629892303289  0.6523482578644105  0.8154609317542348
  0.1299346279321666  0.0505836057645523  0.5637088629024312
  0.7626919447131604  0.8276204104137540  0.2621781046075568
  0.1044750655198882  0.2117593478110577  0.4537244442207083
  0.9481688137932697  0.9212710187440046  0.8695723757134340
  0.0104604766306831  0.2259877136813030  0.9029505154512775
  0.2638737766323228  0.0163569357201829  0.8778249778753210
  0.1465452071282671  0.0347944458218998  0.8225529420329940
  0.8984289738096353  0.9158274471446477  0.8425718608938738
  0.2165435365661043  0.4076711715328765  0.5641569933337364
  0.3612274758747781  0.3107148679997653  0.0110775104455740
  0.2841399945208931  0.2493773360601949  0.9873628733910931
  0.5738498504585471  0.7210703758242473  0.9639672343136796
  0.5828736820830397  0.9622332831011106  0.8178321391495579
  0.1771963159335342  0.8988035809441709  0.6749416758484647
  0.1464989968130954  0.1197072052008511  0.9828020014267099
  0.2293200515759083  0.3878886149324290  0.8471827364466094
  0.5803290982321728  0.4477597014935549  0.4984370432869352
  0.0383638504891185  0.7111550039284096  0.7464772430265884
  0.7624660499011783  0.5177539220817254  0.8793656539455585
  0.9841444745154790  0.4713841170161517  0.1670166451647524
  0.1095666448422602  0.9501833486650122  0.2921242017347150
  0.4649312844857849  0.7875094058963438  0.5032054508851213
  0.1311739701747902  0.6007710899096592  0.9614710369861548
  0.6513880366977913  0.4549788667851936  0.9336905174925266
  0.7484396736104162  0.6427199330783474  0.4980938901296903
  0.6133536579827562  0.0997921040240618  0.9950302285527399
  0.8241849426572152  0.9338440221312451  0.7013784774162058
  0.9106755433378374  0.3226778205753510  0.2575940796049693
  0.4783448733496891  0.7100507100013722  0.6067552488546952
  0.9798424832251126  0.3284558899000887  0.5454465968948099
  0.5032110508841174  0.1482643701414030  0.2632484832114697
  0.0885332940267325  0.4817446624910830  0.6017722933764779
  0.8537122870103699  0.4958748342030040  0.4222132534159828
  0.8398410334774405  0.7714659402093799  0.3940912701973961
  0.9864978822335690  0.6605509352341310  0.0836699181834325
  0.9418593897392639  0.5317549850863940  0.1664245308126546
  0.7098591815942457  0.7383111499701670  0.6829800107003322
  0.9413209441620137  0.4056710557751119  0.0631474745509289
  0.8424512238966603  0.4040702630126697  0.3138471765919614
  0.8368113425484721  0.5874374468855021  0.8089589381659195
  0.2817682683872604  0.2220762851005776  0.1537225017004429
  0.8397869261944413  0.0947439246299006  0.4607607934172303
  0.3206904194948427  0.8084254935721649  0.5996749142965782
  0.0967571596770782  0.6554761879676771  0.5001939266084179
  0.9829772325619595  0.9025619745074047  0.4296628942646058
  0.9974879234352780  0.7774041659459481  0.8281959063992911
  0.5965620341255512  0.0905499583344681  0.6906505363031147
  0.3012947339301534  0.1762566603962031  0.5459482520681181
  0.2967823589956487  0.3755303938052213  0.6052721457509196
  0.8133035960400729  0.2063066963941185  0.6520133822400352
  0.5011415997434197  0.7785632756429247  0.9714678407049820
  0.5118672072417424  0.5600610274801573  0.0851923858611129
  0.2818781473691943  0.2085132747065640  0.3571702707104149
  0.1923842848458535  0.3419782602844041  0.0403064017421291
  0.6273061902052289  0.3422532871634770  0.2188750331676023
  0.5898014015282617  0.2181131798508950  0.1867538186256916
  0.6612498286242262  0.0752057174900952  0.6092166174233736
  0.1831520290811815  0.9200968400153744  0.0312679169644231
  0.3528341029002061  0.0466210149369857  0.0001340682479008
  0.5977079290591063  0.2944361267508514  0.7280677358807426
  0.1700285603755828  0.5117113315056279  0.3561285884065147
  0.2638143639873299  0.0413947366612804  0.5053623949785679
  0.2806963180855604  0.7417183961866703  0.5912665436721734
  0.3370103019419351  0.7066129684044281  0.9362242210184409
  0.7047895573216612  0.9180947932099733  0.0039828445315699
  0.6841664306567924  0.5118832836448862  0.0903649435391878
  0.8714922402103362  0.6060735836094192  0.6163247063678917
  0.4305430340987081  0.6481044170642088  0.8466018803670573
  0.2341978741450395  0.5862814802197982  0.4454755055015496
  0.9864240369576837  0.7297246194651732  0.3577669850078593
  0.5283945172811381  0.5231639619650734  0.8130708981111069
  0.9398560987004998  0.9004282223492560  0.4550822287245538
  0.9276219636960951  0.9831512550479845  0.8907572553650283
  0.8226215624733764  0.3918582964785748  0.9723188255839422
  0.9377165516946026  0.5465751415111262  0.4874343459733095
  0.2506586213399100  0.6292439927441664  0.9014589752064268
  0.0428186828944407  0.8483140416310802  0.4682925531002220
  0.5123036610285158  0.0749606320320903  0.3521665630716672
  0.3178146017551227  0.1015792461471915  0.7964695805215803
  0.0536221211290936  0.7056168372867919  0.6982518072065788
  0.1243155779037560  0.0856146776318847  0.2350987095331948
  0.1506845572054912  0.0473775282729757  0.9822861814759387
  0.1512856403018824  0.8242538919438742  0.6579983634550285
  0.4834642505766595  0.9543385000281935  0.1720788929348747
  0.7591302626734286  0.2562359150358383  0.9404145060906203
  0.9772214770083679  0.4936742324880432  0.4704191896201584
  0.7003943156127550  0.9315876479624481  0.6250931785823376
  0.4546784097193875  0.3148427332145194  0.8149542022718524
  0.3687916924893161  0.9899967030710410  0.9953648343449766
  0.8869758177927205  0.7737158589066166  0.7598192930188177
  0.6189923609137619  0.1510922539145876  0.4877911809267823
  0.9875063325855691  0.7674027891604364  0.6496222844349331
  0.7692457801273835  0.5083950063603331  0.3304372272914346
  0.5932938771389970  0.5898055906648478  0.8876451347145948
  0.8134832270539343  0.8891557811274674  0.3834287079093149
  0.4934610518877391  0.9213286033602767  0.5786232953803252
  0.7216148578877721  0.6591588808107569  0.8187795900108572
  0.4370609123386497  0.7861474622750230  0.4977251409710652
  0.3894118376464301  0.4030077431710977  0.4700526689890572
  0.7348930199909496  0.3330087688939886  0.1144799286552967
  0.0072721707435459  0.7357889136828041  0.2002098187213721
  0.3591345433442227  0.3844094953238014  0.9646554424920364
  0.1825597287786791  0.5952131576319418  0.5643012704501914
  0.2872494507174875  0.6482751879368753  0.5231461287900124
  0.5539118086590160  0.9355091890147726  0.2222473444268046
  0.5656263105000148  0.0363937256573649  0.7659957071529968
  0.0616403633842276  0.9797269993940797  0.9073550057072594
  0.2017292812325323  0.8780764142826815  0.2868030652006797
  0.5157053503752538  0.2419582706133936  0.7332114740084065
  0.2137903839552047  0.9072619024902583  0.5139519016027182
  0.3221419531441323  0.1038105063346592  0.0332781694360543
  0.1271856810662252  0.7231570708385705  0.4864723355324591
  0.3649150851349255  0.6852784675535549  0.1478354594603518
  0.9487953265039365  0.1303687471778926  0.1645003299653316
  0.4925108584459910  0.5838520715870283  0.9101633431853458
  0.1538547248133350  0.6552948384699102  0.3598391889413968
  0.4859847020387639  0.9888344858697520  0.5929752431022386
  0.6290726330878642  0.7275835894632203  0.9426833695618528
  0.3155848758010754  0.7780608915036228  0.4515602333639510
  0.7511663344997436  0.7113941531038138  0.4924021646993797
  0.8032687024059023  0.0572415828342820  0.0548315297006906
  0.0941616589264282  0.6349528253924118  0.8100966896459991
  0.9437915909535549  0.1942697036462114  0.6571015153994644
  0.2962600663361980  0.9717430948362779  0.0974676762017698
  0.6941932139222057  0.2536381520708453  0.0127781927679128
  0.6334550427352684  0.8028057795175616  0.9061514325023652
  0.0443872726312066  0.2716690869097133  0.5072968851298595
  0.0672189062041885  0.5287862315631013  0.6383636471482204
  0.7290184112198724  0.7893374934504390  0.5750640523465582
  0.6922027858463929  0.0398583152209980  0.9302928447083112
  0.2023193957629211  0.7214668790902322  0.4890475093102180
  0.4603126575522687  0.5280470736434265  0.3552513121133589
  0.8590739045831802  0.6649386644136538  0.0603484439809547
  0.8906513763141629  0.5982645501656029  0.1989654157658892
  0.7425468011929510  0.5159501735939235  0.8260398180443809
  0.3978092591706861  0.3085091339696999  0.0496820386853377
  0.5811366263459221  0.4569239570025352  0.3879780304095614
  0.8811706093400794  0.2297057096785853  0.5128960986109284
  0.0327540460439096  0.5299469591061557  0.0576495189875969
  0.7986611021196041  0.6970604760980323  0.2493754765163219
  0.1145731454090721  0.9027840045932405  0.8099648437851470
  0.3383838443045703  0.7525327983852811  0.0890768035265704
  0.5402083473926643  0.7829088447921170  0.5677335796023879
  0.6941914553188369  0.1336195638906857  0.5524867057294927
  0.0121112391026218  0.1349888595677302  0.0828309954101025
  0.5738546815799513  0.6749027157219976  0.7959508606793282
  0.3677037924908058  0.5936519437575644  0.3308631365777897
  0.0364974731018907  0.3990958200773856  0.6410425456553434
  0.6862831769169081  0.3127902857118722  0.8820735012657051
  0.2962226718037319  0.7082190867819953  0.9764794223407093
  0.4327951881050800  0.0453394490899711  0.6593867441186823
  0.4097431165188990  0.9156590918352717  0.3841028695504283
  0.4844092250234903  0.2455537281752371  0.8675449908352418
  0.1248025125874446  0.0317569212466982  0.7386847035378027
  0.1713539965356524  0.6603989889932419  0.9963312417187294
  0.1694048614294846  0.0829754380075568  0.4010135576636836
  0.5772195597376738  0.9428677751930736  0.6628599022605540
  0.1358128432182869  0.3453114569664001  0.1273564659019419
  0.1273157218636532  0.2758502963091631  0.5237029480358224
  0.7594798208895208  0.0503870598464478  0.7477785788480915
  0.1038015679713563  0.8806787806177823  0.3077346903350159
  0.3670818269465882  0.1264037494963985  0.3606584774252873
  0.1571775279233962  0.6011626089394972  0.0039274425557387
  0.9980160330947117  0.2304097185823228  0.9880008234640150
  0.0770791149035725  0.4092627418907314  0.5664499998545011
  0.4551450709592864  0.2496953559091628  0.4269408240489225
  0.0874304774585931  0.3066504289485164  0.7424271948626914
  0.9387231467642347  0.5149908128638334  0.9393084169363946
  0.3231714851538834  0.2846652476036700  0.1306075009738655
  0.3381394957943930  0.8928688390516722  0.8325139750793632
  0.6235503055110185  0.9279657593508527  0.4208832914369697
  0.8703578789136222  0.7209060615392828  0.7347083009939118
  0.9510103909494743  0.8863047240775161  0.3312968076331195
  0.3373241571967999  0.5148479878989829  0.6572264612420928
  0.2393599269335890  0.8271829247044272  0.7020536791704352
  0.4771368129618859  0.8364955071973784  0.8349244622763659
  0.8815259443837908  0.2482872216923512  0.8241545198324786
  0.5482793206914737  0.1022679628992259  0.7041312379830587
  0.2360402843549512  0.2758793146972405  0.4642733536091441
  0.1846867739102849  0.7777653716919117  0.4533911571075282
  0.2277618958496404  0.1872568318019899  0.5384053798085798
  0.5801618874955066  0.2844516236137016  0.9266842634379344
  0.6321581328251251  0.1524223375076141  0.2898815254659596
  0.0026533062720875  0.4458077222492712  0.7159047753517175
  0.1688678821705649  0.6931836266384076  0.6631429994067309
  0.6362315336650815  0.5884379194730005  0.0598827466603841
  0.9508833531662048  0.2066544943633493  0.2358594450596530
  0.4239954144226321  0.5187155102854079  0.3984626030901745
  0.7003942013967238  0.4115104014265797  0.1529291451003184
  0.9042774125738907  0.1833403496255975  0.9967479422964763
  0.0951152888081114  0.6099267276751403  0.6103915304015423
  0.5321246416748361  0.5292879144332463  0.0363005980662739
  0.7763021208594222  0.0575537961421059  0.1368414660297198
  0.1919209575647821  0.2637446903892739  0.9620861707048869
  0.9188919576423396  0.4882056724625347  0.4901260945869819
  0.8212079499344901  0.5995101852759663  0.6476771205987566
  0.1515291516909392  0.5259347975876620  0.9548196679234521
  0.4024440780908467  0.0696767043036189  0.2498440905625745
  0.4745409390622014  0.9079357508780899  0.7359311293179150
  0.0671634624974164  0.9161211623254981  0.4864185723059458
  0.3409561963430992  0.7933085960991405  0.3063232528285904
  0.1087374688770547  0.9836681110682404  0.9894185537549952
  0.9693528023334946  0.6181888597718465  0.6262793083487715
  0.0557081202122144  0.6173449407041386  0.5792757769757972
  0.3873984682551727  0.7320592268375100  0.3257364290498539
  0.1611611405978477  0.1898847468458127  0.9736278951174189
  0.5709436429770219  0.3044200745084812  0.4261539734665620
  0.9606028668083656  0.7124400755521830  0.8543783071208683
  0.9395833526267856  0.9793129049389020  0.0634224676327164
  0.6570593735301867  0.4144085135427841  0.1810400556233815
  0.9403772137282057  0.8571613244580509  0.1633033076694032
  0.4155085615790547  0.5582578842053949  0.9549439063288360
  0.8297825022107440  0.1287875439863214  0.7922779667499871
  0.6025174415434925  0.6474058714722738  0.6696532918551868
  0.4533908037979466  0.8539159352920317  0.5386199617578269
  0.3960632443193882  0.2275952833473709  0.5276377861365074
  0.2489038614905288  0.4741036315488832  0.9375848773567663
  0.1154552224672077  0.8345745180988725  0.8280011407091770
  0.9000438941245704  0.9017113486903267  0.4791304375765859
  0.9024482081663856  0.3993137486831854  0.1380348888128013
  0.8871886268695149  0.1546977869291883  0.3206166275523562
  0.4615665073853059  0.1360506189483285  0.3240286454804707
  0.5919465164627842  0.2885679539133991  0.0816879750256047
  0.2577955111673654  0.9821378583480855  0.0101317780355167
  0.4585100920621875  0.6484413474983614  0.8419637193806550
  0.8083906929793355  0.7630159204632848  0.2526045447599705
  0.9698861372125631  0.9884796919601473  0.2147464574654901
  0.5084630237309973  0.1735687703934196  0.7866940403264288
  0.9594288002410122  0.0679337135913685  0.1960251897402274
  0.7966398767806077  0.7217131348017305  0.9811778818308329
  0.6771806686212364  0.1316248450750279  0.3502884674927871
  0.0816487048461627  0.5855868907217816  0.8502808366127291
  0.5181106398149768  0.0915241296048039  0.0093271891756948
  0.2175589767509144  0.5304228048066476  0.6137134432703039
  0.4173580654155504  0.1788902403931840  0.7882681463135959
  0.5625775106206906  0.8281094061873823  0.1476368856335464
  0.5282171198999984  0.7818144475880670  0.9793335949383984
  0.9625156259709530  0.4779133595077800  0.5840758368794796
  0.0270184070426296  0.6296019829469585  0.4969943663137453
  0.6648416933214288  0.3121513099984148  0.9240322375257463
  0.2933754295900632  0.5292938359071193  0.0550976635839421
  0.8340782176946752  0.4305967718454007  0.4960768803297273
  0.1090557545635809  0.6734995946023739  0.2382465727990853
  0.9410889178486227  0.0529972710968728  0.1006747537686923
  0.0238311428721264  0.1701119102151294  0.9954248923601161
  0.9649537400270995  0.6672692918257748  0.2613027442067686
  0.0017194456303273  0.7741151898498205  0.6968937361205069
  0.3854315253634489  0.6548936235771837  0.4091684513188924
  0.7442677188562183  0.9958429270828808  0.5904035103152695
  0.1900035175076797  0.7938229426633440  0.5957523631583472
  0.9067203522412538  0.1130404486538645  0.0125099901818407
  0.2187627696063091  0.8494609794231563  0.9002526363828429
  0.9391398889749496  0.4588994626307507  0.6761810497868896
  0.5640061208296864  0.7094403085203677  0.0540539768077133
  0.8659806917544892  0.3884775982811119  0.9951081989590741
  0.2183468120330593  0.9794385082909035  0.9220754360462864
  0.6714234109318227  0.0701879126535338  0.2637746622078980
  0.5453786783159627  0.4613736328020039  0.3509473581089617
  0.8854997445137558  0.3969493850063290  0.3356803793906353
  0.5301661821834062  0.7101515309526747  0.0193301831507782
  0.4997676686584359  0.1319256137587779  0.6493631860451395
  0.3152876133304822  0.7384688375680464  0.0955131942346805
  0.1021800609808914  0.1172834169084067  0.5922460055677702
  0.6049653305378198  0.5784951227405776  0.5450726351461762
  0.8351188959665500  0.4281144845686168  0.5490812170663716
  0.1356457173881318  0.6657420209798123  0.0885323403836816
  0.7973155145330681  0.0511375616799977  0.5331374493691766
  0.6792618880176025  0.2475120287691809  0.9655352559397293
  0.6340008474486621  0.0024290125620005  0.3529461549070031
  0.4068790436508515  0.7889909174702788  0.3423572382389281
  0.8646109463768938  0.4066067392753978  0.5985418423234844
  0.1794643071488576  0.9425238542442568  0.3147098552282072
  0.8237434351060585  0.5228890131292631  0.6135081121151665
  0.7459393916318019  0.7359635669688648  0.7482180176212394
  0.8579712125989575  0.3849223045881839  0.8480199513501949
  0.8605137880620477  0.2718493319812804  0.7055318555073786
  0.9392730552423855  0.7255072532828497  0.3710981148144075
  0.5596458536003577  0.0003280773312373  0.3578898746731142
  0.3255921751907119  0.5731804186391694  0.7558451169983793
  0.0811715859040095  0.8246319757840899  0.6299945843824964
  0.7003864830636085  0.8903772455811253  0.7523812697727629
  0.4088196114383927  0.7178321624277945  0.5787492693116405
  0.4697646477952067  0.3804432596072378  0.4762529275661130
  0.3748162840530787  0.6984459659383460  0.7413076363438182
  0.3996843362749876  0.9280270288057106  0.2844457299883784
  0.3862543706990401  0.1762225557544404  0.9239006742389776
  0.1708212343449841  0.0872365756630722  0.2506312177068040
  0.0557256621317465  0.3887171633709514  0.3762309648215346
  0.0835971006533915  0.7277202750084488  0.1185334198140553
  0.6329269372851241  0.9941646066765305  0.5612148620372860
  0.9503058694880316  0.0615193667101123  0.1480900941816616
  0.5320542940409968  0.0839668458329936  0.9362113087856745
  0.3058433120399633  0.6658974386622541  0.0761116288021421
  0.0651432334478093  0.7155288796019131  0.4287224275925337
  0.4881086193612976  0.4643487194577516  0.9814800276767527
  0.2959372546344131  0.2821060862344322  0.1234676076148231
  0.9854075587929704  0.6010561937552185  0.0231351284184238
  0.9997638019767845  0.9064945167086421  0.4523901694797967
  0.5959839871386149  0.9586674144274019  0.7034020345178060
  0.7246182344979001  0.7875123951736568  0.9601483437745241
  0.4255663520306603  0.0629423507171271  0.2316553218736675
  0.8309491652982578  0.0640289860720562  0.7503925053567219
  0.9030596321686252  0.7706530255183178  0.4741614745256811
  0.0140849658436277  0.4577308151710102  0.2276622354344204
  0.7354768525060692  0.4340746071524952  0.5277089928014808
  0.7946646208874901  0.5923102116024704  0.7881102314904861
  0.3018075129240612  0.1673132698761682  0.8784384101373376
  0.8445939244403354  0.7937181677593357  0.6201087060219839
  0.9509496680452882  0.5851374619831406  0.7302721023184313
  0.3309480740709938  0.7198530154814490  0.4735617661453943
  0.2992786295674694  0.6407751204005767  0.8434695025617576
  0.9462035077569317  0.2370888771971202  0.0111125047006461
  0.0109333870911974  0.5136460670186569  0.7007593335503737
  0.2117295507307871  0.3086086788686881  0.6296362744323891
  0.3148951709808304  0.8871909574783861  0.5775828996903372
  0.6476901689984188  0.0897181052285948  0.8751844793824830
  0.0680645041542763  0.1587850782793522  0.3857630544172760
  0.6005671194359496  0.5761319008286770  0.6428767119866307
  0.5089373050826226  0.7970146979042452  0.2601136003167771
  0.3104146617760001  0.3182604175391526  0.0056147968605940
  0.6442899345576334  0.2862573550875597  0.5090281143318880
  0.4618734248421850  0.3914043856643123  0.3517674141522422
  0.2524661896786194  0.8231332780720890  0.6769244941843227
  0.4319287028163685  0.6918998159063739  0.1166921225955059
  0.1130595097315949  0.7789193283839041  0.8700804479237312
  0.6355954082927243  0.5096359613272399  0.6075519554607629
  0.8920933616434731  0.6182227147236673  0.5237534526420535
  0.4918953541436836  0.9907576531482767  0.3882522956125748
  0.5830305596510489  0.9134774585002435  0.1809156276328323
  0.5843050533223059  0.7923077687939047  0.4003795976971464
  0.4526156803786408  0.4408209259040836  0.5239724535689895
  0.2290455127939522  0.5714612798422728  0.3115321132601105
  0.2703752781678527  0.5171128656314784  0.5472556922914538
  0.5513331561178889  0.3927685100459610  0.9090278603142203
  0.4395799081797026  0.0281022337655661  0.1738516715495727
  0.0363737150881296  0.9070536030446823  0.7455767275201531
  0.3583776395759710  0.1654065890920037  0.6741983316546073
  0.1049380323453369  0.5901698942687430  0.8349873119631248
  0.2325721505033199  0.3437749352858327  0.1060442295096876
  0.4462610044772749  0.7059416156158416  0.6428571823097241
  0.9772266965741799  0.4628829820689334  0.6457101203993605
  0.3213169218601195  0.0093698500082655  0.8873616848518313
  0.7476813231558647  0.3188074521527621  0.3734304352060677
  0.0257977434485596  0.3275289242424834  0.6696726151127275
  0.4891030649132079  0.6567244902271235  0.4167138086271084
  0.9406539222357229  0.3029918805895286  0.4240582116723744
  0.2265462919076402  0.7889263254524064  0.9918115975135376
  0.5849584004852107  0.3255675496119638  0.2895817344040689
  0.9552644520285448  0.3390796097065829  0.0914306853228382
  0.0398256895912163  0.0943408155261973  0.9132556115033590
  0.7779207123009736  0.6530696827931175  0.0298056564048030
  0.1918320229774072  0.6716673427835355  0.1372762491443328
  0.8380796259093597  0.5258542465373846  0.9438264679047325
  0.5200891045115611  0.5248220316412237  0.8617034490348107
  0.9684499040701652  0.7236026408858766  0.3760872308084598
  0.2173753524292503  0.7206551705324254  0.0555428612569933
  0.3769182231209054  0.3059045221011115  0.7599427999380991
  0.7997399565885750  0.9191509779982799  0.5747036140725027
  0.1454007796055669  0.7199934587908240  0.4038538320254214
  0.6133364563445793  0.8504940252026060  0.9981850218979268
  0.2354954969986480  0.8563380395569627  0.0621315784347957
  0.9035740042719059  0.3030523351484030  0.4893513245477094
  0.1002185119407660  0.1758584066184696  0.6595418532416720
  0.2747348401481028  0.0301464843222756  0.7305298900454544
  0.6870504959200799  0.3200309823336428  0.9090091022048468
  0.4665178586005252  0.5063511283569038  0.5793258386822235
  0.9076250776970564  0.5828715044123330  0.8215033676954707
  0.8102904093633503  0.4683122475800461  0.6962688525938578
  0.7397310718611282  0.7336652244454855  0.7749887636376174
  0.8842007828354167  0.1423498842691078  0.6554198729389134
  0.2066085870682059  0.0338680250794328  0.7623190114999931
  0.2689318935792862  0.7372434351473645  0.2864680806389269
  0.1791541096968963  0.8039418657507003  0.1587314922721093
  0.0003352525541903  0.2463191670911939  0.4219387156592432
  0.2691245230339713  0.5468252612300927  0.9276600799274467
  0.4815631333546891  0.2443824009958350  0.7677264032720026
  0.9192104555575094  0.9541872072447942  0.2539492727379006
  0.9261695887274137  0.8470274878770021  0.5144821889457507
  0.5087288341874096  0.2724867977895662  0.2919223015500103
  0.0989168284495355  0.7093753825260104  0.8953703233720004
  0.1346585458554910  0.5355818668052971  0.0512067044286549
  0.8713130686356440  0.0310191101316514  0.7603773988785399
  0.1763125729008605  0.5358526645124134  0.2344457730134891
  0.7200020590720431  0.9744882253529651  0.2077192548513593
  0.7505414908199057  0.1210049222416247  0.7588480878978598
  0.8238776724381823  0.9108520670751661  0.5332680587179045
  0.0318268955604502  0.2162612927202312  0.2578260949723190
  0.3526718435665659  0.6989915475178572  0.8235074171649509
  0.8971324898071684  0.8529783449199154  0.1401308319754610
  0.4143104944199993  0.2582331604445707  0.9463762741452639
  0.5947447686556221  0.1622679685150364  0.4499079124737251
  0.5052449079305004  0.6986639984616597  0.1133989002149497
  0.0325744748938876  0.0687002631644024  0.1290401871858746
  0.2573755506170782  0.5816496219316953  0.4952028987301410
  0.4903501561815167  0.5820996266372900  0.9604811298698256
  0.4086104823837354  0.7848248756722621  0.5669617575523128
  0.4669190706943812  0.0403832008942505  0.6944866999346517
  0.7626082938171925  0.9199985081898853  0.8503308903028693
  0.6163131922925867  0.2866883376532732  0.8286868377859266
  0.3310972994471358  0.7979720162205735  0.2799952963929320
  0.6378834194506638  0.2920819641854518  0.7561525896663842
  0.5005177656130362  0.7925912773109768  0.3846040898402179
  0.9738687159851898  0.3135677230528646  0.3316783147110044
  0.0718355779592369  0.1765928991509528  0.6641792947664007
  0.6522043151048853  0.4468054819253562  0.4229181595181964
  0.1816188774627301  0.1876065384227439  0.9201587380418985
  0.3513192500332468  0.7828586630090906  0.9786873920989806
  0.7551764758830921  0.7381935692291886  0.3685932458694405
  0.1887735561093448  0.1856844419656951  0.5707027798927815
  0.7258151223169735  0.1866444489696066  0.1150213191557398
  0.7863339577515772  0.5196024484260969  0.3108298605485817
  0.8809276680127125  0.7519066236396772  0.2592477853086114
  0.5853061198621411  0.5761819267652222  0.6666795403183844
  0.9441746049980364  0.0994060356516714  0.9232692033292612
  0.0083487122017123  0.1202119442040855  0.6588076997197791
  0.5477169125679284  0.2858552466814874  0.6260513171570226
  0.2755030403994159  0.5131827582695004  0.4232860850034292
  0.7648486045894570  0.5975296836448630  0.0367610487276203
  0.1685646279793077  0.5254672539587302  0.2820620853252379
  0.3788115922379132  0.7887064397740891  0.3376335595128689
  0.0140318006673792  0.8103061163771420  0.3598320985363793
  0.8675658407888238  0.1920328590409233  0.7941214099283139
  0.5781860215820694  0.0324622321572765  0.7190735210427867
  0.4152402989518995  0.9845168674086333  0.4918332789389823
  0.1670575634752407  0.2486241313805918  0.8426100925661514
  0.7028159158448519  0.9759428521062068  0.9756207839126361
  0.3247323374877712  0.1072062863937027  0.4460970061554825
  0.8915072824832836  0.1660231397521943  0.4439116924256798
  0.5284985017036194  0.5176652377378833  0.4657943256482533
  0.2994510157133132  0.9790648389767017  0.4317575257624594
  0.5866813769405230  0.0006060242851951  0.3657152468655182
  0.5156583635424093  0.9708788195540441  0.7662023028772597
  0.8258050924586446  0.8889634739519854  0.3089288043223627
  0.3249716820946738  0.4783715618036776  0.0854659823054620
  0.0743236417175997  0.7810063718898971  0.5123707372756781
  0.2272072625141941  0.6154075749273511  0.6322843282748360
  0.6844615985720535  0.3681878758965446  0.7575996074584739
  0.1174272866951286  0.9779012133302518  0.5203705057753250
  0.4207509132855172  0.5566484725187297  0.0509274146175409
  0.6766064285999474  0.0990535409675632  0.9138950105199858
  0.8934078296891772  0.9511887818910523  0.2979442318315121
  0.6446012697780356  0.9498495162625527  0.7073111623850344
  0.5117484618621501  0.6283840458368045  0.0568463845225543
  0.1179078743041704  0.7988028369624892  0.3469047149893099
  0.1431356615520955  0.0857546379755009  0.2562491592361739
  0.8863019112070153  0.2275148654929170  0.3645493061155188
  0.3780221073757996  0.0425993913642692  0.4247009254232858
  0.9368051934088243  0.6009561071251038  0.1089539192972793
  0.6359047871007034  0.2794956112449167  0.5352114228978613
  0.9194044890163806  0.1051564235938962  0.9098002314798903
  0.1943241650624107  0.6945830901586848  0.6709754379552941
  0.8461382094713111  0.9482236158806938  0.3156742966078045
  0.5971111834227480  0.8575682268868835  0.2217791311948549
  0.0982386285844580  0.8937697012147845  0.6111013544952519
  0.0326601981774754  0.3142188349248784  0.7245655146937708
  0.4134217005742300  0.0606796949520256  0.3347816334793472
  0.2753862960219043  0.1142905154636233  0.4230696532961744
  0.7442243452662853  0.4605092771631533  0.9772457492266922
  0.3367285315794336  0.5141328963870042  0.5825750498486622
  0.5845952455391330  0.0917666920029578  0.1437381362514689
  0.5375410128313122  0.1685222983968993  0.3833218568283888
  0.6902770463201174  0.1720868139337988  0.8890054283159761
  0.4101070578275131  0.5756466179984173  0.8070727281014782
  0.8212935768912553  0.9729972585521046  0.7892438485710317
  0.3127562698620950  0.6955949400075710  0.6834940891129573
  0.4659697957190888  0.5621794250463952  0.0342673592951884
  0.8111304912869985  0.3960294661259018  0.0464082796469210
  0.1973326554413875  0.6623492605252601  0.9591555668277866
  0.0958245755713124  0.5250321974706367  0.9439249339504430
  0.1590011924904009  0.8751262112226792  0.3093676939799156
  0.0962606167319523  0.6658723654810748  0.3126017443453487
  0.8746054136515203  0.7508769312010496  0.1832906323428605
  0.8797134632983663  0.0785477112063333  0.7391832043025475
  0.5057461342190748  0.0909600479850909  0.1104015324990160
  0.2445217226169064  0.9115538236596527  0.4450909502308914
  0.3934115008713010  0.6992855055489881  0.6589287616718129
  0.5550759309907641  0.2213073069295127  0.9836572730146389
  0.0061563610951761  0.1127239022370623  0.4316291970471148
  0.6935796910782320  0.3216719766484845  0.9911913854775884
  0.4127665277596584  0.8432389325530114  0.2205805842013185
  0.5200952847997684  0.3981503003155424  0.3046126535387297
  0.5512934064525523  0.3752155897145141  0.5347304377181511
  0.3188544463986731  0.0937732746752572  0.1174880973146566
  0.2956012863625167  0.2951677163440017  0.7039845118912131
  0.7963735966954110  0.9088291593421840  0.7896335262484804
  0.1184307747068322  0.2834121764670559  0.0539987313699082
  0.6180768996399965  0.5385985942829309  0.2087851062577216
  0.7982978223753960  0.5006686912033408  0.4119915688243965
  0.5540780534027201  0.3012876916081817  0.7483871392122569
  0.8041671717958498  0.2032352988681777  0.6034750747833613
  0.5549505637138269  0.7208840832000262  0.4778825082568664
  0.3461493024625850  0.1572555162846880  0.1964613049611760
  0.6485190283787478  0.2128978079895626  0.5919025798567993
  0.0356525800780963  0.2170844613785162  0.7611784162424349
  0.3619895275740306  0.7803367912571358  0.4345233368430131
  0.9366597341406818  0.8255976507861987  0.6540316185317649
  0.3060964777135097  0.8548751048249101  0.4860148380708961
  0.5092138352591207  0.8437637693415964  0.8811859080123938
  0.1292166408530232  0.2520805349674088  0.9068979511455011
  0.7792755210775494  0.9781202111890003  0.7638213717269494
  0.4140556937980759  0.2437540513444872  0.5149815735060334
  0.7228812715131870  0.0548497703767579  0.1475942219571149
  0.4070126545359438  0.0430826893055092  0.4641034905116663
  0.1142264730960504  0.1434015896460392  0.3106682802786724
  0.6082738601604468  0.2796211002002627  0.5371782126697482
  0.6155995529096649  0.7328042382491471  0.2246148743508989
  0.9970515188761171  0.9220646550940632  0.8640836787600910
  0.8703746428425451  0.4010332480560327  0.3121540187364893
  0.2528292098264667  0.5638037740234209  0.8270246087661342
  0.6825449154858972  0.1243499120953701  0.4677960323581333
  0.1995204441374090  0.8664641248804399  0.3343127508875118
  0.4043028320075335  0.6530135558771315  0.4306715214129497
  0.2399136229605466  0.3190329913084818  0.9011352074329394
  0.2183824002616019  0.2802095773969245  0.2062698963037409
  0.2839548545566019  0.7127841613680692  0.0232660399811360
  0.4022701882622419  0.1515622634855136  0.2464815832212200
  0.1267304359323294  0.5379104483100942  0.0996455438038612
  0.0868302543904282  0.1680757435974361  0.7607068722436284
  0.5589604978318443  0.5109875766794182  0.5450488508254450
  0.4685886079147304  0.2498213368455479  0.4817614347663748
  0.3356813854279531  0.6468475198297812  0.8872962098313888
  0.0517026267484711  0.3223448051244335  0.6788657240281167
  0.0430126495317956  0.5682354521359603  0.4204164209329346
  0.8288344513960398  0.2790431038186768  0.6122444027363437
  0.2011066487034069  0.6769210544414246  0.6113043929925769
  0.7665336058981115  0.6430391110367206  0.5203361599977134
  0.2086160501131880  0.3994440698096987  0.0549337934619206
  0.4109310066094251  0.2526143023962310  0.9744073246229621
  0.4610310422382428  0.4606429629141791  0.9725057152730051
  0.3270196968340036  0.1632192554161878  0.9474486367799760
  0.2065163107384395  0.6530381196444940  0.3783733353069295
  0.3186864214819030  0.1650582037104582  0.6318158244525167
  0.6567172611529284  0.1559798262637948  0.3507113325945120
  0.7436198389665620  0.7307053970279733  0.8199367709642676
  0.8946036795673922  0.0765243215700976  0.6923528687979791
  0.9245607677000778  0.6247537581891353  0.4433132205575173
  0.1523004839506144  0.3338496286050281  0.5582885148080819
  0.3721967672787923  0.0234496961867204  0.2031874679768627
  0.4062902329258057  0.2874541460567923  0.1478687260454529
  0.5531094380285813  0.3982018089815477  0.9588431521194274
  0.0121476279011670  0.4466494347755902  0.9908095216749739
  0.9935532559117239  0.5119690621631975  0.8740071474899965
  0.3178325038753255  0.5834414679931064  0.4506539160704819
  0.0363758465270878  0.9571052629312461  0.2987112100407371
  0.8107399144863106  0.7198096430692980  0.5764489359054196
  0.0890061623677594  0.7795929945897188  0.4147039413380223
  0.4273174744112339  0.2649591944921310  0.5302834691623528
  0.1215964256429425  0.6126606076522230  0.8465928019230976
  0.4603012087931412  0.8345743419501961  0.8117011553125357
  0.4602269058054205  0.9736362165372209  0.8165806806599019
  0.9744781777300560  0.6815670870103219  0.5804625560614018
  0.4803724331125933  0.8430232397462739  0.8824733435938741
  0.3058997337025047  0.3312183664410826  0.2423952313018419
  0.1395209320416536  0.1792226314286643  0.6294007719806046
  0.2858316433223945  0.8272898532653550  0.5181568885435264
  0.9176247063991840  0.5149563399448768  0.7330928149381183
  0.5189166127102847  0.6394074805522928  0.6838428556745136
  0.3241829378870590  0.7814385634918140  0.4029937666984301
  0.7836155479672778  0.8578589688436076  0.0440398837635253
  0.9526178486075720  0.8474413529934746  0.5637963907258167
  0.4911033683986817  0.0666416468564679  0.3685005735944777
  0.7447578378123035  0.7862889227405324  0.8642632636084844
  0.3479186370988967  0.4069365317343968  0.3963074326000179
  0.1919503203334863  0.1018864969311534  0.7647681712650066
  0.8127628582187448  0.5633694397368771  0.4883201576070446
  0.8413683390248958  0.9790124360355402  0.9842915195634027
  0.9351926231094916  0.6426806770854172  0.7465537524647885
  0.8935457518900085  0.0437712194813768  0.5171835210294045
  0.3453233929159762  0.0223685653815754  0.1952152582662371
  0.3531401907033652  0.6906038532521737  0.6205809294010336
  0.3031066735393754  0.8319771846879180  0.8468407837282015
  0.9554275965143809  0.1547354555043789  0.8315397277778466
  0.3522487456330513  0.1738011177052418  0.8242477291986072
  0.6050013994077796  0.0847186319552577  0.3131378635364878
  0.2926265344217489  0.7855642781247165  0.9327033699826727
  0.0518187607822951  0.2882635739123927  0.1647991187910580
  0.8651729589790066  0.7155518803748881  0.8787701801683813
  0.0309355131324411  0.4158895729030023  0.0613558650790613
  0.3816172136062421  0.4735893615665967  0.2580128824537347
  0.8879872074168624  0.2006439504760876  0.6653723345714160
  0.1191425546004046  0.4046269930153996  0.5896589536581460
  0.7433809643306661  0.4143592685601322  0.2959367954811727
  0.9605539300580070  0.3812858585094011  0.7414266781917656
  0.4527796354285978  0.2807761064008302  0.2064566316792973
  0.3584544363981922  0.6411822456181685  0.7596204350146716
  0.1924171231780621  0.0499020240582544  0.9462597433989238
  0.8998051848672183  0.6577848700268893  0.3135870721582676
  0.8837890973958240  0.8353903831047512  0.3816164440756070
  0.6125529983730817  0.2119409032453937  0.2691059553763677
  0.4027305896851090  0.2124714760674191  0.2382082469354465
  0.6416425890650612  0.7848377814669276  0.4858333573708501
  0.4805960773773033  0.1962540676413357  0.8935910706042756
  0.8657057788847747  0.3284967573283062  0.7212457862629598
  0.9513444902960378  0.9138050168491042  0.6248178472132785
  0.9601592653911973  0.2886560780569366  0.0468567347378115
  0.6951594910264628  0.7307460231854699  0.6371959207705019
  0.7510548301444074  0.5131572540210578  0.7774840651451754
  0.7010615278929536  0.0761256696129754  0.3030898277334698
  0.3554083654487898  0.6465473500604646  0.9849372113645842
  0.8365639058048809  0.4160609570885508  0.5999625306240197
  0.1765941256906110  0.2584477058242883  0.9160610551021788
  0.0254478897089075  0.1056454546029120  0.9861197859081521
  0.8902665210207656  0.5017773610751202  0.3791556366469526
  0.4113098695898692  0.5725912714648991  0.7574929106910543
  0.0696835190123720  0.6673398604227829  0.1428543395112343
  0.8846603221354344  0.6128904397974155  0.0175049817327992
  0.7264686699970155  0.9299128293852635  0.6143402707463216
  0.0862944469522976  0.6087724258485311  0.1319715365775783
  0.8009385408361341  0.9441695532426594  0.3367937513407439
  0.7425893763694829  0.9113237541724180  0.5010847183598658
  0.9959953696977635  0.2949018512289961  0.8951070565134573
  0.9244570773623254  0.2667099014888847  0.1546683388833590
  0.7708996032605030  0.4857520218622824  0.1186720486553546
  0.5447654424576229  0.3389302890331930  0.2308003949860389
  0.8699976888723721  0.9104286363499762  0.8023080941699535
  0.9743164421943561  0.6548185796823534  0.9992661002396545
  0.1616934952827359  0.0866513460368095  0.3525693513849621
  0.7421416185418021  0.1268721435167097  0.5472886773045071
  0.1247077069142998  0.5114306644824751  0.7980899625240833
  0.7844111645320956  0.0526461998260632  0.2608290237862977
  0.2386377107323684  0.6928064581038504  0.6784238863813663
  0.2264553431304809  0.7014992092886417  0.9079815646376942
  0.3679680002192529  0.4608375262283442  0.3577696584392593
  0.6278407956993588  0.5401155878302917  0.2355841056743078
  0.0286251972311652  0.1218468903149188  0.6129499401210845
  0.6673890436327606  0.2254592654800388  0.8160696043464050
  0.4393142178240215  0.2336393392260143  0.0941024890159864
  0.7395236694924228  0.8365790735354119  0.2122312475115095
  0.6125860121601231  0.0338344744520288  0.1707115748624286
  0.8417947173080067  0.9762554583056284  0.9360370287145793
  0.6984376352502986  0.8795239580451085  0.2384389175708101
  0.0204349658090513  0.9433581925700779  0.1985814993932298
  0.9994783343242490  0.5280692042498750  0.2522025280142086
  0.0720451752310946  0.9779162703615095  0.0209694836484979
  0.8541086237350253  0.1247439214517503  0.1753908926638909
  0.2053213793611549  0.2681614193393619  0.0093748532710837
  0.2553821629469322  0.0531423456565835  0.4332977729613928
  0.9710788279145769  0.0378200035210152  0.4144129080686489
  0.7454974352965548  0.7144338352218434  0.5197828779381262
  0.9684802793034656  0.7734324446529318  0.7335725956708483
  0.2174329391124289  0.1840647809608893  0.5649576479606871
  0.9127193604362984  0.8442384019670649  0.4893574069047552
  0.5467059925299841  0.7946346383081996  0.3681711503311771
  0.8206828745415449  0.2693900296789302  0.7699426157764122
  0.7063418877830957  0.8761390313058659  0.6774388050692435
  0.3110686197758730  0.1720976266109323  0.5721239471664087
  0.8691392468629540  0.8487742268709760  0.9449767849132065
  0.4156025024465293  0.8408667215806324  0.6153758025547446
  0.0370359761377738  0.6083588407308184  0.1330416895230387
  0.9822655820455697  0.6681576178596600  0.2149614161801819
  0.5498385749189446  0.7132791465612550  0.0010572885278363
  0.0542991553018170  0.0073903788125570  0.2617905251929836
  0.2096523319070719  0.6657901291682332  0.0914722629929161
  0.8673092647259950  0.4027606429996340  0.2631175852764439
  0.8785075715993332  0.7919156296276223  0.6879761429487559
  0.8511577333128982  0.2020636099885057  0.6206223034574456
  0.5775950958870885  0.2910022591685273  0.8004769399581521
  0.6529423366183728  0.0790592136194920  0.3080615964844946
  0.8712475296676591  0.3940788726742047  0.0919600686292107
  0.3678109432738726  0.5736747808243489  0.7807613112680269
  0.8544795779856093  0.8510586875086070  0.9693890634168778
  0.6135440268147542  0.2142817266849374  0.6274048850944020
  0.4181321098130267  0.7115866517805224  0.9592920721549093
  0.2762161653452564  0.6026141164865243  0.2506315363541748
  0.4524638776095868  0.8574640331398083  0.4886085976078784
  0.6146678113127860  0.5861438434271292  0.3980087029369797
  0.9755765334315710  0.1395082921777629  0.2039611938948764
  0.0254722255131140  0.5814878135959785  0.3769046134203402
  0.5346926345974805  0.2124874273542997  0.9658952232569787
  0.1213369237253441  0.3987344643816286  0.2973005681507028
  0.4744134050931728  0.1380948959089142  0.5783964284726957
  0.6080000259314302  0.8821651578381152  0.6927626453086443
  0.8296183914734750  0.6886722136959172  0.2860475903619464
  0.7685872253859960  0.0919414221571683  0.4039454401384101
  0.5082911578927561  0.2237616399431340  0.1663162329925023
  0.5330409990458537  0.9504065210865266  0.1778977616722292
  0.7661154046486568  0.9885089265914438  0.0316643617901539
  0.3163074321908020  0.8509915877698208  0.9869088790465370
  0.5457320005552482  0.9948162088959152  0.4051361271634675
  0.8591898266446809  0.9055890431241962  0.5049727413499775
  0.6448804074749653  0.8901907997363175  0.7239314124381562
  0.5402792945543123  0.3837528022790647  0.4579575723337198
  0.5501075244675094  0.6365125994438313  0.0986841678520521
  0.1523132248980056  0.6741409870262346  0.5927366443599645
  0.8935306448225883  0.2707202438110605  0.6681297085108946
  0.5661072225402660  0.3950254802598570  0.9334677188500710
  0.0770143424226914  0.5180643055353193  0.8899287060666704
  0.1305625420305418  0.4694528370761145  0.7182072250574574
  0.5543260687640404  0.9014724035654608  0.1345487066109727
  0.3751427873339437  0.3749485951245122  0.7198134903802139
  0.5957198592224305  0.8114830794087046  0.8712056759609180
  0.7828503725556742  0.8537909968051437  0.9441025087151076
  0.8834355922999300  0.5201047949415774  0.9282033536538917
  0.2526174267949701  0.7244239219848955  0.0907100919500323
  0.0217668386603757  0.1003319328897644  0.9585037185189130
  0.5147100242721740  0.5052133387666046  0.6372529646620840
  0.1291568846347861  0.4014937851275564  0.8298045625793640
  0.2524463142108401  0.7408263084230331  0.2394039481474326
  0.5670569933249573  0.7620677678801986  0.1910474588764477
  0.7717837489176310  0.7233337828250871  0.0750251949801069
  0.7684653666137641  0.5659694171379497  0.3835381983524254
  0.6306179629934919  0.4545572411114121  0.9521237207799572
  0.5659436188256867  0.1702277883645322  0.3851575041685251
  0.6542552057522023  0.2220745487061458  0.7686477330651850
  0.0162937036074523  0.7776730451129483  0.7443784069866978
  0.1193425686000693  0.4630210944240212  0.6655187219751756
  0.5113895658911279  0.6591882613968834  0.3661580244218087
  0.7051249467297003  0.0012025212859356  0.6306726138816323
  0.6324005200063922  0.3392477596739583  0.2680887828670871
  0.2238351143379340  0.2108757245811425  0.1112072423963615
  0.5443620032702345  0.0355082594734705  0.0711719151749880
  0.0702995552586849  0.0438822080326289  0.6213960013184581
  0.8837861860827488  0.4573181086774262  0.7653663264898699
  0.1183373854140432  0.1512518166677876  0.1539162292815125
  0.3192062308378198  0.7853442108081226  0.9408280642842329
  0.5617296823543814  0.0204129354015346  0.6670421249530316
  0.2821124854204458  0.4846325756512306  0.2086322116337551
  0.4848241975904343  0.7070949905350743  0.0291720070693506
  0.6350365991228695  0.9542467327783023  0.7934988771775512
  0.2797536474297724  0.6949690591249732  0.8230708321896394
  0.7686059088300432  0.1266286264017289  0.5581359187907711
  0.5502032269077739  0.7709214399762923  0.1366779758796574
  0.6098861792001433  0.9330765562327186  0.6264325877544688
  0.2538251024564026  0.5715788430786002  0.7783351121503524
  0.0388925631929116  0.4519831664626456  0.6846735573456779
  0.6934038264720321  0.9924115188502586  0.5004802322730890
  0.5383371561234377  0.4398024203273929  0.5712030201916006
  0.0665912810138436  0.3058429517890866  0.7616273583227033
  0.0461150951481400  0.1686453775446750  0.8672769863516389
  0.8487657379532432  0.7179775497946533  0.9257300949289192
  0.2644047509391891  0.2750865851901766  0.2674973953917275
  0.9376452054271518  0.7304671437664386  0.7169709153443777
  0.9332341225526257  0.9221509238614654  0.9375075743062465
  0.9713756635515968  0.3375164386929101  0.1759055993529358
  0.7288018702264674  0.5135087177670365  0.0685163919576003
  0.2876853189627849  0.7858029185698361  0.0314298062621599
  0.8349481559774607  0.6848398923093629  0.3139804974494479
  0.2736745805777916  0.3116884701825919  0.5494101453240082
  0.5480888743578307  0.3899377080501172  0.3548989201864332
  0.0873040669642226  0.6046200748896474  0.2739534276039347
  0.9698755208206497  0.5322985724634531  0.1717008717389816
  0.3574334148987729  0.7069181253050806  0.9163256105787058
  0.6258679792810563  0.0258395812201253  0.7065631306679052
  0.1177837879056726  0.9173187565747377  0.5129478196885687
  0.3471726786713546  0.3707805665062106  0.7219536303340135
  0.7768332765163308  0.5319715640385512  0.2866894583946789
  0.3928795357330954  0.1239073954528992  0.3719569877188478
  0.1861205612747525  0.5221095935009500  0.5344912417625658
  0.5856259297547762  0.6671632075289986  0.8439642697412713
  0.1926517192917379  0.7970672645193621  0.3331584818500116
  0.6302224295916431  0.3945170083753298  0.2646037806625660
  0.5356524019759977  0.0892900291244235  0.1495930802801518
  0.6311122205885288  0.0425264036941816  0.1249775598658968
  0.3819952877927971  0.9525028997042267  0.1887871864589826
  0.9657719195474549  0.8306548800630775  0.7002407119076257
  0.8715400468120852  0.7548760651546037  0.3156293533000256
  0.6322941472518632  0.9409471161817936  0.9364046375565127
  0.7789451733763805  0.8351031982341157  0.2405449682681520
  0.7103467227328448  0.0676281190127611  0.3880916332074191
  0.3061049996666535  0.7289676642882090  0.3517699633312084
  0.4266938502572296  0.1165649024941391  0.6891534267435259
  0.9305205450028596  0.3311250109069165  0.0815120411946960
  0.4099746127887701  0.4675145376138162  0.2983308693324735
  0.9285601140712983  0.3047946560992780  0.9244874503457829
  0.5522833054107542  0.5825705900687029  0.8127491784987070
  0.7626893494871800  0.1377306747276836  0.6868695848417958
  0.7713119345679957  0.2535576536682181  0.8863809423545370
  0.7860815457069523  0.4794471830918791  0.2128927875102260
  0.6307086366391538  0.0260860370777109  0.8334291704096404
  0.9001498595835035  0.5915137757774808  0.7123380551271307
  0.6127734315968116  0.6465135697529406  0.6431226095573597
  0.8455890027715978  0.3849095917680617  0.8734996083627224
  0.5171825189731859  0.3930065870837849  0.7586015369998170
  0.5469833731848822  0.2272895428899027  0.7994741446579147
  0.1296179963223028  0.4707964496085716  0.0208782462887394
  0.8058848802832832  0.8264697033362418  0.3709007578598256
  0.7403202461417773  0.8564892496090187  0.9698572325592542
  0.6189630872009264  0.5359538387139673  0.2838972997859271
  0.5702208465054024  0.2153303767307994  0.2071218792103151
  0.7674447503587436  0.0567632901018240  0.1641579684163348
  0.7023833003183241  0.9219218485857661  0.5262971945621827
  0.8123781230526297  0.0510454287604497  0.9523221398924416
  0.8387710292787516  0.5914938390123101  0.9580508484584767
  0.9345804393335565  0.5773428138014989  0.8590274203580961
  0.4003124192938190  0.5087022814614715  0.5435703290291508
  0.6354845406537529  0.3028120134457126  0.4647807223903395
  0.6650158233020643  0.7273181488443314  0.9765531581439337
  0.6191053406328099  0.5951261717243113  0.1792090695531801
  0.9044759965883955  0.3072086618507692  0.5175947064023442
  0.9695696147561886  0.1711543426847664  0.9282561629423641
  0.8996079814127993  0.9295622419051276  0.6582780757244178
  0.3913891327525630  0.2920050001549714  0.6658984895189861
  0.1662406527160258  0.7794125201722852  0.4747718946682116
  0.6747973364508741  0.7239673320882738  0.3889700337846943
  0.9478167077198577  0.1039849983707945  0.9510750502786868
  0.6191733504983338  0.5091163540706352  0.7046527454887873
  0.9685346564967474  0.8152678617699256  0.2853256556640760
  0.5788412706998578  0.2187434810829124  0.6626841952905407
  0.8766918244255518  0.1531729101180288  0.3475886023894819
  0.4571333821552860  0.0920398700993660  0.1163759207932063
  0.2847587460512596  0.2830529472208407  0.1711649098674564
  0.6481316893543644  0.3011926713084178  0.9045852105325353
  0.9251448404544208  0.1253246386755210  0.5678514330359273
  0.3338300163642731  0.3002837196603984  0.7808749120618133
  0.3460947623670307  0.6940296800436359  0.6479535381745763
  0.8613860019281020  0.8393154755505452  0.2531482814269354
  0.4403730921172829  0.6519392409354704  0.4741520473732779
  0.6479294810872201  0.0293529698546739  0.7883700713867399
  0.0745733532772963  0.7000091611854981  0.6792566682787624
  0.9559143301903724  0.5099967274458216  0.8414783011947553
  0.0826745692717002  0.6725382041615139  0.2280447124829183
  0.1885462964870313  0.1428281156429612  0.3169340078639564
  0.6979250956434073  0.1796768839429130  0.9454248251612936
  0.3229370114377365  0.6789911468210238  0.1855470555401682
  0.4026710575285899  0.7277157421787293  0.3723078164699923
  0.9443749922115344  0.8353473537851791  0.7751207277386890
  0.0781090209783507  0.0972938736156441  0.8492920678090201
  0.9431287031086482  0.8390607754998738  0.8242791390114502
  0.0986034667589100  0.7779250748824810  0.4410959819684925
  0.6660807668391971  0.2929468513231186  0.7585680168996695
  0.9064892848617436  0.7680134206808177  0.4230496466502475
  0.0687628128812964  0.4526342846419985  0.9051917908740446
  0.7304467376943921  0.0628323055453484  0.5850323882295252
  0.2428886224347938  0.8693000180933679  0.3112192917252341
  0.4320173925953376  0.1428102433629436  0.2848842989944890
  0.7402865995930993  0.3222721356439890  0.3251298286676295
  0.5142433111987627  0.4652349136320272  0.3117876985125395
  0.6408793474932800  0.5130968809531076  0.1379462082474807
  0.6324568872043427  0.2862223990235261  0.6328435343698194
  0.9595382291482779  0.9578482730432947  0.3343857030987741
  0.1315938876863325  0.0141591394256304  0.2587157504152184
  0.7101686961853981  0.8595091179505152  0.5794813406032301
  0.2775227019583187  0.0531833166601639  0.9990561577159629
  0.7275805633001065  0.2408600827285498  0.4260652011147660
  0.4473651454284731  0.7625400720861836  0.1365081292155661
  0.2566179064559281  0.3252477957067669  0.9847845331803414
  0.7751534028930445  0.3170810467843469  0.3682166247179073
  0.5680956269783154  0.2342932892126627  0.4843533585738501
  0.7750877243578107  0.0545087013089780  0.9855464831741373
  0.4388943087767980  0.8552928382232353  0.5137554565006752
  0.8425566631317036  0.3903731782721832  0.8247922735063923
  0.4226563509858966  0.6437463292190289  0.7985542096985062
  0.8434045293830909  0.9243530927378719  0.1654150579461317
  0.4613925506725925  0.2899813127128572  0.0841176387821131
  0.1005245076316252  0.0339332107223951  0.4280349909817099
  0.3926731290576346  0.7659052713826443  0.6617373256099804
  0.3542623622587238  0.1027258450336825  0.6517003863509370
  0.7817234063011494  0.7243345440688019  0.8523490684765251
  0.6196238937989581  0.2787525038848394  0.1599792292009634
  0.8228298569980851  0.5335446200363644  0.2700369828716077
  0.1276138960017479  0.6074563904944867  0.8756705589119823
  0.8317055513434178  0.4650458328903306  0.7133259241027298
  0.1178170739891037  0.6513888278614298  0.4536330305026566
  0.4771731211714346  0.9172881733778517  0.4611098565813708
  0.1362012371671307  0.2328213031393248  0.7521290633849069
  0.5419943963319273  0.5723328203653189  0.6893493768399048
  0.3370833958121852  0.2464593409101766  0.9723818075394211
  0.9543690106982928  0.3320658539383894  0.2215921152492865
  0.4478885814279910  0.3739212092676735  0.5462972811630429
  0.3936672301660593  0.8435859486032714  0.8873937760489894
  0.8307935937579460  0.6509349304122157  0.7087358868855994
  0.2492909785481781  0.1081640290341911  0.4896522479100057
  0.1574323814604451  0.9928439174132325  0.0702800640713376
  0.3259972259166183  0.2372599631600881  0.6887253811169366
  0.1817167294881486  0.9630369654162650  0.5542081751032467
  0.2433220802696222  0.0633407146403919  0.0646821686681035
  0.0804756756690933  0.2990733639804221  0.0212151447387883
  0.9133036410530979  0.0452865304424359  0.0315800875768717
  0.5061910763376731  0.9062985152317220  0.0439698248303082
  0.5282724454686633  0.0927462024658133  0.0934637751914102
  0.1685017206433166  0.8429234537718949  0.9745122958848078
  0.3129189523161599  0.1683862953776897  0.8526444525851560
  0.0412832991515929  0.1785817794952321  0.4659571584628589
  0.9670047081040509  0.3033996967516120  0.9912567081885960
  0.4017393231325209  0.0480870563799218  0.9883291424839112
  0.1799693553102025  0.6096146915624023  0.9330153257586549
  0.0656726811972895  0.7805277938412691  0.8587653439180324
  0.4965072780817269  0.6468225640935389  0.8109286799351469
  0.1385597387939032  0.7064140381901249  0.7546700937962774
  0.3669663118627660  0.5141651364762114  0.7363405651364228
  0.0208813483119167  0.8913433854125536  0.3550895314362982
  0.6778801252232911  0.0522456475774683  0.1315495526660982
  0.6569412474398459  0.0068159181773182  0.6422545259402399
  0.8335904602378419  0.5717408415150594  0.8678860657703263
  0.2981106341691675  0.1153484999532306  0.4074931136673252
  0.2174090498939417  0.9634575589191997  0.7085634665928695
  0.8915437153415603  0.1196194467139320  0.0854518277487639
  0.3539045151610880  0.5426192432424329  0.2142400145653343
  0.1645649502165632  0.7303372417675803  0.1389167935091193
  0.4200173035979557  0.9738627894989257  0.7261715816134473
  0.3532027038717545  0.5184668940068464  0.9243259382143051
  0.6090699128604797  0.0145020586246306  0.6536849662656561
  0.9735935456175081  0.1371474896028809  0.1753437601083897
  0.7856155865327998  0.6176142927782867  0.2069696599584490
  0.4460277954474370  0.9082361595660134  0.6952364731899268
  0.4735517134147834  0.7900961900317536  0.4548736269247053
  0.1381655925126016  0.1469253355340367  0.1087346211665377
  0.6972082226414250  0.8623192429875676  0.9475459124072070
  0.3060810674825700  0.0264986426819160  0.1336796395959608
  0.2938348753705671  0.9680565842481700  0.5041450037005828
  0.7919940949860588  0.2546907952801259  0.9056550760941406
  0.2282955982468541  0.2997507191848352  0.7136043217012057
  0.5402126994520979  0.1567676920935953  0.1730314539781282
  0.9860608983349256  0.2693803211814556  0.6960719946530828
  0.0485635991624783  0.0329110277488529  0.7422143043498023
  0.1680692530391077  0.5542630574527783  0.8182177886432628
  0.9844816979966209  0.7929054842240228  0.0928431831835019
  0.9289990827499038  0.6483705776314017  0.3516072287161068
  0.2923613859374301  0.8843230730384742  0.5948230210872507
  0.6704493180045895  0.2062608256968959  0.2059638946242275
  0.1492916198468940  0.5830007611666880  0.4377273421683043
  0.9789310383560631  0.8879951924663695  0.3312730734141759
  0.9755634622599765  0.0511486749992517  0.6449709927719692
  0.9149200360554757  0.1073151518601380  0.8822541903575029
  0.5098657343817905  0.1434455188493821  0.3193928933880286
  0.8211441001665609  0.3253515831463418  0.0157056466053255
  0.9607870256784414  0.9060909041469254  0.7093395953926287
  0.1351312714833172  0.2106235488709056  0.0578467699267958
  0.3703275680999303  0.0537587981417899  0.3690546612908138
  0.6099896228225412  0.8537592963149760  0.5081625518367331
  0.6872044801101759  0.9931877705736295  0.4723823580348191
  0.7722240272490140  0.9874123150384194  0.0047412424288509
  0.9592470717983256  0.0560715520148310  0.7601727731565756
  0.3025946010487011  0.2715155299955693  0.2998574988654675
  0.3394683206234857  0.5742526366911521  0.8767669744130087
  0.8744046743608200  0.9204430283477446  0.9887352174744897
  0.0417073362586403  0.7478158810495906  0.5302132304639208
  0.1652287156536742  0.7590033716495668  0.6499411903309268
  0.0028145214105550  0.5807124234012415  0.7553065127585625
  0.5360463938047066  0.7096342947579189  0.6931448558156307
  0.1909418758678726  0.9010230451154319  0.8460871927166917
  0.9653453223203670  0.7840375015220117  0.9673183925980489
  0.3205214747703173  0.9812342658697729  0.4126676523700920
  0.7742521686010746  0.2608883445033198  0.9865409936427346
  0.2080876033569800  0.2768052490896016  0.2551305185820543
  0.6920052845866689  0.5149768814392803  0.6171277819132318
  0.9875060509251735  0.4136229282863324  0.0842367070838045
  0.8488612545582740  0.1513665473526525  0.3522144924460024
  0.4195095561540740  0.3479313773532803  0.1508968203862506
  0.2083277862026405  0.7195449975187305  0.4612775372449694
  0.2023607591715461  0.3752066491816579  0.6814113918609712
  0.0607970578592801  0.6068041384802677  0.0905599741675560
  0.4382266626993264  0.7712920679116231  0.6462888882363949
  0.0774432204884080  0.3984347973249573  0.6145564399202080
  0.5530370737078820  0.9071605261488018  0.7698697978379413
  0.3706743970874727  0.1008211968196366  0.0274479245867490
  0.7070288254045973  0.1189575592263255  0.4802888931194794
  0.5815356802338570  0.6528730063008790  0.7221446684511109
  0.5027623864267635  0.7439659605493926  0.2625139388956315
  0.1196180882299843  0.0315190166939250  0.8140325377987272
  0.6351331704580304  0.5872823576511780  0.1575343884104703
  0.1578447078154259  0.8328191686236702  0.8033065246024328
  0.0411678606010095  0.3300387188360372  0.6226091980747638
  0.8359364279751970  0.0674550520118208  0.6231668490102521
  0.8095762689823768  0.3946024655909633  0.9972993886265565
  0.6571865909060003  0.2331392084827252  0.3973788733618335
  0.1704113488821033  0.1694303103802860  0.7484051377785264
  0.7522449776508823  0.5930601483553387  0.2872917019254312
  0.5797486798650835  0.5370016431919135  0.1788629273232717
  0.0025877931772403  0.7149706259346532  0.9186707550239857
  0.8887818191142315  0.9208642749984333  0.0137627635628580
  0.5128765440228739  0.4180349538230171  0.0823658179456826
  0.9610964705769491  0.0387447506508695  0.7165695419055718
  0.7238445227695198  0.6610438129767091  0.6233196053532841
  0.6697712137245340  0.6791149279703063  0.2164991001716486
  0.1444275722011830  0.6662041653576219  0.3041720243471024
  0.2333974585598039  0.6528441336703228  0.3866928413922486
  0.1623980859855272  0.9245822168243734  0.0769140031228593
  0.7167171297145432  0.7033474311346732  0.1643480952821148
  0.0514479438839104  0.0402814375940957  0.0049309380585224
  0.3767810927073739  0.7971200125064378  0.2627624437634006
  0.7653425222898316  0.5600832493852519  0.1842159971336298
  0.6520091259002169  0.2772907090162992  0.5596289861381156
  0.0337058228440913  0.1112360643731435  0.4261901168963218
  0.5281075174804913  0.7210897109554466  0.4867864897748924
  0.1207405553247278  0.1147753335990911  0.9723243868823942
  0.3730553468244485  0.8820186618886012  0.2210431499597410
  0.4952049647568370  0.7758767882059042  0.8397147843965603
  0.0534084634720512  0.1448654347897483  0.2351245239783701
  0.9390741168257509  0.9799476436328174  0.9640326211549756
  0.3814115083595082  0.0402806221116024  0.4528600661318183
  0.6792601735859265  0.6682165177218600  0.3375620662656690
  0.8595394129318914  0.7302608380026562  0.6898674393467004
  0.1629854165954510  0.3442976569206292  0.1360526364267389
  0.7815915581758278  0.1230987267277243  0.9840723402741018
  0.5939497510935577  0.5813047784541093  0.1315526559708381
  0.0970888260809943  0.4186160126675291  0.1575257193983211
  0.7363194332307893  0.7839639974719104  0.5262065303668773
  0.7685455319481528  0.9802618651285498  0.9585432287888168
  0.8860631791159840  0.1956113870160405  0.1637778577754810
  0.4939594749854660  0.5807175100925410  0.8605071866828005
  0.4170869702482615  0.9839548439466177  0.3902663975047706
  0.1728464260656527  0.0126296885094138  0.3232571841632683
  0.1527591363086986  0.3376790266395571  0.2109950580427206
  0.1124903310343182  0.9928340764174334  0.0910560924920847
  0.4054826135810992  0.7783283199472367  0.9964921967183262
  0.2298232913456965  0.1463427107068380  0.2533351991729995
  0.0876184671578443  0.9231383455035818  0.0689065279662042
  0.1559525143879101  0.9603557246388078  0.8232545734823534
  0.9920397391627445  0.4333055193387390  0.4743953697121112
  0.2557684215340559  0.4727273708616345  0.9858948328888186
  0.4537597816453142  0.3640086152940497  0.6167465934827177
  0.9253361101139111  0.6578678068135170  0.0064136619719268
  0.2890218447502587  0.4913438747681668  0.9207755852417754
  0.0588297317143496  0.5913576832278584  0.9218661228010503
  0.2998176482079408  0.1003756690932905  0.0766066486950738
  0.2262349682748034  0.1478276436207242  0.2253665975677574
  0.3440417509309052  0.1225847817067361  0.3763410484698132
  0.3173995400052867  0.3038491419322382  0.9283544345931378
  0.0433842949243026  0.6706874525587190  0.2929530175745844
  0.5268683905477332  0.4072785256745422  0.0088398604282577
  0.6849519352397845  0.8550632458784084  0.0704226245001335
  0.5107085804338617  0.6399142594472543  0.6354422920611584
  0.5536510317943109  0.5305670316430969  0.3215384784041324
  0.5055157079153860  0.3946696128033310  0.3289718522042742
  0.4801780070111565  0.8594931741119677  0.4386297635467496
  0.4334534626454732  0.0330744444722133  0.7618997336862788
  0.9600836735760344  0.3206891763971026  0.6991188006087948
  0.1841493543745857  0.2066638523226321  0.4794226873173684
  0.5469069155305221  0.0790994901423739  0.4477822399121871
  0.6456990915012065  0.5102895200816897  0.6342135156529008
  0.7023396449667468  0.3197241999045187  0.3565684460306090
  0.3444170975147926  0.0786496177514418  0.2629598387953413
  0.8539949987957028  0.3908167200750027  0.7990615303819854
  0.5948458381640328  0.3704487100029195  0.6101165417287121
  0.6266179525566481  0.4665405330306387  0.2500319081367485
  0.3093599445170339  0.2416782763567954  0.8752898574708461
  0.3791420093370864  0.1067217669368697  0.6638600602026786
  0.3008280585099577  0.9501075418231968  0.6270851094313711
  0.7928509721829211  0.3297723150842508  0.1631645405471695
  0.1851249065462273  0.5891766653623045  0.5152210380072016
  0.4738567401016289  0.8340784080562591  0.0518313158023923
  0.9922549144382028  0.5594917066756760  0.4239307887973542
  0.6431617816203969  0.8936903766960853  0.8554605718729323
  0.4365885649712323  0.1033207993732936  0.7704595519950167
  0.3605108707727334  0.8334881354005163  0.0561965701458607
  0.6410361851887684  0.3082685949946179  0.9687187295523567
  0.0960586369908543  0.3855414012506264  0.9091408819313389
  0.4491891901859114  0.5426947280173630  0.2542914819774622
  0.7251112067835418  0.4366087780608550  0.7454110709687838
  0.4015587426972667  0.2509397841295261  0.7921441949764098
  0.8799583482562313  0.5176857341010612  0.7003442422420528
  0.9405568936563488  0.7556056052381936  0.6403513834755745
  0.6482590857845050  0.7957969654283583  0.2124925503799687
  0.0403990242378510  0.5413858987277219  0.5585534911396268
  0.5640091080210896  0.8190749278354703  0.1970042181551556
  0.2351420694021352  0.6360938921673481  0.8027926205440292
  0.5798571942787530  0.0173004196097175  0.2364017488154851
  0.9262129178010565  0.8413715650096751  0.4637412225203183
  0.9497223215488535  0.3104954283516922  0.4799247312805504
  0.4819118981473915  0.0345665731156230  0.0899946049514447
  0.4520037562684358  0.5215136441586071  0.4032280406543764
  0.9865811027694100  0.6701599465092962  0.2433477324233572
  0.5491892174075643  0.6880703549868353  0.1712944772994039
  0.0942938420706790  0.0981580292952522  0.7757572970063377
  0.8959183746575015  0.7418012500405828  0.6288242547158810
  0.2742452386239573  0.7712416099780394  0.8207573480661418
  0.7697259805557116  0.4951029246104994  0.0903009036343566
  0.5388751281397839  0.6361092090588654  0.0513024870226078
  0.5886709837335030  0.2898665734585589  0.6539692438099549
  0.5016479035197192  0.1785724720081834  0.4505820440537657
  0.5817977748003000  0.6519899671684843  0.4512043282996608
  0.7755215516101063  0.7784892443223914  0.0506763074629105
  0.7728684486183275  0.7336999080192231  0.7408109652963659
  0.4686511560298470  0.6462597027702530  0.8156178685904456
  0.3933329129807039  0.3106010479994056  0.9782406945788081
  0.8461670802534023  0.1393806972750252  0.7473345727959626
  0.0017597821375058  0.2749376402719274  0.2525664874419146
  0.4904536814919181  0.5210714098138739  0.4345487063843122
  0.7188158627505912  0.7167145502629326  0.5281225089095916
  0.4910491099930350  0.1797125504632406  0.8326860186066485
  0.0875180503939450  0.6099795325072400  0.1883016752841647
  0.4230081983924280  0.3955912563255266  0.8382953205837204
  0.4967388790076436  0.6547279836800847  0.4650641522123877
  0.5587071029038061  0.7843766760650275  0.5460457441350727
  0.1325728338931398  0.5208660030819006  0.8248441949911839
  0.8420581090083681  0.2610919515815560  0.1312930693892237
  0.3445378816923609  0.9128559096965311  0.3910854394878648
  0.4308375818190814  0.3146224873622944  0.7649120716160170
  0.3929050382300762  0.0271955896385860  0.1839101275224292
  0.6136515816468359  0.6732230718714701  0.7629365901859727
  0.3602343946794468  0.1623088751522469  0.1228867074456977
  0.6173526368766535  0.7853607355757809  0.0296081391244999
  0.3981368008968304  0.3912604614876186  0.8889800166891753
  0.0312211906325581  0.3087876715351551  0.3787006643154976
  0.4511809411641194  0.5923154715525085  0.3373166316354597
  0.3792726596578646  0.4037286135383146  0.2518480718936232
  0.5030524915602778  0.6319351262905135  0.0069862845641511
  0.3267218037088643  0.1918058096335040  0.4479140677363955
  0.8975443919518126  0.3216530390565524  0.7568800175242751
  0.5365339144871372  0.5184988799396593  0.7647394048224908
  0.7951641521753917  0.0871180221854518  0.4139530698515574
  0.3522075005332130  0.7817753181757279  0.4078563215682134
  0.2530792996208686  0.5788557471216060  0.5432536456484663
  0.1773780345101578  0.1726924327971157  0.7972039705239119
  0.3492046776984504  0.9081868247850493  0.4365962902992969
  0.1018223788815726  0.9143731531718716  0.9389960623501810
  0.1804703708244394  0.7742838156682241  0.7985019876029875
  0.5046328584075138  0.5053848398116036  0.6105893042029992
  0.9823327469919076  0.7243526890051880  0.1190935333526204
  0.8260791354080596  0.8561206660715577  0.0686921412135226
  0.6133323454274868  0.9780934350661941  0.0911217264353984
  0.2915253280062279  0.1777664548920666  0.9775729720194701
  0.1556131894283376  0.7916490322598381  0.0101632706966762
  0.9495797615909968  0.6630061689829742  0.6559164718397912
  0.4240009037257185  0.4143510075724178  0.1800726033267411
  0.0326720161282675  0.7946815782107111  0.1006003788670620
  0.7011163921332836  0.2088726157321684  0.5286564276302080
  0.1598091387358427  0.5768038905780948  0.3894590492789621
  0.8263328555636840  0.8496341987221467  0.9200306538232786
  0.1343584230004093  0.9647836814371580  0.8930956440852336
  0.6864964014863911  0.1685325368150957  0.8609324426418419
  0.8731583413958138  0.9139545993398704  0.8302308105538049
  0.8439959223374996  0.9758229278211801  0.8872034513813509
  0.2508763835497407  0.1031456738591329  0.5463840714881113
  0.5154962443417902  0.2040518006119760  0.6092958063051883
  0.9473483941612297  0.3700154125184866  0.9438555590068335
  0.4339111060116994  0.2774725579037916  0.2271760156199151
  0.5625890865712533  0.2832058944203141  0.6026473311217522
  0.4934835265470262  0.7816777140556245  0.5836666094844093
  0.5604116478811076  0.0315108295360705  0.1540229557091905
  0.6690179886772388  0.1656503649183334  0.7247994098802010
  0.7133379238838116  0.6579221275636852  0.9923784771983493
  0.4409583168721400  0.7742885279999144  0.0323237656490433
  0.6468466670133811  0.3897301335742440  0.8302181127566906
  0.8205388140105678  0.5147607403820285  0.5405559369261105
  0.6995756715959750  0.0506231882686782  0.2005463502259268
  0.0530252089624423  0.9771896493294145  0.0004362495678907
  0.0714737973686943  0.2524583072977312  0.6572302288965397
  0.7224252270602373  0.5930048307041942  0.0613058450573224
  0.3955647045754908  0.6576501741744286  0.3833030365927983
  0.5530834645385045  0.6692284249656424  0.2595070199752679
  0.9783809525552127  0.6240909437084067  0.5147890283271571
  0.2591105555568122  0.3109906152870161  0.8830320566872649
  0.7840198710444268  0.6530382655887453  0.0590229548891545
  0.8870707922471212  0.6473679989919692  0.9131129657011164
  0.3850091716712291  0.6888614050942047  0.1283035750690480
  0.1930793778042576  0.7801076722391933  0.4054372248799855
  0.0712482611890004  0.2882734419020126  0.1439996627743091
  0.8192474429521902  0.3240924589367481  0.8584038274535022
  0.3913895074292267  0.3947715791767882  0.3248089527693372
  0.8071524177603149  0.9270956812305252  0.0685078564166139
  0.0507055663249719  0.6409824297029908  0.8446286455011804
  0.3187542142416109  0.1712995048816776  0.9728916212878638
  0.1189979748073133  0.4174271708375742  0.5422805526921420
  0.5340451126814020  0.5392418812859671  0.2687222478279602
  0.0935118040772314  0.9176008186078204  0.5287518615157174
  0.7385742138713218  0.9822234384530161  0.4891897943795880
  0.5475591349066141  0.6613451478616494  0.3339087320743070
  0.8062272711678105  0.9767871101873544  0.8129440423883252
  0.2398673993190076  0.7821154275101696  0.3886120124208851
  0.8568324804368238  0.8699993803891694  0.7086839333356636
  0.9094699127525797  0.1092587126208942  0.2250476716310485
  0.6096065377682458  0.4507158788820829  0.4483092145250066
  0.9169176330486086  0.9210316109440625  0.9138708113564510
  0.1192641151121826  0.3940333146402047  0.6376848460815515
  0.8475103494421541  0.3231094077638437  0.0253582880367376
  0.0811087520739400  0.7445508978674025  0.2688846597875479
  0.5321295836259359  0.3016567641740082  0.4585396969905404
  0.7140050916113537  0.2550571708894415  0.0584102531112050
  0.5238701244167617  0.4526129279923023  0.9138834309947764
  0.0067879515699532  0.1145719749137172  0.0301934181898839
  0.0382145189773001  0.8185126831415193  0.3104465237534043
  0.8601422570625615  0.0470988530844802  0.8920264679242292
  0.9299991032791083  0.3807303590551996  0.4551911019136379
  0.6501750658264008  0.4410625489168056  0.5237248886107606
  0.7832622217264037  0.8559352874285001  0.9941179351180154
  0.3175299328971676  0.5395121764422834  0.2580293659419396
  0.9590914730321779  0.5837283794032987  0.3458918853030006
  0.1892966393370266  0.1911498625696137  0.9686124235788824
  0.9395122592026250  0.2009762006069309  0.1795699266781821
  0.4665055110184761  0.6514261875862939  0.8903780730100999
  0.7691219230942834  0.6877652843907700  0.3409396241840957
  0.4713915478724114  0.3657110536959282  0.6903712949905314
  0.7351516987473193  0.7380963083493959  0.3484734420485326
  0.4422051762202893  0.1854793696875543  0.8327024960826388
  0.0851012778877794  0.7772878613906393  0.7752556097678851
  0.3915258376408692  0.9991089567673336  0.2807409292364586
  0.3031166073498718  0.2486629440877716  0.0086473057500825
  0.2500820604434994  0.8120058282057002  0.6287652027446415
  0.8184753702715289  0.3335090731269674  0.7300217717415127
  0.3907325455291711  0.3803439336371753  0.7425243181804871
  0.2030065621491206  0.1706048352810669  0.6684558110276960
  0.0640600656099874  0.6105170152488437  0.2594214601501093
  0.7037273591999562  0.9710425192948859  0.9476111268983528
  0.1168869601240516  0.6319229684327150  0.7941077381524436
  0.1398990655647610  0.6706420403739440  0.2763881340051872
  0.8552455224019295  0.7574873990636105  0.2666724053243790
  0.9615498584380291  0.5318549660412079  0.2203823695041284
  0.9494375092753981  0.6090348519239471  0.2760660175866276
  0.9636340463644493  0.1652859478329449  0.8791036877294282
  0.3686711445335853  0.2192910230798714  0.2034269044210298
  0.3842982802307682  0.2499697498543953  0.9843219533934182
  0.5174017700448080  0.7313420953701508  0.3077702465718219
  0.0803910292854078  0.5315850857785747  0.1165142003248406
  0.2322686368075685  0.1205067435324950  0.4398139172986705
  0.0937580001637219  0.1466444621277047  0.3296220511622914
  0.8672928788503499  0.1194520198192826  0.5410072337904084
  0.4390377353509392  0.1809421443324189  0.8062378499452781
  0.6424764120335141  0.0753484976613266  0.4374791298949763
  0.5024897555891193  0.2177242011943518  0.0031278102657894
  0.0730261224338044  0.7342529437522989  0.1659298544175804
  0.3583094939331606  0.3814905000859001  0.9152893873656104
  0.4759770877729098  0.8263417250736713  0.1003437935829473
  0.7290326160086158  0.0443087135951627  0.8958907186180386
  0.5723611892681086  0.4575038678844651  0.3602598134911687
  0.3337847582036398  0.0865811221443366  0.9623165467417379
  0.4826586267799820  0.6386729893916030  0.6399656738597241
  0.4572978031502201  0.3823956412857378  0.4502345641061216
  0.5424107786151592  0.3710393002790226  0.7118618015602657
  0.3829923236755393  0.9657681618730716  0.8522506485244595
  0.9590263741067817  0.0345955724930630  0.9722605411720927
  0.1361324011331773  0.2868617642637687  0.4770851102461263
  0.8822592027246615  0.1797195486949309  0.8904900024082432
  0.5739153683935578  0.7111143263286400  0.6275723673549208
  0.6745533582974481  0.2704863338840146  0.1694107204189032
  0.3777208653882969  0.6132907593816443  0.1836221482576364
  0.9739293521873799  0.9248012018380052  0.8820112708370440
  0.0228006647100278  0.7910414590695488  0.3791047973607787
  0.2256272066061075  0.3965272707179688  0.9635817651864109
  0.4782932371734863  0.1187746685141582  0.8886619545072889
  0.5546948520689872  0.4169737411219404  0.1564627053564087
  0.1847782900995033  0.2372552319721282  0.7605770585112918
  0.3291007905965012  0.3001615601446603  0.8338432797229194
  0.1610749829982302  0.5320981694581095  0.6066438204744304
  0.6976592196159082  0.9777391983589410  0.1917000897752475
  0.7638656431817091  0.2703934214241921  0.5745424025517520
  0.1538029085295491  0.6629763400029813  0.0422606586519873
  0.2852078696018774  0.1627423590608661  0.6619338528789556
  0.4824971526243977  0.5962336472282129  0.2907320433962569
  0.8665248448094924  0.2265388025001252  0.3850872494375209
  0.5716970715755171  0.1573605045734532  0.0539902435258238
  0.5404256482752222  0.6958958518407183  0.1465576245838679
  0.1454608150844399  0.7403483255192345  0.2759761289669982
  0.0839641565824679  0.1714792226604349  0.8363427336666549
  0.3608550605345853  0.5069959229882852  0.4374777571059890
  0.3858440773202576  0.9784506775703850  0.5855372719620430
  0.9054882193187408  0.0566747183903845  0.2087020174527400
  0.9273935261887676  0.1027353170470522  0.4475420118597719
  0.0617916663029414  0.8549093735708305  0.3947806006558010
  0.7228147091625334  0.4356252417905170  0.5943147584901600
  0.6227410161006689  0.3657328894410731  0.0992057434962121
  0.1729671967096555  0.9421957005546716  0.1601773094249549
  0.7339287748849594  0.2423710323005500  0.4536107011378446
  0.4003060793918471  0.5479415567542610  0.1969286193670516
  0.4055187565581995  0.0313778795479943  0.7525873885280052
  0.8287080944727997  0.1879688843981787  0.8241910059584674
  0.3258415651051273  0.1036231841811735  0.5012295866774177
  0.6756581441373021  0.3442185972149682  0.1621080335250568
  0.5026711768355712  0.9908482390008141  0.5471436707060208
  0.1960699176563394  0.5586474718651057  0.8219786713324380
  0.6409688749101248  0.3721230919938032  0.7336879780842107
  0.5420052089283781  0.0357739139393468  0.9366691830126821
  0.4611368865229574  0.9811087080786458  0.6351306509244039
  0.2553270091421118  0.6146856385099115  0.6306028802092219
  0.6666166519271099  0.3648294649363824  0.6337445909755636
  0.4088638837720960  0.1632399577511458  0.1170119297224596
  0.5176394768424111  0.4317256561943488  0.7284565878807272
  0.9013108259053707  0.9249457231194204  0.6303243964356708
  0.6829012591553788  0.7834583417456777  0.0713300680817936
  0.0813863842157445  0.3455028064273453  0.1107028372361214
  0.2592916799809223  0.0169736562596621  0.1443861511723499
  0.5896707690227193  0.0224356893031917  0.6728292782566371
  0.1550760260438163  0.7866866358053771  0.3754420600658718
  0.4506823550171202  0.1512086504497156  0.2407362108005439
  0.4242302443037769  0.9218572185484888  0.9238911408707844
  0.3678858183664830  0.1681593012972441  0.9908865902491266
  0.3480329606091832  0.6984489521178601  0.7492933402695781
  0.6037969517471413  0.7880654114358505  0.4540644730304625
  0.3212734997785818  0.6654149342463963  0.3148383723262742
  0.4149006814530498  0.6408401124587929  0.7504410940705853
  0.2373429937130129  0.2381350160733617  0.6574251949938051
  0.5553439240149152  0.5754684261055699  0.7144295302123492
  0.2664348228563253  0.9599067649153379  0.7495823093452917
  0.1835470528283927  0.6072327047258558  0.1292546158236509
  0.0138928157290627  0.9254979562945881  0.0867364271682371
  0.8379472416360930  0.6473988624674580  0.7658898160223261
  0.7355040698915549  0.1216964168440181  0.2054064601284626
  0.7438003148748537  0.7719096189126017  0.1944949180076634
  0.2647974583621462  0.4040939936644579  0.2501511183267032
  0.6515914667020382  0.4431339138239166  0.0608012082264153
  0.5864877555614272  0.7984803748478970  0.9185790126382055
  0.6329318190928699  0.5778294813834284  0.5465299578739923
  0.9764725060694908  0.2634473844675472  0.6204403217395211
  0.9982302639423978  0.8477895077800830  0.9706097473843609
  0.2797460044263645  0.9438530532490386  0.2641326976002079
  0.2553573435615851  0.9458280591501625  0.2780532248391019
  0.8157733371115774  0.3971384605668867  0.8273331095228259
  0.2012574935500056  0.1137915169959066  0.4908869944473042
  0.1643878480659592  0.4605354381330875  0.8601235272321093
  0.2266250960975558  0.5184289637412915  0.2896364676011950
  0.9023301175169903  0.3089420111702833  0.9147926141105108
  0.4745911987596990  0.3803974894045447  0.7376821286854319
  0.9842037234521970  0.1175727168804293  0.0465749927447926
  0.5556189126454250  0.5860619341113733  0.4436080234854090
  0.0569278216769258  0.5953094588323929  0.3423690883137919
  0.9111139552718821  0.8505494353236069  0.1158538932309198
  0.4992818155942997  0.4760361578317172  0.2273231585586356
  0.0143169774726033  0.3525732160097242  0.0337137229157574
  0.2885974889436678  0.2135412749422387  0.2828833157544257
  0.7500793682130222  0.9290858716898847  0.6295075809760290
  0.5304929060299968  0.8364180403570574  0.0497602026849801
  0.5271085540278188  0.9765505849827943  0.8988992648444718
  0.1130296977540110  0.7916394375573373  0.5396092195549854
  0.7030100250607338  0.1957202207665926  0.2406974240004568
  0.1339617114392963  0.3309633849961777  0.2569414497082053
  0.2830378498336730  0.5634567620813045  0.6835943047130998
  0.8691485790897496  0.0144110510210007  0.3630655015867132
  0.4924856912082555  0.3465719342702184  0.1659317540769688
  0.9090572210438064  0.4062452412656550  0.6226918960858000
  0.7576057478596946  0.8284234011236760  0.4295512995464054
  0.9230938573108594  0.7706227042942491  0.8261532625205890
  0.9376691150316934  0.4921184233227938  0.4393704062522057
  0.3758866938138771  0.9754463001253497  0.0372405785505967
  0.3624948036233879  0.1967954252886241  0.3807853455982829
  0.2843762008195396  0.0909634451032468  0.9685605882691659
  0.2840743904383353  0.2725497331540734  0.3214593215874618
  0.2004445746237033  0.9342019888268126  0.3588498068918044
  0.5168947926414736  0.5246066603947674  0.3644531207031916
  0.2261330531512492  0.0888966091510583  0.2389567836785973
  0.6630888037718859  0.9459154721343479  0.2751013277021626
  0.9290747424527120  0.1100321146206010  0.9958198948555781
  0.2437042612747527  0.4017459989572384  0.5622939583522859
  0.5380573821825017  0.9689425546475582  0.7835024782811697
  0.2838928164187157  0.9412829077493722  0.1774713441533381
  0.2803697079496759  0.2949414080571447  0.6316681083493432
  0.4265058619907621  0.7183902739298832  0.4942534658421140
  0.4615748229214772  0.6711847008582950  0.2568144817574189
  0.3067666390004760  0.7839575486115369  0.4999716610489850
  0.8058539717468454  0.7817470153836241  0.7883003276939720
  0.7167897163141419  0.1199931460282227  0.2516736074479488
  0.3386481312261342  0.1656913546731450  0.7271604406003744
  0.2580908024950813  0.6977007101493109  0.7376497909874776
  0.6743795044121579  0.2260580354122869  0.7882973716884883
  0.8002929485611279  0.5989845890202514  0.5999820101991384
  0.2905728753454644  0.3062791427624932  0.9205012158270430
  0.0652941504438264  0.9526873695161238  0.2577232700710650
  0.4344676074192391  0.8229180338563634  0.1264553992758402
  0.8735799450521153  0.3827898649886422  0.4079715997698571
  0.1171037621839411  0.0990619927260639  0.7589527866059795
  0.2261237152352549  0.1747028066658115  0.6140513798293971
  0.5671950104593493  0.4641216999278102  0.0073975458112384
  0.5955181649021347  0.0820162117161708  0.2278444195635679
  0.6970508023209508  0.8518461801460976  0.5055369576237466
  0.4663766201135324  0.4110331751026395  0.2046608553419372
  0.3339313926985966  0.9767993652111858  0.4662349828968818
  0.0496266970342878  0.4008816094016130  0.6160124399608248
  0.7311342655469307  0.8820871060246271  0.4344744194614213
  0.5218503825777248  0.1545313636414678  0.2186188527059335
  0.0695558570927390  0.9614687367998417  0.7370132137035429
  0.0348567033014156  0.5917712973153019  0.9371302497256119
  0.1759170840785403  0.4264479756466801  0.4932870404317176
  0.0336241709529726  0.2672398120109608  0.5551339459189046
  0.5012565133194203  0.1394525760427859  0.6219498645587844
  0.7103253061116805  0.6685788850141224  0.7241519484838722
  0.0391873183841945  0.6642161847617019  0.1041810103540651
  0.1973402714326968  0.1772650556080295  0.6192035931754949
  0.1820955356764110  0.9021457279060487  0.7322933367011463
  0.6973701272875075  0.5758657851374650  0.4022616072276939
  0.6072407508279729  0.2215964197923155  0.7566534231703715
  0.2646972816817990  0.7168266230930431  0.0436305872279878
  0.8388876509361074  0.8317428343269473  0.3235788837349529
  0.9306657249463969  0.7528471723619585  0.6986123136190657
  0.2149774406231343  0.6651572884042863  0.9817491023345443
  0.5768274229701258  0.0961986107031484  0.0875774548178786
  0.6433048911120576  0.6468753689058377  0.5638730444571659
  0.0074421581845491  0.9207126409079301  0.0008602367232034
  0.3502698668632619  0.5696368301247928  0.5743871631641139
  0.7372371703642068  0.1801604015101119  0.8813822348742174
  0.4710413496237683  0.9757343263030230  0.0430368165107835
  0.8912753614564460  0.0175077639105246  0.7093481627983522
  0.6507033310312714  0.8574714810991390  0.4347912110619676
  0.2168855465095562  0.2761443633471928  0.2832371005110537
  0.3107785737444345  0.8366794797895141  0.5090245931782374
  0.8179223702340740  0.6662122346080351  0.5858057995083111
  0.7483939226223780  0.0738639533868707  0.2855445824403661
  0.1843374285269128  0.9503396377700684  0.2592601203687818
  0.7721306255026166  0.4298461325944324  0.5926576879504454
  0.8172608867171426  0.1630820477231673  0.4297777476030885
  0.0744718460369982  0.7251046521931042  0.5023839619307081
  0.8660869810128610  0.0001569559298836  0.6415471708626357
  0.1911398115649651  0.5035164262443117  0.1828689554551365
  0.2671890843651774  0.1344641121911554  0.3454714471318795
  0.0302801382633549  0.4506209683815334  0.9369494604302384
  0.5262528885111415  0.8513424210058222  0.9532132863645477
  0.3773169994661691  0.4783881851675578  0.0698460725649727
  0.0846669993938285  0.6048821353063086  0.0477931535862391
  0.6540845316914710  0.5795868645469793  0.4245529568071014
  0.3390585686038787  0.5377130257110956  0.0377630730615461
  0.3660528061255269  0.8515526166043020  0.4382078523830655
  0.6016480026116228  0.7998205463905255  0.3035060493381249
  0.7496602658942526  0.5178778294717351  0.7022539600653565
  0.4647915940523871  0.9147244719778551  0.6215514631580342
  0.0883979572523510  0.3292928696215286  0.6134606937790674
  0.3076417452623442  0.7400178532599508  0.1228099715474164
  0.6471359153919490  0.3132808502872227  0.3659296464442575
  0.6921545806269207  0.6684963440598986  0.7021584480210580
  0.9095108679311410  0.6354781551175508  0.3942198333891079
  0.3989272843801964  0.3999762331514896  0.9872700868840539
  0.0284917676280714  0.8420305792421144  0.8751175293654059
  0.2946628596321924  0.2341148369781366  0.6561559463613169
  0.4095025018850048  0.6444471783201765  0.5532685421249244
  0.6985293825402645  0.7232717676982530  0.0853792264504237
  0.2051131386780916  0.1122139795644899  0.8762626798775160
  0.2240110788692595  0.1013176859959884  0.5344230692618650
  0.3226335553834520  0.7018845303762083  0.8819477437741133
  0.9011245873800896  0.0775234959874304  0.7197526948667571
  0.9949302470857208  0.2999049986035695  0.0005386006024270
  0.0423906656522677  0.3505956271744394  0.4918786150447780
  0.9872372186559286  0.3562054129267556  0.0239252348153664
  0.3962297516569721  0.0464991667401007  0.5938410821592625
  0.3226864355677866  0.2354259890093977  0.6601399984461777
  0.9092647668434272  0.4458059881614069  0.9080721787312118
  0.1362150266663067  0.6062202285967053  0.1878238839932269
  0.6424307335825377  0.0747157683816829  0.2229783876297074
  0.1342543174471247  0.1456287717616909  0.3515599767179435
  0.7285709719947827  0.5709568121536638  0.3543569891879027
  0.8011209419393046  0.5279365492142967  0.9868355440576155
  0.8298946119817620  0.1198225738129552  0.9779805580799703
  0.0743890853396555  0.6619842871684377  0.3304054206724317
  0.6652585311193266  0.1737394698258106  0.0387511963538203
  0.7808737648763165  0.7121250693823362  0.1449860942294110
  0.3720659563716438  0.7823768350529779  0.9590438739100819
  0.4530760618091576  0.9134923640900501  0.9915249631811381
  0.2650998695052671  0.8535542353502193  0.9215116406275352
  0.1603837562524468  0.0789737800406212  0.1280050251286461
  0.8164362386058576  0.2377137586290705  0.2980319500416915
  0.0176692246989382  0.5305768672380686  0.2306061844237343
  0.1422119118671761  0.9336490805577927  0.1226712415005056
  0.7368260846282857  0.5727169762230494  0.4295525841562461
  0.5461530612662285  0.7245946644042512  0.4027137117328119
  0.9471216778797096  0.7147402591692500  0.9032066778763026
  0.6203474107886664  0.0012876394610010  0.6082682466932492
  0.5309986556800058  0.2095629794107199  0.2477540283477734
  0.9061571499652398  0.9565664941613197  0.4000257588305875
  0.8006287585518558  0.7766343840996170  0.0059615932394853
  0.7077156786041555  0.1726400109213932  0.8420260780698929
  0.0677144843311599  0.4442390696026908  0.8291778613598515
  0.8826784205852384  0.8517212720541697  0.5385359250270192
  0.4114427118662662  0.7026757478577116  0.0337174757400750
  0.8741852081360278  0.6566456432861160  0.6498789719266949
  0.5125405537693271  0.3838069609494301  0.4557510615395107
  0.9752384997853103  0.3456179681788931  0.0726061277517302
  0.4724307136840578  0.3389589569338042  0.2178223144418730
  0.0479136278501223  0.6647481779085836  0.3205236406381658
  0.0017907430577150  0.8395557552499739  0.3930025042373398
  0.6097675345838085  0.8177276343453247  0.8464742971663161
  0.3992353615643098  0.1184844553635500  0.8592334248812621
  0.3868885813028650  0.8429210061140907  0.0072318543088619
  0.4966386761095790  0.9899052129910024  0.5189568437495187
  0.6728204917576182  0.1725704309346680  0.9353623480189437
  0.4535124504825346  0.3746601749276130  0.5718334068986278
  0.3393003394930546  0.8271606361033255  0.7210047886470832
  0.3191403231655849  0.7260563063212802  0.5289050507381965
  0.7161012774026991  0.5858654281015842  0.5503474676078745
  0.8455940695701963  0.3812829352244098  0.4086606236053202
  0.3826857895967540  0.6501288544839035  0.9042599777827710
  0.1959004924400282  0.9380003384701963  0.1424398476207032
  0.2146604224390573  0.8492398014743094  0.4803043124457101
  0.0921089595225859  0.7168710893683000  0.4216527406663719
  0.7442636333307643  0.4291951373723670  0.6893948652551357
  0.3018070828644989  0.8942748543399017  0.7084513969097201
  0.6926378396870548  0.8092302510082505  0.2723935485204475
  0.7550989861957755  0.5291565061878785  0.0026072496838513
  0.1345229653476838  0.2508610968110685  0.8791819467220602
  0.4225462973745989  0.1766163474996064  0.7114819638739521
  0.3527922543420687  0.3817347437456387  0.8175559800989635
  0.7246333957717674  0.9655096425225543  0.2347182646132125
  0.5189813035072708  0.9201323304074046  0.4883631810143128
  0.6452949343718698  0.0202820405841932  0.2032927919552950
  0.0999858659924264  0.2440751805769368  0.9454478759918507
  0.9825669353524780  0.8477757199776683  0.0430371708306272
  0.6571823332441321  0.0322780507157811  0.9661934471349454
  0.9045102957838311  0.0557126024121348  0.1337613910840208
  0.4934136517211521  0.4634515143433569  0.3298366531522536
  0.8520374715551911  0.0736210210581823  0.7337932619812126
  0.5317466194860104  0.7751991917137112  0.6926677765713019
  0.7621020501304339  0.2458624267262161  0.2872318423133716
  0.4785280001410352  0.4011237113829179  0.2785212096068990
  0.6531564696291217  0.6698215931037619  0.7328506509526203
  0.6509754790068342  0.1588605914576898  0.3817535325875405
  0.9107297066128094  0.1918610382169451  0.0904292161167219
  0.2565580860664309  0.0533518011806759  0.0185532581534471
  0.1334853681625529  0.9031876299023226  0.7364456686669886
  0.0075766768350072  0.3299813833227992  0.2403965727847351
  0.7514158579576615  0.8640758557127501  0.6046527654046487
  0.8548900583500182  0.6585905746067245  0.6285658958284762
  0.7166346697145762  0.9692500079580361  0.9047595607461335
  0.2050306080791286  0.4708540360925344  0.9117820638125634
  0.0835452592819318  0.7705601041223634  0.6724219106399320
  0.1487117116715380  0.6987754402823231  0.6820403636935093
  0.0248883000960587  0.2207051236845580  0.8176012821355435
  0.5670403434709462  0.2685612362857075  0.0255134731140377
  0.6770397139405869  0.4502899659652261  0.8662981477222831
  0.4315878441351490  0.8326724372773101  0.8134317852971815
  0.5378803910374573  0.9233086186293179  0.4157525757660054
  0.4351668901198058  0.3340196012242191  0.2475303118405643
  0.6835921396140445  0.8579965512334534  0.9720723408202595
  0.1712869271876175  0.3424033472784955  0.3824854916511252
  0.7042097529576576  0.6561469454935497  0.0182737279739956
  0.0281624899707799  0.4726871119287800  0.1187962978827247
  0.9173910920563347  0.1050342710088061  0.4731254617400948
  0.4176884122252002  0.7238235167271276  0.4192252308859271
  0.4550756321106684  0.1097770762809727  0.7268220030234026
  0.3352976030078460  0.6742448904719470  0.6066434837904161
  0.8587839014585353  0.7374666241140819  0.5985125788712331
  0.1997378931739416  0.4897169276626381  0.1622439981536850
  0.3567839953660061  0.5733460634291526  0.9201550485462408
  0.8728663483514234  0.6750840603986099  0.1446109017804604
  0.1876741274631685  0.4940618457730347  0.7585659927874401
  0.3248080872617411  0.5601164712311073  0.6615890724156411
  0.7279693027609111  0.7863837583463625  0.0453545021702108
  0.6961518864264181  0.8016288318986990  0.8258830355216769
  0.5979891941981607  0.3931103891815435  0.0322240426496791
  0.6499695210234598  0.1662433811701886  0.0857531014227609
  0.9717448083078698  0.7114589302568397  0.4031531565181743
  0.3510009509534828  0.6401943213273742  0.7114694023537007
  0.1564200741622779  0.1134697827492468  0.8816134305763179
  0.7552013352516793  0.9888855193400736  0.5432959155248454
  0.2129669383370063  0.1184260401569183  0.9314352175773026
  0.3942246231461405  0.5704532254814818  0.5549085019020503
  0.3899536441609744  0.2063256595460403  0.2859827987298902
  0.5644579447108375  0.2853210646521727  0.0756474058769845
  0.9019924066428231  0.2423568882139555  0.9753295021383951
  0.7755237781431620  0.0485524163347284  0.9103326431387281
  0.5770522210893452  0.5118550613416243  0.5231466919341080
  0.4289819414895262  0.5846195801148923  0.4594264805989599
  0.1754087017105684  0.6582000654126361  0.3412791940614731
  0.8829128627735546  0.4015094688042073  0.2867697194547538
  0.2932171343044749  0.8174428322412856  0.6487517778953524
  0.5350692000286450  0.4603419123301890  0.9711946396639427
  0.5819888151996718  0.5081090485874253  0.1125251843552462
  0.1465856448463677  0.9608831980150482  0.7967223420372458
  0.3459748151497671  0.9684586148858872  0.7077230030893593
  0.8701474196710647  0.8441455700419551  0.8963281072260274
  0.4485464210895440  0.1185502565524646  0.4523035615252362
  0.5730435066447981  0.0976670888384254  0.0592343467573652
  0.7287116014666163  0.0531472013288107  0.1963182561401520
  0.0866233290186799  0.4423178720300002  0.7745683715601412
  0.5929095575929553  0.9163191094268646  0.0104200539630157
  0.0495995520588490  0.6199035294796943  0.6289886426899817
  0.9685387684044551  0.3525191171995456  0.0453969391861540
  0.9375735662222693  0.3786935979802002  0.7925570757938505
  0.8309315546432640  0.7175448380327974  0.8435953321999238
  0.5053334515756668  0.2820019026846418  0.5991121810357296
  0.1319218564976504  0.5037595692732850  0.7490639782929133
  0.3408773413064561  0.9757157399182960  0.4933112436033954
  0.3060925421732220  0.4051665969108338  0.3234077360276345
  0.7086604388426563  0.5269610149218430  0.0197921241599468
  0.3494578443759545  0.5379400863307794  0.0644188895847241
  0.4433288117229219  0.8433037005564032  0.0050803346959050
  0.5442362681067799  0.0869479214325337  0.6584582658024085
  0.8192600638977492  0.6470514345410920  0.8134914745631624
  0.1475921595519170  0.2377975099562593  0.6970513002311015
  0.4939554776171654  0.7071948208415311  0.6539732559611265
  0.5319119202489312  0.5294049386266813  0.9629834315991830
  0.4664510460471128  0.4003334600350578  0.8611758792127514
  0.8885076999530565  0.9197528311874015  0.9635563936410403
  0.3907384610884444  0.7690027558494774  0.7339687184422867
  0.7908602067757995  0.1923342634989678  0.1886806359887836
  0.4516020092292444  0.8581541937291455  0.3897405932697154
  0.5398400561938703  0.7615166013536070  0.1821858083589818
  0.0766307378248425  0.5240266501625843  0.6646168376878961
  0.2752003212905831  0.2109872838386418  0.3297498968964011
  0.6325370424568764  0.7838231355100490  0.1596622317822727
  0.6786105222855537  0.3718146288020379  0.4612164751900013
  0.2806624573938026  0.9963786483032803  0.3527315048193245
  0.3740468596162149  0.6067617493819472  0.2328466441893950
  0.3937971266134806  0.1991438399235265  0.5204171846090352
  0.8402799630907966  0.4138266144251463  0.6519740783894974
  0.0240694545971983  0.3663996340585550  0.8370047766873214
  0.5509646494626372  0.6490108245258762  0.5301881154397040
  0.2530634683819321  0.6954141065551228  0.8140241888367987
  0.2216673275481516  0.5159875137993997  0.4897811497898033
  0.7493364486915117  0.7935474156835778  0.6286021635106699
  0.2930044551329656  0.6083013716679323  0.1772981571028468
  0.8977915637974978  0.3305960915946768  0.1732002218505234
  0.2703332861180101  0.9155436251223338  0.4031099808014709
  0.2419152153260743  0.6735715758729224  0.9845071696827669
  0.8886434766263008  0.7675198145778339  0.9971647029963688
  0.4451920253020669  0.0503796577117821  0.9637442432803587
  0.8323228709277920  0.7272141174792158  0.0180078468843249
  0.1024010058391780  0.3461433605799308  0.0912997216542667
  0.6694676568331585  0.5093322122860650  0.4884499132213073
  0.6856897659838580  0.1796451203014211  0.0201739341933226
  0.5032301264043016  0.4563250282546847  0.9336606508147495
  0.2113061481665306  0.2391735023215970  0.7502429655484703
  0.9225971108117826  0.4063862182496718  0.5976789111742277
  0.8915012602963511  0.5163432092213750  0.8795408859506230
  0.2246610242350260  0.8467742244193271  0.9507566413924284
  0.8440457669953884  0.4986313724124348  0.3952223340908327
  0.4480905034930966  0.3348144922516933  0.0258473558372719
  0.2956889861632958  0.9069127444193890  0.4448858916294801
  0.7824253888339595  0.9683312528411001  0.4777267037210613
  0.5892689720680883  0.5064790166857468  0.6247091343499156
  0.6622165692821887  0.7305881607125041  0.6738273078748134
  0.9323291923033581  0.2344013946812212  0.9355883211106780
  0.0985893202448717  0.8559918686339161  0.5215290194362924
  0.9947163985323745  0.9173773784344573  0.8356411342824398
  0.4561789535709348  0.6348299839034732  0.9906893294899773
  0.9374097690948802  0.4848143583770638  0.5374323349499718
  0.3761783760485037  0.1539222586256585  0.2354534762848649
  0.5814454463385311  0.2838454225667069  0.1303360709308232
  0.1825980639309640  0.6018691859440619  0.0169423260896404
  0.6732234840805537  0.2283246436952972  0.1334432423262451
  0.1200175896979562  0.8109178018686997  0.2718473548618062
  0.9854305843223181  0.1480472382299851  0.2895059845089726
  0.7424131393723373  0.4851755853165156  0.2715639831578318
  0.8041633855139325  0.3703533218205610  0.4321137534822634
  0.6037984303714981  0.8698144903048851  0.2662362852936587
  0.0290873289434467  0.7246918599433160  0.1051220113116029
  0.1716815846333189  0.8105784736921560  0.2063824409518391
  0.6091881378361856  0.3087247256335899  0.3959006161029793
  0.5693255565479189  0.7007950069797168  0.7618862001913429
  0.7097494965926773  0.2997230417394029  0.4770187333935023
  0.6750478604924871  0.2161708948717249  0.6857059327414659
  0.3162031208945925  0.3867131700405619  0.0383845149961837
  0.0139205251113663  0.3366106689722355  0.7170793215847990
  0.0734840203067171  0.0284616789692859  0.9529356944028206
  0.4518174814759991  0.9163342083694995  0.4105692973073650
  0.5793683737528875  0.9938052915930925  0.4412296575466371
  0.2624905290809755  0.2680499821019782  0.4665429485664792
  0.0693802463957433  0.1046408081667700  0.9515959084652447
  0.3993138700684084  0.1838113082903263  0.9486761866964668
  0.0902091753916215  0.3811776746757510  0.8118428090993787
  0.8882929801796778  0.0477235045839467  0.8858974400610050
  0.7387006461116006  0.4413463670393961  0.7949442897083580
  0.7659262378756263  0.0495998060763093  0.9375153561159365
  0.0726113991860467  0.7872604976874844  0.9339431307068999
  0.9547237328727093  0.7155440767840877  0.9314553564919497
  0.8183207637642815  0.6475282513236927  0.3864502385150890
  0.6926491189698243  0.9263520721659931  0.4502019518503699
  0.8932795038660173  0.1423963200806525  0.7401032755388189
  0.0382435122797166  0.0962433642182940  0.7248980202190604
  0.9114108097681510  0.6020752206658831  0.0957490598242234
  0.6769997391505291  0.2944322891469982  0.7845152338168330
  0.3954665963181617  0.3153033890353608  0.3505030694827494
  0.4136345479072606  0.5227309070249797  0.3719389751240775
  0.7837952516867314  0.1236776961343648  0.1982137638939767
  0.3827484196587620  0.5728627065579082  0.7563866872640371
  0.2342602324730251  0.9875580551575012  0.9667294180247924
  0.6486856007502561  0.8628491181363259  0.3863545400921398
  0.9005427991137773  0.3299606547845187  0.6560538309013789
  0.9805343236354023  0.8956108371398163  0.3803285635902506
  0.6760276372487126  0.1752314014986994  0.3393960682630922
  0.8094286521757459  0.3372658427178852  0.6740144320402437
  0.5013170147907601  0.6272729375198396  0.0837469797433349
  0.8986871319676776  0.1919428619083808  0.1169455809268368
  0.4627900483808728  0.8412357103104154  0.6873694082937400
  0.5293981130854705  0.1490704071424138  0.2749339696940776
  0.9816923550448919  0.5664929757152887  0.3976533129190687
  0.7696550745627857  0.8585109682088211  0.0691293137826021
  0.1460783917366383  0.4048866536183948  0.8556355012631982
  0.6918791293691715  0.6943621601341170  0.1793351400807424
  0.7744640442447999  0.9172148375278121  0.1939108993028547
  0.1842130827410020  0.6034258870026120  0.0452475791431172
  0.5092023242983875  0.8965557360854841  0.1285360591887249
  0.4712131622618643  0.0367878978917130  0.7944878724413411
  0.3176549831970591  0.7364890005607699  0.2969994964871145
  0.2311714868963489  0.1690979262042886  0.6646054645820526
  0.3948979455803922  0.6990524737642083  0.7608593760736495
  0.6906970267726958  0.9851744570027008  0.0596647774294636
  0.4932253099568518  0.6448600612749780  0.9605168504404960
  0.6738370021405717  0.4633922348370833  0.3268745172139479
  0.6860193662622768  0.0006634370098793  0.3676159563873652
  0.0501724229797537  0.3580755608548466  0.2075268800185618
  0.1830596540309888  0.9597881104602347  0.8273057138652259
  0.4564624611819316  0.9739775957349844  0.8444521529351335
  0.7057718345628976  0.3769235168438603  0.4117809028308883
  0.8088192045469675  0.5981238223721558  0.0600921693279248
  0.0982004117290518  0.2403766574903199  0.6901996121961186
  0.6387777123635904  0.2794030340435152  0.1382139976942102
  0.5481432564066148  0.6403379324214858  0.0246760664208082
  0.4851834893971350  0.0418433068872149  0.8679413540952621
  0.7454905776992478  0.1646156823587783  0.3935977575666504
  0.0489529597579643  0.9015885469140468  0.6154442736621010
  0.7588108348199536  0.1186568868174952  0.5028550229482796
  0.9393754800032256  0.5864969222713096  0.9423712213950052
  0.7450021424375827  0.1865815798685571  0.9373559322269766
  0.4020211142137833  0.6057117473141687  0.2350840116727092
  0.4857547863223587  0.5375301615760220  0.9793596598925131
  0.8043482833271255  0.2066898214373836  0.6789251106792989
  0.7122592008453036  0.6446743054506255  0.4538010177891970
  0.5410795031418622  0.3525540297953023  0.1095652945802936
  0.4941897864911661  0.3108738450865324  0.8422830501398098
  0.1049028699225185  0.6728115548536497  0.5750100225785335
  0.2122938422209043  0.1002715285039199  0.7201905263745505
  0.6642243414898901  0.3141381792413844  0.9521570925788128
  0.3204202659332889  0.4545778584320810  0.3454271932247014
  0.7428240127024942  0.8786259650024058  0.3110375264470331
  0.3615628782009008  0.2233597619718467  0.1760833627007299
  0.3317308732383819  0.6062859337028046  0.0805949710555171
  0.5940818190902892  0.6725424450490168  0.8174171700895992
  0.1030471308718790  0.7035122868629369  0.8200632699623197
  0.0681476933553247  0.8497823626235113  0.0440049006911723
  0.4586597091953774  0.3157981329067525  0.7667330671893126
  0.2978795088777716  0.5695936800148326  0.7068513842900883
  0.2459872186036092  0.5286789735165254  0.6173781285227226
  0.1227991553709151  0.5275370770585950  0.5747642993620262
  0.3315660441508894  0.7810085712787488  0.8939594730585287
  0.2087547368847428  0.0345779347345563  0.6584286315969270
  0.7478038001882531  0.9053038457867615  0.9053501065114571
  0.4553432971595978  0.9208553056348097  0.3610769175371086
  0.5744728842451506  0.8510508112944277  0.6807901136589763
  0.3918109823301290  0.2957935924482721  0.5128226313532870
  0.2668339910451259  0.8813783070094650  0.5831977970350769
  0.9048248311150524  0.9664394857579510  0.7904272147228475
  0.7966816434390346  0.7326819635978732  0.6305980383724434
  0.8312275007673964  0.7917985706887536  0.6768175889934656
  0.5882462198847397  0.7517109312779334  0.7353756127185893
  0.8238657683957403  0.9144469917788023  0.8376344058553163
  0.0565054294853203  0.2227690081165001  0.7796814714424951
  0.2402590603203518  0.0324766948436170  0.7977190429560083
  0.2763634926201733  0.7685872389638931  0.7189157925983277
  0.0046603393124886  0.2140375734425880  0.2505066506336917
  0.7229044405333055  0.6041948113222859  0.7183917519462051
  0.3234938169188346  0.9261361447230704  0.3212850836018685
  0.4442637989784000  0.9849850498432022  0.3987501512791846
  0.5278055841143281  0.8482902489185509  0.6088724822710867
  0.4378359161951997  0.4110476962667224  0.2044830721538351
  0.0797881132217325  0.1249305049607243  0.0336129283393545
  0.3984854275556975  0.7851219996442181  0.3908569532904517
  0.4196094750336833  0.0349867371368777  0.7049391734018208
  0.0691067540636701  0.3057179387603766  0.8924026381596717
  0.5915278501413637  0.0229135499977415  0.8723980804752632
  0.0186332708137834  0.0376556614270790  0.4010229427305849
  0.5866214909325237  0.2205584614740395  0.8401078629833687
  0.3292264216725937  0.1690566110229134  0.0838729490652857
  0.5426972768291269  0.5437196368585112  0.2204412070397158
  0.2487073617917100  0.9615473091473542  0.6753697074465532
  0.8739367015154109  0.5473037928361231  0.5248619627146683
  0.8635214696844039  0.2409304390276438  0.2849644658632027
  0.6700352247280327  0.6724277433481946  0.1708679315199360
  0.9126188939382828  0.8819448422195147  0.6631190387277064
  0.3523261168471346  0.5919319901936615  0.3544604634083274
  0.8190046684392417  0.9768867481841500  0.8376486768485695
  0.7576677199527677  0.1869979691179598  0.8085491696715403
  0.0467849095543640  0.1532884394487802  0.3369294670636901
  0.5837923019500287  0.1532440441552101  0.2995400178643204
  0.6230225273748211  0.4198402436855737  0.3341895485871007
  0.8806869361271116  0.1379260241951777  0.6270032711670144
  0.1516454718148669  0.1450472049211951  0.3736216877588172
  0.0946490777825424  0.9657084869275095  0.6665006288380197
  0.3390448834375675  0.0273902634821679  0.6750625213607749
  0.8546508903016368  0.3213600528263615  0.7938865046898406
  0.9620104617214853  0.6460162365841254  0.9156603430069726
  0.6126137116746251  0.6520940862044566  0.9872922038172853
  0.5657651111000987  0.4100907208258547  0.2302381246657101
  0.0242530902802784  0.5323571077466022  0.1063527226509075
  0.5401614099685595  0.6222556180567339  0.1493926611042960
  0.4081246559515735  0.6992112313829228  0.7060965547623826
  0.5311522681126920  0.0371558491676883  0.9108638764035153
  0.1810353805368984  0.1448619495356094  0.2600833588776268
  0.5953399096587569  0.7856695774406209  0.5026101193970216
  0.7199811726186748  0.3538936015716417  0.6845295868521645
  0.2772726858559802  0.0192132753039971  0.2268177537675241
  0.6941998886232839  0.6471207478936128  0.4320847164900932
  0.8479539522255942  0.9125287272947501  0.5481870203974208
  0.7598168559302797  0.8122872349186051  0.3848758820189828
  0.8109986136467776  0.6478434730945037  0.8726855004036963
  0.2122532886245647  0.8991255559318359  0.8017350559733786
  0.9578933695692157  0.2275937044211747  0.7656117170305057
  0.9226961684415997  0.0496352441158888  0.0796248300965333
  0.5989276892331062  0.4202830890757102  0.1317772306214696
  0.9956418466270525  0.0706157240136599  0.1620388960639219
  0.2114753923997437  0.5703112824850232  0.7516194500436155
  0.1293615531444159  0.8337038888264662  0.8033296676202796
  0.4471053026745278  0.8418211594231186  0.6634897899537743
  0.0349193674074782  0.6018043923575762  0.0212961601313811
  0.2295734331112158  0.0201432349896389  0.2385568311264950
  0.3501542293439057  0.8217460685393386  0.1312545322964473
  0.3721998112019815  0.1146646205544814  0.4150749290445289
  0.1011825597808294  0.9612606983084478  0.8156287767516979
  0.8839042446194689  0.5785158027644172  0.8665747115953234
  0.0347384090527214  0.9648760151544922  0.7813267239724901
  0.1428673405706873  0.6262331978603514  0.8050608587449493
  0.6218414512058037  0.1601381160202523  0.9157807195665486
  0.7771470699793556  0.8708991714103229  0.6545964119781301
  0.1141367568184740  0.5343822938153143  0.6233056489992587
  0.8684171178517134  0.8695104065450143  0.7345647713961315
  0.5548234043033279  0.9109673715361336  0.1823110792620099
  0.9214393418121055  0.9154933072859918  0.8266766157761823
  0.5028414061526582  0.9151111030515768  0.9873637030767000
  0.6148122273008774  0.8455593463424032  0.0473372854348173
  0.5470277967761148  0.4733573801934349  0.2197483353869452
  0.4442811969421226  0.5203680428270516  0.4520008745800073
  0.3833066672413268  0.9876686407252209  0.3547791829256703
  0.6842765560809738  0.5892768775337067  0.6454416389467373
  0.1290620800727141  0.1769084270218803  0.8542012614310833
  0.4456994970396873  0.6841159808049033  0.1725282366310746
  0.1225357453901476  0.7234174298361438  0.0785036234292468
  0.9858998074906785  0.5936420281635016  0.9676620567935298
  0.7158019973730066  0.0592812903751424  0.4733569700773514
  0.5790001159183782  0.6480165916581020  0.5254182128041683
  0.3472155829765273  0.5316184704111943  0.3371349825934066
  0.5948569471480680  0.4075746142660144  0.2298783076538241
  0.2307825631420921  0.6544545487118568  0.5333161083365305
  0.8415231151226962  0.2044493885970938  0.6473776622127372
  0.3212493972768611  0.6106088570797796  0.1793105779798564
  0.4518440730884635  0.8577992335475333  0.4389507216119740
  0.0980129729304838  0.1087344572904966  0.4638115854711842
  0.7288059609791967  0.1240356234751580  0.1489212595949742
  0.6628653176469257  0.2129832003058838  0.1793610382961070
  0.9406774173732114  0.0360334863587867  0.9507966246232097
  0.9563423537710489  0.8196843562254982  0.3117267326530040
  0.2643059020741269  0.8785906460496459  0.5552738361228150
  0.1469533445217698  0.7761553636037296  0.8342412221912929
  0.7383814935119883  0.0689529460860967  0.6401890136014886
  0.7252920448637727  0.9224764596529899  0.1251342173345384
  0.3976962288164115  0.9945874039548495  0.3080953690976530
  0.9420006462783551  0.1437798332607909  0.7359948968694275
  0.7484861396899448  0.4330352451029822  0.5024621227238361
  0.1633131356664043  0.9016415951123988  0.8055485695886613
  0.3322283160981962  0.0411839129633317  0.0433255707500308
  0.3332110493356106  0.3339024375092344  0.2368087556993176
  0.3377078677465181  0.0911439118039699  0.1390828476682771
  0.0951240122494199  0.9399105323031223  0.1553038738496992
  0.0892432145185108  0.3095903377321574  0.8730374534389603
  0.6819081818999112  0.6475946659037299  0.5329585398928836
  0.9867990366283677  0.5888145038549643  0.9397706259700875
  0.4362777583888496  0.8943303407913771  0.1182882938108592
  0.6125977169427385  0.5236009594993020  0.8277014538590051
  0.3705308778978912  0.2555244936999172  0.4120858844380010
  0.6582140569907308  0.1336059467550344  0.4248020729166824
  0.6369671370241016  0.0414404512126735  0.0956928514300556
  0.9611351859762223  0.6228303410613442  0.4903596430690401
  0.8714591366605530  0.7162513398704632  0.9077129709570662
  0.2074010949223274  0.9495090970294862  0.2753404314704582
  0.7791456974068158  0.5115173188987365  0.7824339113579056
  0.4092596552879722  0.0934588993454567  0.1211536809923351
  0.1186906310188773  0.4615876690534522  0.2853814309783896
  0.9476935664549775  0.4426040065648974  0.8774602468800820
  0.0160390039892879  0.5328590914283186  0.1551056461260442
  0.6795462716656607  0.1755681176742814  0.1240148496032735
  0.3062661021846795  0.4207803099400153  0.4195431106973055
  0.8930539096385979  0.3869249062295181  0.7711233245294001
  0.2598212637610635  0.6019866290720947  0.0591985293900408
  0.2266937302789041  0.2060740813023929  0.0831292950419723
  0.6868734230327930  0.2312392373799216  0.8357506207174072
  0.6271028803872982  0.9610871576872495  0.1874539249766286
  0.5492550478792420  0.5860525286812898  0.0102697889013239
  0.9105707486256511  0.6043305653517957  0.0085522919780847
  0.4539762485084143  0.7057628560191370  0.8218929852507739
  0.7246871502404612  0.8881882962105315  0.2392051182002877
  0.9229578835810267  0.3110168879295851  0.3122134214202437
  0.4917499157285406  0.6652023998750611  0.2960795976009933
  0.4358025237367755  0.7308801094264550  0.3356430715953258
  0.1801701711308091  0.2776273903450098  0.2473645450652617
  0.6062255807254405  0.7137658469674382  0.5906927178754934
  0.8769016268722953  0.4577489051466658  0.7167717507172899
  0.0250473471078902  0.8502709194561004  0.0676801380063058
  0.4418098597084484  0.5117297200122584  0.7242482721771339
  0.0090632791516327  0.0041652389944328  0.2454017554201172
  0.3248062187770324  0.4735450578410295  0.0383721733225773
  0.4817850613371119  0.4707287502609385  0.2742923621906421
  0.1452095822448478  0.9891629971025676  0.0439201236563472
  0.8902375843465826  0.9844227491863347  0.1348405753777603
  0.4183573355989330  0.5507143457151245  0.1749564807033223
  0.3665996401631105  0.7223467027609111  0.5404381736757892
  0.0104497344750281  0.8156415478746920  0.3113116213039679
  0.2611581974168518  0.8953592600078581  0.7985489109334225
  0.6052369210949003  0.7844211690751751  0.5294739004253066
  0.3394016376159566  0.0255942662612107  0.1679722525971148
  0.4335515868255491  0.0304037259898407  0.1459212889909577
  0.8025202396315222  0.0809793288212585  0.3517990945147397
  0.1002547637154630  0.5330622033949930  0.1703820888716896
  0.0203598586845456  0.5105593714062594  0.7277286048950268
  0.7346136483466610  0.7236192599149814  0.5740073014289422
  0.9591878772166852  0.9194996023548666  0.0002501672891798
  0.2552559160603552  0.3109397467332329  0.8549068108402531
  0.7680979775006243  0.3993137444000214  0.0232197024408045
  0.5802639261289314  0.2238428834969843  0.7642769573042876
  0.9036922076447642  0.8338822852448556  0.7478129266297745
  0.7249506847308169  0.7391478057571369  0.7295308203141621
  0.8761831102730011  0.5738014856571307  0.3262382946506711
  0.2729895214363806  0.5327833821401204  0.0017853388182745
  0.3283239391482560  0.6992870210457286  0.7295183269323422
  0.4655589990058293  0.4847070153046590  0.1587740395119858
  0.7726514726389567  0.3287789225409996  0.0236977544614464
  0.4745135417944723  0.5721446677573933  0.6115519118571610
  0.8348202693503812  0.5145078038620996  0.7937443037914742
  0.8483078873072752  0.9240679797321838  0.0405656821016161
  0.6740958468224371  0.6460394669317101  0.4848922554081080
  0.1901014250546661  0.7309051646468253  0.1502721178272593
  0.7544926324205824  0.1242784421984081  0.1598232070229918
  0.8390650803209908  0.2281363613978420  0.3790228248236306
  0.4882447270384250  0.1945481025626804  0.9659680151425201
  0.4323953163988847  0.8283350373182240  0.0774912598899718
  0.9165599939067914  0.9621795089099112  0.4258770548728636
  0.9895132880937251  0.0505210933523299  0.4960268126110864
  0.4963102428964593  0.7362748423515750  0.2892066463672441
  0.9123804008679290  0.4009394273733254  0.6718249939312646
  0.0101142164772822  0.3320830822835774  0.5843826742568144
  0.3586096616289901  0.6037073802259666  0.2564715009503242
  0.6977686979254067  0.7827210117757041  0.4954048149474179
  0.2226123523131079  0.1737353665058363  0.8154464322968292
  0.8092354428584188  0.1516112948697390  0.3822977321950250
  0.5331106420314786  0.1697487143228874  0.7991398515008343
  0.6788022425265205  0.3957270005166659  0.9280671228845664
  0.0366612070100657  0.2274580639544030  0.8922841714802489
  0.3265146429218880  0.8271706512638595  0.7465565802096952
  0.5120773710427584  0.9307866378578423  0.2402195230868072
  0.4153736145053710  0.7937971227406000  0.2937370143591086
  0.5460624430923122  0.3891150494016740  0.7582121398923806
  0.9111570209693237  0.7860546963991741  0.1198771090817195
  0.9874693460982218  0.6398475004506592  0.7667303917538409
  0.0639398121110227  0.5336807818099076  0.2140686444060778
  0.0764284314900173  0.4227572955805239  0.4684677410157132
  0.4081126809901613  0.1286663762837248  0.9145992572826713
  0.8272639833731977  0.9607914636112299  0.4623321758712094
  0.2077102774360318  0.2175109578474978  0.1565429445721041
  0.1031115408969080  0.5253945923450758  0.5206627835731087
  0.1798418156563991  0.7045118744833799  0.9211232295232837
  0.9783735820484045  0.8822568542522522  0.2822638612575088
  0.4429495776371394  0.6405772784598424  0.7459016736876909
  0.8727591312014541  0.1239027060860476  0.1303335153388283
  0.5739214220954214  0.1496469287588177  0.5760724730755360
  0.2911620063834546  0.3193694047398391  0.5054075006161395
  0.4923764423026730  0.2831530021318634  0.5029297768198332
  0.6734582959420128  0.9934932867400651  0.5206497070064781
  0.8714873614354441  0.1136597979405763  0.9153549786222008
  0.4600138266923525  0.5100953294186991  0.7025445985326415
  0.3482414306523077  0.8299899867470083  0.0816063187309416
  0.5633920879432519  0.9948392117976876  0.5952746025297035
  0.6356489060995315  0.9803035442734412  0.1086118208828724
  0.0341728393205055  0.0317460812144383  0.9841687461342957
  0.4919052085107482  0.7913445414396035  0.4331825047801068
  0.1280245637783431  0.5760156980444888  0.7910369995747081
  0.8782295407274204  0.3244329215425010  0.0626119874439454
  0.9090705084414880  0.9545832666508224  0.7412680098377666
  0.9641215646726049  0.5127846440402398  0.7167192340232585
  0.7903472999574958  0.1304387033878705  0.3107139991621274
  0.9938071954567119  0.9108514830961556  0.4799462830656149
  0.0486464584347997  0.7214121688439434  0.3826202694686026
  0.9386613154626284  0.2612330172282882  0.5859723278307891
  0.6801042369323516  0.4572700174883219  0.9382344730892578
  0.2064308082360533  0.4166119223199520  0.3459849143026929
  0.1840498791646388  0.3446286976103741  0.1165874531468301
  0.1643677200772517  0.3470550380303418  0.4852092554320917
  0.7324765489966820  0.1889859451036540  0.0114711003912699
  0.9266235149448790  0.1757445097000828  0.9068073510804842
  0.7779782697618597  0.1941498493140195  0.1329079085307324
  0.2480047633535234  0.0091872605122557  0.3198589702797440
  0.6537552823553002  0.1059949710286267  0.1198654612176714
  0.9259594009858768  0.0516233766844816  0.5544397455667202
  0.7062356651775781  0.4152402048646546  0.2007292357801042
  0.0797730373543453  0.0203789161693614  0.3449278126725619
  0.2920440135276927  0.2974003744950798  0.7520003639163322
  0.6432247880062328  0.8703737076373802  0.2394726457148701
  0.3927079201497000  0.4261665897158390  0.5642934625875718
  0.5098381867379266  0.3439150647751532  0.1879082525982774
  0.6323500258167636  0.9787545316171802  0.1364397797553505
  0.3878389039227426  0.3735053790336507  0.6947192083035940
  0.8891420364126482  0.1917347230190870  0.5910015553161995
  0.4273201150387873  0.4804108270258781  0.0626856961922044
  0.3083812309486579  0.6484611871610405  0.4693104410630333
  0.1575306767508219  0.2091975224971576  0.4709049765552167
  0.2005152413628087  0.8494295511630799  0.0247042436662988
  0.5398945089744653  0.9180956942327502  0.6072199810144246
  0.2350270797888181  0.6006135859771895  0.2242006247526139
  0.0254920536238149  0.0774384665033958  0.7671778848904047
  0.3621024032892139  0.5094382105041876  0.5124321219861599
  0.2980452416695331  0.2927204191584586  0.6758470672608941
  0.1851781112035598  0.0062413564559882  0.3791119118146544
  0.1037502800524784  0.5815968833146034  0.4614366685394883
  0.8817410078121120  0.4582454528057565  0.0331067369501737
  0.5111791775563242  0.5226076442725293  0.0547419254588091
  0.9237058361561833  0.9178768453394677  0.5847332284501615
  0.3418273786246586  0.5150525747752424  0.8063933238092835
  0.0712158244151341  0.2892162585264559  0.4391804603540834
  0.1128979990608945  0.2193551160472368  0.1792257871169378
  0.0142033341603102  0.8052214166744044  0.2114158930200015
  0.5325341906036347  0.8294516796017487  0.0983694214064861
  0.7305056060430417  0.2473858676528678  0.8469214496107222
  0.8386603262502014  0.8575360844456619  0.5604659224757608
  0.2859513587945980  0.1420448759546010  0.3016457078287897
  0.8878616934930116  0.3003821265665422  0.4036266544867071
  0.7732638801575006  0.2883589336761379  0.5159303330260315
  0.8783759242722781  0.8483167214136907  0.7493627492824032
  0.4404404598833621  0.9737482640500441  0.7715081443374981
  0.0661613421246377  0.6797431255254114  0.5333082062825498
  0.0294700907961602  0.7104075310405157  0.8230824798532803
  0.4264743942085258  0.6605339919736793  0.3494251355292277
  0.9186057068961705  0.1749669502742555  0.5135581255990229
  0.4482293206796995  0.6620092924418346  0.3317380961642750
  0.6864843813005505  0.3296822189778059  0.2602041422637202
  0.6026508457949753  0.5211015065406925  0.8010249112282265
  0.6085297480236167  0.4590051184478445  0.2948674449659466
  0.6666269331796381  0.5970276000716405  0.7175480879404866
  0.8712459755938659  0.1901659615934601  0.5691480272242277
  0.4422008289091504  0.2557886871622922  0.7288820262102764
  0.7517825821880457  0.7955724775064588  0.7032669500773868
  0.3476779321728123  0.4108378062213184  0.4443712360442588
  0.7085080441570081  0.0672734875294650  0.6025638174536097
  0.9271491089807853  0.5131402928143559  0.7601449345991710
  0.8037727478229478  0.0580791962361845  0.1308811689635677
  0.1141024691663792  0.5183560789325943  0.8466049245516875
  0.5666511826182893  0.6496819863647675  0.9714793280429018
  0.4531685100225427  0.7926700317862818  0.3255870816324676
  0.1136197813950197  0.8485383088954778  0.9723441570478826
  0.3980733336831623  0.9034953867195707  0.6997250502785042
  0.4060628950417122  0.1458258242996156  0.2739006403602489
  0.9893150851446850  0.2054493977658663  0.7506499924730180
  0.2832147804967332  0.9114748202183495  0.0485138263202770
  0.0645220478919330  0.7298721716675129  0.1390761596808197
  0.5102959135995877  0.5233512055302688  0.8350195735063614
  0.2172155206772131  0.8091375459478517  0.1894297970002111
  0.4172023285065410  0.1097896641504511  0.9949482860766646
  0.1289074284456897  0.0471242467613844  0.0003972525687587
  0.9627441002124245  0.7397213909313295  0.2936722768369832
  0.5283787604761395  0.2753907695844373  0.2714269527639723
  0.5653263209744719  0.4852118763360452  0.1759084826106234
  0.4808892138020175  0.9908691601215586  0.5649691352986069
  0.1742175356341443  0.1821878257634264  0.8717655153425000
  0.2920831966134254  0.4203237820953147  0.3949344091363780
  0.1085246800186126  0.9191482832275855  0.0241822237194840
  0.2208633416739646  0.4126462505666713  0.3219628385432069
  0.2780279527182170  0.6068307030961634  0.2015474400613055
  0.7751302691754524  0.9263040097905826  0.6161206838714534
  0.7882700419867108  0.9462190529138511  0.3116521030338842
  0.7904379313852202  0.5033237710565129  0.4609800228083190
  0.8409105733659853  0.6078386727711164  0.1970214718080434
  0.4638000019010800  0.1924030598465210  0.8724077220633183
  0.5873362465389128  0.8336811165060216  0.7009098733903110
  0.4302602194331286  0.7124038149849843  0.5964732256779575
  0.6633029063517588  0.1339280826138344  0.1995578084835203
  0.6136549500313754  0.0182974559083892  0.9500769425017213
  0.7830363803258882  0.8478300231485002  0.1929497460033908
  0.1340913474934410  0.6048515515633832  0.0465315440735490
  0.4252588083953651  0.1861937946080418  0.6085027491133481
  0.7041937656981988  0.5390192484328383  0.3011149375045222
  0.8233556483367139  0.7765144504167556  0.9667103512884058
  0.3161022572493990  0.3270618879011014  0.3670376655193514
  0.5028115971694159  0.5730222380665070  0.6133067089401972
  0.9737355773973511  0.7620398204904264  0.6021860018754540
  0.8881562670020930  0.7328658811491949  0.6924426171326024
  0.8123254935044135  0.7343362195436599  0.6776106702341641
  0.6043414223130876  0.5271620645907621  0.8761513116193967
  0.9030723524682348  0.5267658347002551  0.0584655606752271
  0.9703322724060305  0.9145154785778064  0.5238022036857095
  0.3426268564521565  0.2485967815706663  0.4837014641713318
  0.3121670947660282  0.0347281185118378  0.5046612825837308
  0.3560955547599722  0.0731066567595494  0.2884107033124234
  0.6406495594785330  0.4818192820165390  0.1844319933561445
  0.7700252830694263  0.3438080462396667  0.6509837524222218
  0.1619261539846813  0.6292287838367899  0.7839180826317983
  0.5244117599753736  0.5850651932075279  0.4912399094368951
  0.0323713238958585  0.5814347014659238  0.8524575228146628
  0.4628180880410188  0.2512564847811203  0.8507490117673201
  0.2992459905872231  0.3928908816920232  0.0604090068217088
  0.6091493537806457  0.5391691988464881  0.2572357816792911
  0.7322306469830556  0.1390215046765655  0.6480461984251100
  0.7637053067646377  0.5273208409957054  0.9545383203317070
  0.9003923406471144  0.6442986990641506  0.8396571653364537
  0.0781764275945401  0.5903046509249328  0.3593230784002561
  0.9580364080538396  0.7626674162993282  0.5530252859204512
  0.5392640611845331  0.9969756248403960  0.3774234114213815
  0.5563671193190017  0.6569689682571715  0.3820762021298380
  0.8531557304121917  0.4672153007948463  0.1873907043362324
  0.2828799679182549  0.5190822835590783  0.3752013309955781
  0.9265813536904721  0.8360242031952406  0.4132037795775172
  0.4403634109423845  0.8485000101216259  0.2683794353628727
  0.9096763454021253  0.7883795081622162  0.1474410940592242
  0.5610727202004538  0.5056089270638983  0.6200476159100144
  0.1925259474591099  0.5393001738733316  0.1365937199034260
  0.2192860594926234  0.4282948048565474  0.4684920764561110
  0.9442642959890716  0.3705239675778390  0.8931837290405001
  0.7738267101593299  0.8807010880396043  0.7530763198512694
  0.5012889587480522  0.0642414139983040  0.4528631964915237
  0.7770395662886760  0.2012818530739077  0.7581574708255427
  0.7501262378505216  0.9224258040793408  0.5730143240750533
  0.3943048804390411  0.4074749666735250  0.2280685509135804
  0.4215589919146205  0.0354929760285027  0.2224458637428648
  0.3869013761636492  0.2747566185392417  0.2423357805203712
  0.5782817120352141  0.5826107013414741  0.0588111199207320
  0.7646161767671241  0.0435777722937508  0.4250157911111069
  0.9953905026078301  0.5241421295628098  0.0256828199626934
  0.4287282037770217  0.1907114696416327  0.5561440540760976
  0.1781733593119652  0.4082430885559244  0.2971116763941972
  0.1534558436899751  0.9789616082839133  0.4736150103173853
  0.2637631087853153  0.4062155607355545  0.2986161569288155
  0.9565564970798767  0.2298558947248225  0.7936281257617207
  0.9177603055461068  0.7685256360055378  0.4495469972306493
  0.9772462137845911  0.2222139655216895  0.8103366952464761
  0.9862309994757535  0.5867959251073286  0.3529656525187654
  0.8998435560366125  0.8392720224092191  0.8476332697596602
  0.1416864590582607  0.5819411254369452  0.4102373348854557
  0.8072540355533052  0.2559079100368863  0.9523084039862828
  0.6999542279655219  0.2712097360733656  0.5402214253252352
  0.1283255176190874  0.2571394890911688  0.5956302590891259
  0.1310369618644404  0.3369866343829584  0.2290450828566233
  0.0979534843259408  0.7755828051970878  0.7195492375184857
  0.8095195659240865  0.0650146456746370  0.6138881462004885
  0.2599231165838353  0.8844357057812682  0.8839609939359154
  0.0506100950323447  0.0827772834045921  0.2247036046171931
  0.4850490361550329  0.1241972223727872  0.9437168251521869
  0.5455145347977522  0.7279625210986491  0.8444719832227672
  0.2790817035574353  0.8490513869827503  0.4348286290812104
  0.3955556915902178  0.1187456039435768  0.3995878932535784
  0.9566144632145991  0.9661305300944173  0.7222311721939527
  0.0603640799760421  0.6017261221476415  0.3150897770855244
  0.9756865694394053  0.4428959784103602  0.7962080752418982
  0.5760503434827257  0.7146755480274055  0.0084080223969385
  0.3096374711139889  0.5923101320090126  0.3766664936511581
  0.5133815325658353  0.3099839483304367  0.7708848299988448
  0.1205135781957533  0.1509950131423175  0.4530528317585611
  0.4155009338781435  0.2909361009985444  0.0997635872233802
  0.8933768371994557  0.8044088659802034  0.6375652731546528
  0.2814055440182569  0.9154566755561314  0.0202111608237358
  0.3110876257043931  0.6075380448896731  0.6302064628392708
  0.5317616862295954  0.7273297830806805  0.3552052064441017
  0.3731159520679687  0.8002174652752196  0.5337559499280528
  0.4948308847240320  0.4411944838378352  0.7147097735606898
  0.2159310815907467  0.4724854354253808  0.0128966825743209
  0.6814533539185428  0.5966864411554720  0.6935430367685144
  0.1219512349730029  0.5225807816611747  0.2987868457037571
  0.3932137906047060  0.9127318559281968  0.4085100376717382
  0.2518837297592490  0.6058965628314745  0.1513498658029445
  0.0465776621077997  0.6974423915394817  0.5192890065785793
  0.7824916714105575  0.1768818343725323  0.4593297059896075
  0.9153430746411154  0.7419587173309296  0.2315598158415836
  0.1821425835528198  0.3199066098853021  0.5936510901674954
  0.8959935463114955  0.8876712351207272  0.3313201971517625
  0.7965544765533484  0.6004008069790019  0.6614981196340376
  0.7831746088278825  0.8877350683901115  0.2856709431574836
  0.2472842103612888  0.8694217823572176  0.1140375755613528
  0.5360832419913232  0.5844610065658734  0.8866024183097932
  0.1044943466169112  0.5102020747727314  0.7440611424252742
  0.5824269935646811  0.2392327478728667  0.4618040188561964
  0.8663065956807846  0.5997832026495636  0.1553737395904224
  0.9605738464130134  0.1072491447949940  0.4153090667236121
  0.5444507319599687  0.9900737190321671  0.5093821856707427
  0.5585628697620666  0.1594060315508049  0.6496347818248961
  0.4391222217848513  0.2645574061600316  0.9363233884891813
  0.5113056997635984  0.0391766480334361  0.8545964984029126
  0.3482094615280905  0.9678374805311933  0.6793307668189309
  0.3722762222863208  0.1572136589078226  0.2076035497824831
  0.8076501671554414  0.7708334827307469  0.1472524652369012
  0.0747653834877846  0.9814219564617342  0.0682561043517702
  0.6549642673810611  0.4679220855569738  0.2523482380417964
  0.4449074297067822  0.6372406646840940  0.6711427398493768
  0.9496778490375620  0.9657206400333306  0.7699911503803447
  0.8623073143480185  0.6798910809245371  0.2188819933079713
  0.1193326098497531  0.2412811676562474  0.8338665289565564
  0.5629732024441592  0.7835423466344896  0.0145742888148015
  0.6432328382476379  0.2431943393291246  0.0314735208736934
  0.2016128438423083  0.0655561450745556  0.4447698498765895
  0.2313897123313613  0.2041505524376373  0.4682404752978523
  0.0299661487318774  0.4440841019577422  0.7099110944622807
  0.5500497412535776  0.0789754409383429  0.4758551494316038
  0.7114194552788879  0.1850231597349561  0.0299719668847074
  0.4639156347027012  0.2783609504662329  0.6257116110027822
  0.0873560228466893  0.3465585356907809  0.1389874917411496
  0.1059851692143977  0.3200667598134251  0.9554390622982234
  0.8181245928374582  0.3097734184339576  0.3849239677108960
  0.6696371913556080  0.6500763266928848  0.0500353863539685
  0.7760989660835323  0.0532893079342617  0.2126578762595381
  0.4303477704357399  0.8372883835957781  0.0293429700012753
  0.4700429078431366  0.1046910282629991  0.0152087088359954
  0.9895658364794201  0.9709936989531498  0.7992489972436444
  0.8304064011549984  0.6297679190238769  0.4835118088635791
  0.6187126035945308  0.9405790489677734  0.2981031707351656
  0.0509280333643843  0.0889350083182689  0.2991585308271506
  0.8813109174978425  0.3128842194674716  0.9332713398823880
  0.7093114936613326  0.2558207815460544  0.0857331446782146
  0.5989380057607565  0.5843961414025470  0.4215032689965519
  0.2700012396883953  0.9535595057184574  0.8072517578220622
  0.1685195349555006  0.1214417793148678  0.9654169235330978
  0.3660036461713940  0.2980455237528365  0.6571063071344549
  0.6069389931144895  0.5958069944971647  0.3244681564001931
  0.2410083246172688  0.2196133041866896  0.1926817830040682
  0.2376013824686883  0.8959906595920097  0.8143279459562162
  0.6078168972816304  0.1625052514000239  0.3592357970776668
  0.7205155216784570  0.9168460218033865  0.0271810023017638
  0.6239269959077228  0.0214255831781863  0.9059610417003668
  0.0078039789751088  0.5324779386309604  0.2037753002293560
  0.0562606560282230  0.4554406615876040  0.0063059317449088
  0.6386660840014681  0.7154623313317627  0.5541119636379898
  0.6401283941426663  0.9999356872902659  0.3810040098412046
  0.1270326008622535  0.8499486478850512  0.9972247670237228
  0.3095978468079222  0.0763962039563095  0.2939775309978218
  0.0430767261414943  0.7126266689368677  0.8789923174672372
  0.8818195494662574  0.3317343149673496  0.6767074372067554
  0.9603686391874721  0.6030657082615544  0.0655260956080047
  0.2374262945157584  0.3939313505083971  0.9878135930827947
  0.9127389705356866  0.8625528083756309  0.2108413918512211
  0.3224990460354780  0.2083528479880616  0.3182235056350247
  0.4068438998423516  0.6247981070611744  0.0460119432414591
  0.4802380166651400  0.8594538529831979  0.3402951087728929
  0.7048363951657410  0.5160146463687008  0.7943321220154669
  0.9245278612360615  0.6511316646192132  0.6913829703316484
  0.9257319965107592  0.0346954793489497  0.4251314901677685
  0.1778763011355863  0.3342431540963123  0.9551481813382852
  0.3676255135438047  0.8979607067391369  0.6312827073605060
  0.1732873320334684  0.2759506416400408  0.5060080727512489
  0.9155337578775822  0.1524623905536343  0.3169305588568803
  0.2329152795609613  0.0987744387401368  0.6754224606210233
  0.3457414153987915  0.7670179429932614  0.0664011357581648
  0.1251482384980383  0.1694906301533342  0.7299767081894428
  0.8745091589836050  0.3720959660512177  0.4554900933509944
  0.2305148776012987  0.3303006367604784  0.9748598860563854
  0.5109226728589961  0.4582758537112323  0.4147899761281298
  0.8456533641423026  0.8337435379903936  0.2752071086089001
  0.7687466973133626  0.7928527622878898  0.6061284354071780
  0.2869902484657044  0.9362878781477021  0.8912144101303623
  0.2086773561911244  0.2782572317416025  0.3335962873048753
  0.3910370968130932  0.7097588250631228  0.9515672021448743
  0.5760335937106724  0.0832455267514426  0.2733470196125757
  0.9580273183071673  0.3815630818306785  0.4549322159554249
  0.0312000344728481  0.4159958864198655  0.1570078623088557
  0.4305835794165041  0.6772572651596106  0.2196258064545630
  0.4266998125202238  0.6367989002764047  0.6493783688909317
  0.2702026149842743  0.5000093452475877  0.8202362453828592
  0.2365969789001743  0.1683113907046559  0.7146929293396125
  0.6968565815802911  0.4369671318309295  0.6701322408982385
  0.8403543243733674  0.1660174967942877  0.3075717292598333
  0.8515853366593261  0.3244308245681294  0.0533350173544130
  0.7614427665572505  0.7593349540337043  0.2400234828072101
  0.4323705538877849  0.5887351533012867  0.4102128170745502
  0.4280845209138048  0.0507436862488766  0.9055510247011198
  0.6540664665037311  0.0713584129907586  0.5516364122552049
  0.8030205689011105  0.9191215410926431  0.1922130609383611
  0.7850367055456139  0.1241761765602834  0.0123047674269316
  0.7119355716715783  0.2488648813198530  0.9294148970511982
  0.1904520854344889  0.9882252936206264  0.0280896597495401
  0.3427529966500796  0.3388171474257023  0.2102167468090823
  0.7440593195352795  0.9396823199563279  0.3310144820544756
  0.9094842623142061  0.4524148602432134  0.0303423850340896
  0.5791962177650566  0.7340086111077089  0.2614585447344307
  0.9729774747489982  0.6242843650673746  0.5657560780682571
  0.1779970962479738  0.6039529136385261  0.9608934435350279
  0.1128367419457644  0.7179120168072843  0.4404921993108171
  0.9158665313150482  0.3819859606639898  0.4310912581590408
  0.4752312526073883  0.3894431601359440  0.3770010212846055
  0.8907698896138582  0.5532888207630485  0.4274596060173917
  0.9519739911140690  0.7389957661859899  0.2654843396248622
  0.1777535664735822  0.4019324197059582  0.0530602443196778
  0.8790651280454218  0.9841361759073693  0.1090002169565876
  0.4608760426794212  0.0017887965543417  0.2513121010037762
  0.8269190168580656  0.8878642260092334  0.3584542452603899
  0.0377559787776340  0.9234180743805944  0.0714254662948300
  0.9391279271470221  0.6651183966231710  0.2502215935055739
  0.3954562429271702  0.4269431599211221  0.5912021227933473
  0.2353620477297671  0.0991569153719098  0.7037149302033285
  0.2064373613331591  0.9193535308565064  0.0144330592297760
  0.7103862764465741  0.3275492560427861  0.9195670239028821
  0.4207968906959006  0.3908934512043882  0.7886921236750110
  0.1481068411745552  0.8844145118088399  0.2362285749918658
  0.2296611990337420  0.2503792247595894  0.8996206063371740
  0.4284678878435788  0.3680036514116323  0.6669767501361648
  0.9847971522694933  0.5154215726959677  0.9228041966117343
  0.7619495432185716  0.2866026372553099  0.6176863507134737
  0.4629903335909749  0.7909099138672679  0.3524034463287251
  0.6041473909333547  0.7280388955609282  0.9277811238428368
  0.7211225173160484  0.2391373666402270  0.3271722541025364
  0.2713090642862728  0.5351675756331558  0.2749941699982947
  0.8042773884935082  0.6327350944624435  0.1394639817884532
  0.7356653598770517  0.6279389373973654  0.1705774086875773
  0.5308428374017339  0.5116278031075965  0.5404847743507104
  0.4331684508049017  0.7765978996026688  0.0043815642991208
  0.0996761450499474  0.3935622109302863  0.3970286558525008
  0.3323063319466459  0.1883099760170800  0.4758180280149450
  0.4726331010098294  0.3845424970470726  0.4265065998698548
  0.3929599699014621  0.2470285806220113  0.4661210614516533
  0.7813414024850359  0.2500604544768898  0.2669984457149635
  0.6956192927020926  0.6587041573113638  0.9712889452571895
  0.9835993003245026  0.9074517321962098  0.6927997446805163
  0.7401378563652236  0.4005256304993836  0.0736630915017410
  0.9552905688638843  0.1818211003674770  0.5566511583198531
  0.2550946695252090  0.5291168416692408  0.0234811367763551
  0.0859882285081025  0.2179854006447822  0.2732752658360789
  0.2548587840489011  0.5702934799666594  0.7296297472963209
  0.9988759146121597  0.3788349227895830  0.7128995117944246
  0.9090915920974764  0.5904764894208980  0.2863643278525618
  0.9731693986847662  0.9829744907755006  0.6276266796970289
  0.3780427615097736  0.8854146201150265  0.8930030199079874
  0.2582820907619316  0.3678416842223178  0.6783603653306501
  0.4022141463668469  0.3502546096955117  0.1282742889707886
  0.2570715148814964  0.5318816859840396  0.0986286951525372
  0.3347761333677079  0.1435340202078006  0.2959222098486919
  0.1968655251972767  0.0773294350446659  0.3962400456953507
  0.9930035467022644  0.8350060708932925  0.7062057125296218
  0.4935353627644536  0.4711465933142041  0.0087780938820301
  0.5524901278809433  0.2221359706647783  0.8754066387261256
  0.9979610662378098  0.2614238474214493  0.5225333759082392
  0.6853695162901188  0.7359928683111431  0.8814351964721250
  0.4786045403629328  0.6554507259037347  0.4431041838741502
  0.2713679922487444  0.3144964242650182  0.9393133208993901
  0.1806230206705506  0.2177855188160641  0.3521799182042383
  0.4574058648917805  0.3009296674978153  0.4715229500432845
  0.0747546060616663  0.3089091108034621  0.9198845189325299
  0.5228122755371925  0.5069207190085778  0.5887517225080665
  0.3764702147172934  0.6416486493592990  0.7814661331992371
  0.8864200517991258  0.6218111804285383  0.4750563084893734
  0.9627840816732086  0.7680946783095691  0.4286055381173925
  0.4498340172478550  0.1809174772417891  0.7041514570605661
  0.1520272848472102  0.5366845930666223  0.6567969526432983
  0.6773750505444565  0.6539684509521512  0.0236883499550514
  0.1520279311292441  0.0876505686627333  0.3793374460147269
  0.2836477245722279  0.8619247197974544  0.3352385337275989
  0.4389303259242908  0.9171606162718783  0.3851000093608523
  0.8984004454635468  0.9457321330479020  0.7173978487112765
  0.4313485321574548  0.1632389035765768  0.0999361241530723
  0.0103293218687162  0.4854924766245997  0.5519972974372080
  0.2347855437945575  0.5311561328075767  0.9700735600547903
  0.4559926032743709  0.6442363902346527  0.5703625907573062
  0.3768243612933792  0.3665436194094718  0.5566178446390715
  0.3009566420580967  0.5353058767310127  0.0070244117641808
  0.9701486622052115  0.6257352302848826  0.4638079821506015
  0.4172535289199721  0.9727899494885877  0.7546765328780527
  0.8394049925410932  0.2509733566946369  0.9169093244642371
  0.3469879899212602  0.0069526927732911  0.9006637035155634
  0.6329694987719675  0.2363795683491040  0.9547547700756055
  0.2030677928490545  0.0394217152734544  0.6308664336499916
  0.4076668524901021  0.3033179505932048  0.4702010183788293
  0.3029361534235765  0.3732263020405693  0.9167437681164435
  0.5663865185809530  0.8564170953657222  0.4854133119977458
  0.2994778605067337  0.6619220374031295  0.3332254679403760
  0.1049152218459037  0.3381338479752279  0.5676971836596173
  0.0980543801035319  0.3155700455751957  0.6682177393562302
  0.8773508216554906  0.0841405642295324  0.2879723226890350
  0.4663543508587538  0.1086624876423797  0.8073103328242811
  0.6568395829152450  0.8517241204077485  0.0710860561419523
  0.3688326827964364  0.2622763949416483  0.3370415487712685
  0.6838625985459355  0.8059791768959149  0.2453470643084929
  0.8329101874560099  0.1816416854501429  0.5266143388793155
  0.4924475965167668  0.7237333316062483  0.4203978451940689
  0.4679925913428711  0.4031411107320462  0.9111908827565698
  0.2972413960500584  0.9205424559608631  0.3615977336381648
  0.9462107663301695  0.5102728765843162  0.8143898697619355
  0.8171963197594176  0.0023058093767273  0.6569732127370496
  0.6874725469817998  0.6612803664790986  0.9244305687839935
  0.1693785658412197  0.7268412620406126  0.5250543796329676
  0.2530546749094826  0.2687176286108208  0.0645776695655065
  0.0586834597185033  0.5192510143823614  0.9116087937935113
  0.3656808184889294  0.0386584850672738  0.0741780763559121
  0.8441036350412918  0.3230710884809600  0.2560111496909250
  0.5665666748843498  0.2901675168624671  0.9743983303500061
  0.5240335010821674  0.0397218439848146  0.0277370185161180
  0.2870269164917740  0.9966343342645175  0.9453040658240583
  0.5387182410821439  0.5149347998309608  0.4921360300144996
  0.5080540208175899  0.7747966932141839  0.7916291946908879
  0.5288427302429551  0.1039958797632230  0.7248842562559005
  0.0258671758330528  0.2993099634015982  0.7999023726550117
  0.8259327166898918  0.8529550215713851  0.9692560251334748
  0.3659279943137065  0.7827937246928437  0.9306269013849529
  0.8615471013083247  0.3188856264455531  0.2769838823401619
  0.6205914919371908  0.0072592283960985  0.2977762766101159
  0.9372488891974299  0.9734782242741238  0.4775423131091767
  0.1053384700360465  0.8825083518815713  0.2593996117624608
  0.6602859322417932  0.1363483276161540  0.1711557464508646
  0.4390584564028205  0.8544851422790761  0.3162711752391132
  0.9567673086284042  0.1731666191385905  0.4823565858880381
  0.3004160384689192  0.9324767150572442  0.3068633260528272
  0.1919545348763401  0.8484003747241734  0.4295219158498632
  0.0366684813314858  0.3924337328264147  0.3030118252619915
  0.4022403925704067  0.2567488282741616  0.8973619315655201
  0.3815731574462445  0.6189456443828708  0.1345122415277348
  0.1048234961697360  0.9511432391329010  0.3513260875437278
  0.6805808572192523  0.3638908347244806  0.6088533974980563
  0.2562011782878761  0.7195180843623672  0.4718789332663638
  0.5478838757237168  0.3930144642707423  0.8089753715523365
  0.8715982642537531  0.0069032325198866  0.6684879202614976
  0.8567416730913979  0.2999050711809134  0.4945683034729338
  0.9804379682932015  0.9784796909057362  0.9888688269182743
  0.3591113905323482  0.8377963468459559  0.5117638863845143
  0.6302184829175873  0.5985220303676019  0.2048479334137225
  0.2855742865643696  0.6954110557265708  0.6919852258868299
  0.2458086610679558  0.2975238786477860  0.6644239558250055
  0.3707325223110162  0.2839133826595371  0.5582381204257841
  0.2475356844737948  0.5723406838948490  0.3504317906712014
  0.5487932883151873  0.9069974833226873  0.7420494173618943
  0.0869776113838255  0.0838913887745593  0.1922857634423127
  0.7021298488898063  0.1827765970795599  0.9734640983444148
  0.8605447548403103  0.0991163812900514  0.2513974083159240
  0.9068886176429196  0.7169814814393053  0.9450565148943301
  0.9804489864307787  0.0013317279717212  0.2375598155685048
  0.8066987619770170  0.4999308794700946  0.8597061192171178
  0.2430339078537454  0.4836919414611887  0.2562689795034500
  0.8071606869091229  0.3909236006162687  0.9485809271651793
  0.5933109571206309  0.2916117180825069  0.7768378342487565
  0.4234783954118215  0.1927998711397000  0.9004926439873915
  0.1740595902601590  0.8091307352766060  0.2814559078021029
  0.1329652745406496  0.4127900307714841  0.5664662648989109
  0.9788453672459374  0.7784737617391968  0.9119219199472580
  0.1714763696688146  0.7496616206899154  0.6241634898068691
  0.7550258834769886  0.3491629929938818  0.7863540616184626
  0.9962807135168250  0.7091451454928075  0.7864773520980202
  0.3412859658206071  0.0356554952570189  0.5443183046322776
  0.4356435064296250  0.1371359509519879  0.3124561345213366
  0.2571563852837543  0.1731829341156498  0.8600161611048039
  0.1344502964162133  0.4071978988356829  0.0803149411407929
  0.6996995437922143  0.7867186090115099  0.0494517193637105
  0.4404019686943410  0.4190505844816031  0.1072379897784122
  0.7545899080104570  0.7841477644773164  0.0032704873515883
  0.0534602243502669  0.1721497376661477  0.9161789325845765
  0.4211105882897769  0.9881519397103647  0.9816788235546821
  0.4891175077085534  0.3093800556419544  0.4372873081859167
  0.2378975142182752  0.9706235538672069  0.4907816404077992
  0.3060557928640410  0.5877270084721419  0.4256154674262494
  0.0584230489979788  0.1054805273024596  0.6803690141442555
  0.7572290076506282  0.2612486066978745  0.1864356690662873
  0.2412423629369380  0.8290592771705678  0.7512252872541180
  0.3440391699421046  0.5096119800351241  0.5342893876715058
  0.5244313602475531  0.4375110854591481  0.5948978972071668
  0.1231492062250252  0.0283425463217909  0.9465154729445018
  0.3924114411093026  0.8926616785785914  0.1785190899760119
  0.5406927760617882  0.6471654180240205  0.5564872392984868
  0.6555440067348002  0.4437650624807881  0.3727084023086931
  0.2066431115607306  0.4091194785204556  0.2976876164863247
  0.4210456964516543  0.5329989041112064  0.9424300950038798
  0.6784449916774106  0.4391218969233306  0.7271839263144502
  0.5511633699975557  0.7088890559790676  0.7410537725888200
  0.9773569697807144  0.9307783837816276  0.9100750337740696
  0.1377724728045688  0.4555179131144705  0.7647646481072845
  0.2322620140158243  0.2407026277097381  0.7694261124372548
  0.6245408334282935  0.3694277740910424  0.6591064867418411
  0.3246274170157159  0.7849705371297691  0.9684347165454978
  0.0516072917014186  0.3705406059043537  0.8364822350806914
  0.9867254315537045  0.0985756260476783  0.3361702546315828
  0.8824513853272017  0.5857535265055640  0.8119657709112080
  0.4078980110417303  0.1035725406140575  0.7314826777491963
  0.2953399198258760  0.5351640924921846  0.1301119878789341
  0.3861217254059680  0.4686513288632556  0.3795639301446972
  0.1245733588245158  0.7962090147857962  0.5647535633380318
  0.5349480071892874  0.7695724187271732  0.7994375402917067
  0.8073234595799185  0.5522559246752698  0.1384474892606373
  0.8722267909225991  0.0471142796897110  0.5354623386636620
  0.8341894208696849  0.9509217543590749  0.4145571150426010
  0.4057400679662506  0.4406738499968277  0.4447567592814584
  0.7980571175041345  0.5713800019743026  0.5101816498792140
  0.3082880413791210  0.8495705968237818  0.4362735926999981
  0.5727092634365673  0.0357224388008991  0.7930598051494904
  0.2223148891189450  0.3837261963232141  0.7519439432909910
  0.7382767152933950  0.8608415894350979  0.5796167016055183
  0.5455990750391307  0.2903381650447353  0.6750534890104601
  0.4784122188765732  0.0376883443840473  0.0409149835498596
  0.6025680609406155  0.1582769372812337  0.0927330606562358
  0.6087368724703776  0.1673737791879492  0.4074040286803731
  0.7575067054229980  0.2599281392781714  0.1096264414074868
  0.9862224115817911  0.8386628574387284  0.8022464890116049
  0.6167744453453894  0.4921169828775656  0.1752748388865712
  0.4766507314788872  0.0570506730597554  0.4414426482631018
  0.6963205910285358  0.7944320000830581  0.4215653290791341
  0.7625243712410545  0.3618869132882925  0.5066747511893280
  0.6195191767976913  0.2254887158651040  0.9082130910115945
  0.1096063670260205  0.9747947023347584  0.5693530597727093
  0.4710181579145460  0.2892818084386692  0.1107274881173755
  0.1029978558368505  0.3104255913129076  0.6957076965372909
  0.1572212101599920  0.1364881032669612  0.0649715038876828
  0.9706297944464550  0.9368743587463529  0.1694891381339993
  0.3640013528984532  0.9706413495211234  0.8073550376475500
  0.5823376563028532  0.4554202164128632  0.9608959265796341
  0.4790958839426937  0.5920178335676429  0.3395853868868304
  0.7121532487017955  0.3608429141437032  0.7578450901863995
  0.4946903796540335  0.7755841317017931  0.6587149833552430
  0.4463222250292903  0.7774833022285691  0.5987260064752880
  0.9165813530722225  0.3916438459540112  0.7205886391890026
  0.5705826986188579  0.6576621000949847  0.7475936411246834
  0.4991568336954116  0.9823710671241483  0.0038316333276754
  0.3074025332464418  0.5389444979714456  0.2312794883222395
  0.0872299262161575  0.9618047529133070  0.7147858441072282
  0.1104246268108582  0.8598041580833992  0.3774678937927122
  0.2694927272398238  0.8994874955516451  0.1561553284830222
  0.3037780798297587  0.0973020364100654  0.6268722129062674
  0.9714098474151271  0.5296113231286582  0.2471771463420341
  0.8588119590165614  0.5679266072158785  0.3475545011085951
  0.7407006448950630  0.9868535359702166  0.0404721420636877
  0.4496970451625034  0.1198867495790094  0.4807866664062645
  0.2935701485171949  0.5147707985738758  0.4012438395091735
  0.1543384052856437  0.2170274547960828  0.1400729946719664
  0.5963596893530083  0.6688592801061888  0.2776479474689863
  0.9487068485199133  0.6416492033280332  0.8316579399401871
  0.5445060176779664  0.0380709714763152  0.9622070603067705
  0.0917165298098892  0.3911911043765900  0.6890765325235949
  0.8977482718399802  0.8473598292299247  0.9452428614800127
  0.9540744955593964  0.8469455781085091  0.0430051427617220
  0.4259088927802593  0.0484049049242193  0.4186850113644698
  0.7417368047411314  0.2572152972521852  0.7936157826852643
  0.0133554087027294  0.2759841533678259  0.6974326269425501
  0.6959019115382764  0.6002284711789950  0.2817635347836145
  0.9310722461129147  0.0937774550248196  0.3484543733080743
  0.2602976327096231  0.5328292407978601  0.3239182652296079
  0.5421286848781002  0.6006458089769086  0.2464670737434567
  0.8582660250516625  0.0476450752283456  0.9678743340605356
  0.5348591796449071  0.9211682077468260  0.4647522585626223
  0.3291644522028614  0.2046080276396134  0.3455999982991622
  0.0879136855126819  0.8510160531741106  0.4470023454620525
  0.4095701483832971  0.3446573157662708  0.1772061515824769
  0.9545963978318684  0.8466889800787776  0.5140597547194015
  0.1700052575794154  0.7222817831829752  0.0665103688784928
  0.3007483441340196  0.1056658244328066  0.4614618597184227
  0.4843773678227793  0.4138357701396609  0.0336896868836439
  0.1796149548257702  0.0077000158169665  0.1212501970764622
  0.0203872633661072  0.8872883392729595  0.3065201849200114
  0.5777942952145005  0.8355265531648441  0.7271684067846437
  0.1378467319597662  0.3859929873211406  0.7577818917911971
  0.2001289766638953  0.9595344468235950  0.8054989127046807
  0.1325409555145641  0.7067283001204699  0.7268300814356767
  0.1067497639480565  0.1212002260377268  0.5148606538430771
  0.5748766420370265  0.6435292356112517  0.6744931726598578
  0.1337960737265046  0.0126361864502696  0.1346424991619119
  0.5465624353126218  0.7697237827318327  0.7487071934412283
  0.1236392107931177  0.0843324913394071  0.1604441860171096
  0.6333219054835263  0.0129157086115728  0.2504530497369711
  0.9887501082703847  0.6108364438226205  0.2982718734752365
  0.3087754218055562  0.5162025261708120  0.5781008319324844
  0.5504999541072276  0.6592568876194789  0.8009213889100856
  0.4967300398098856  0.4369819298466880  0.5956261868158089
  0.5049680319143637  0.4935515016267793  0.0628442467067984
  0.8907559177521900  0.0997308922433980  0.4720639992503488
  0.8393841089549049  0.7697646465311850  0.1062287323495771
  0.4052372317133032  0.1072723341369370  0.7038540528478490
  0.7197484044967239  0.3854791729897495  0.3890903822872691
  0.6034941510193876  0.0149237265046337  0.9243017731199862
  0.4176149019628401  0.6085568000793790  0.2116726225972651
  0.2105835271091408  0.9863936861148099  0.0086575898234244
  0.9414350765613790  0.6008920986925892  0.6606480626401885
  0.1347392759502995  0.3049650405844836  0.7326163790007455
  0.5712613042037085  0.8487075214221013  0.6308657041679604
  0.7946078699872732  0.8615130263412679  0.5821357613808777
  0.3918242215547054  0.7737110104485366  0.8355758035551462
  0.0321295528940768  0.6258837462299439  0.6529423956434034
  0.1807311601323704  0.4093090726210309  0.2003226968469703
  0.5765528640528463  0.1506522919675614  0.6052110716715223
  0.8293661674146569  0.9457642539681724  0.3391036421640164
  0.2137347206306077  0.3381856569255032  0.0212323082084579
  0.8301503579842215  0.2923706675400243  0.5324578306413300
  0.7848479039057017  0.8839421019266440  0.3347287740890869
  0.4570319328405149  0.4586434624196554  0.9452471521971247
  0.0224918310989507  0.9810461399481226  0.8763129840765957
  0.2880801730350842  0.7950781866961180  0.5208616155243252
  0.6742986533422006  0.7176019982885485  0.1784059571329242
  0.8917811551406783  0.6676332803692235  0.2572426576486565
  0.5371768654588539  0.9299058067845646  0.1987165389424471
  0.1019940602313957  0.5773905128871941  0.7482251962054035
  0.0395672358180881  0.6134053095517670  0.2165762629371624
  0.0477717463049398  0.5056743877085489  0.4597994823973383
  0.5127612651079935  0.5091701665639278  0.5622449688241197
  0.1893772419853533  0.8082080901273350  0.1847314767930577
  0.5298952375525834  0.1398389192990259  0.9322434115212902
  0.2398840995414045  0.5714535383048704  0.7533094995841688
  0.4640044979049344  0.0653424963212363  0.5702264581874851
  0.8275474207249713  0.8925856376124687  0.4078472150672526
  0.9350469002771071  0.6047582911538932  0.0522403880823273
  0.2301390321707125  0.4850000081753671  0.8399956890885008
  0.2820553069530735  0.5900944497354922  0.3749630969943197
  0.7184921379270894  0.3107434513222903  0.4530434547079459
  0.5924013683134771  0.7294271779313964  0.3098671587030588
  0.6029023728479703  0.2080496656479126  0.5521223555078414
  0.3114118687931173  0.5628417089222387  0.9164186355702548
  0.3953275227066537  0.5141166579655447  0.7410155830020441
  0.9082491073959313  0.5795682019212228  0.8495700966583374
  0.0914553266128209  0.7096353326018321  0.7641557310183896
  0.4943777142373406  0.3756422578282635  0.5314760480309197
  0.6531151441833923  0.1455501634594641  0.6131856670288786
  0.5800193602262692  0.2190055506315875  0.3376557485926749
  0.1329964513380425  0.3897822484113077  0.6617558953366316
  0.7101192164849384  0.6477310824174469  0.5284837848855400
  0.6558645215230179  0.2713677012304423  0.1907486932979509
  0.6891245535924769  0.1155080013950653  0.0263198267191537
  0.0781737493069541  0.4445546081276642  0.7251603451639919
  0.9994036724294868  0.6604713078811009  0.3280876137666778
  0.9380506525441175  0.1695719822543693  0.4610889040136891
  0.6609897322595489  0.9473650429211996  0.7505486044910398
  0.5180544037071916  0.7980794060645428  0.2872740640920342
  0.7523381398811063  0.4659117193930221  0.0249914810238170
  0.2213556439705313  0.6512542491768810  0.4848504905577506
  0.8984783403273489  0.5149351222722865  0.3324196648537051
  0.3183066474180450  0.1811850348967637  0.5231483553134648
  0.0307984992728945  0.7786219501922588  0.7918083646964779
  0.4781088432053981  0.9784089899641821  0.6768638630047301
  0.0401151802873239  0.3075946004707312  0.7530418638497245
  0.0389025923313713  0.7890954498359688  0.9707433648444315
  0.6500708916370933  0.7887680492935666  0.4374411106542791
  0.4011727093654876  0.5824903271402382  0.4569473619688796
  0.1457842662412996  0.8508188018474295  0.4514456004733349
  0.5810725820494256  0.9117695618972412  0.0352455728546389
  0.9361211053919173  0.1692701387964812  0.8816761259495702
  0.7381370089306916  0.6673743166500358  0.7187645874066478
  0.8856824450313053  0.2416712356611110  0.9272843726325241
  0.5926365994521997  0.5872777079157829  0.0349166876845399
  0.1785698466632576  0.4089434698626125  0.2484786745544026
  0.1491675720731906  0.8949779466028582  0.6341603476356272
  0.4810026900393748  0.7769848359289728  0.8876201459468833
  0.2676204812642762  0.4763165692885923  0.0864964153551383
  0.8552496088581549  0.0568894965723972  0.5802647902762309
  0.5826764186586393  0.4589180546482723  0.4499783595955947
  0.3126905394632822  0.3189835878894431  0.4873917814984180
  0.5229373170218928  0.0725397874324148  0.6471065313775721
  0.1055330857611728  0.6543127478514918  0.3680789209560191
  0.8312026310000206  0.2300596527903452  0.3520150512570456
  0.5380923126259258  0.0379752120396389  0.7593370312455531
  0.8967944629217857  0.8491925172038312  0.0429792002563769
  0.6924456373614917  0.8954989125563377  0.8369434340623412
  0.5664430743366129  0.4406100366605105  0.5728430741600876
  0.9816682285748670  0.3697384461281008  0.8138881063687655
  0.2340762231509249  0.9841538697191609  0.0229556068986902
  0.9476910600151394  0.6534415560771296  0.9892456584973165
  0.7005036856281823  0.8752359278201073  0.2872572960256743
  0.0917001685659983  0.6708326056193258  0.2848112465796510
  0.8491595687134453  0.0539188533706384  0.0702499302508276
  0.1807213169490904  0.5305771554305141  0.0351143801206933
  0.6621055655523952  0.7884464222433152  0.0164910598475554
  0.8267340690769611  0.2725334402424693  0.7425968795978042
  0.1163492355145636  0.9312842756058543  0.1101326005311163
  0.6049966392620130  0.2114181989688020  0.2415154559315078
  0.1342036905596039  0.9919691566080768  0.9815995745507219
  0.4185160220536212  0.5685783300521944  0.6073378444683217
  0.2460572677359921  0.2397402974887605  0.5580793137908506
  0.6743807044398241  0.4387458142435049  0.6222988716089225
  0.1406445807076816  0.6134856203870770  0.6378782249541777
  0.2713785882496868  0.1121677566652925  0.0103113495568346
  0.2710490447021731  0.8673138548426672  0.3099853548328272
  0.5422122493866778  0.0316683434996479  0.6853025452107880
  0.5543503884257215  0.1670250146923365  0.7811826512713296
  0.1931757737662909  0.2831406410735711  0.1229429525143742
  0.9083051950986677  0.5082156984666930  0.3584248775964198
  0.0635264699302707  0.3246378929574978  0.2857875360300406
  0.0724668959999127  0.2290425238748626  0.8260338579356976
  0.6833940851636211  0.9846586459549148  0.1167233841070569
  0.0450356721227880  0.9188535957783301  0.5323495907388445
  0.5429009614868476  0.1610037724338210  0.8857221699785818
  0.2035873699227290  0.8418830661284816  0.8765524886591942
  0.5660574738983734  0.0280706220661252  0.1818252346096920
  0.4192211332822008  0.7611205979820822  0.1298306102261165
  0.4360819935999435  0.7869255972398250  0.4226889258021085
  0.5041293039290461  0.2800566345052317  0.5489753018868426
  0.6335756895865052  0.4385054031987102  0.7139998111860455
  0.8059197552375550  0.3516454464150158  0.5765297280444457
  0.1729013465493344  0.5880641290326695  0.4896117736817035
  0.0727657625235620  0.4092583671819248  0.0365355385764059
  0.5085496889936334  0.4685581017236517  0.2838992557597251
  0.7037671591719813  0.0741988067176881  0.3313888546377697
  0.9304471461536241  0.8310351538531524  0.3637094057561041
  0.3645333650101426  0.5892926356453126  0.3800064030821176
  0.5730994007477976  0.7250551360353819  0.3939610075530403
  0.0719202827154377  0.5000929142714596  0.4994916197869582
  0.9652506289912745  0.3128975060687612  0.7262901905819477
  0.9797735668409417  0.6427723484173774  0.8700875864264649
  0.0914410803873528  0.3792174036252476  0.4190792883860437
  0.5183184538528259  0.0752455942380416  0.6200466639760452
  0.0787452045525986  0.7776086263153587  0.8031038227891222
  0.8271479018311844  0.4073833409678054  0.2902008181477556
  0.6988481061427519  0.8576569030588835  0.1925485308862346
  0.1747576240832977  0.3801661685482939  0.6832443677737791
  0.0905990096128874  0.4227779874716516  0.4935620611696919
  0.9928064746399025  0.5094771798504212  0.7980683866901608
  0.3103840766397842  0.0122889993713202  0.2609348968803249
  0.5184211613588730  0.1763776291320165  0.4029940873498724
  0.2330324207337171  0.0104363807150647  0.1362655265388136
  0.3457009251378091  0.5481378792299358  0.9900244146348308
  0.8807242573284830  0.2441565782939387  0.9559142076135411
  0.5649460090951335  0.9730634956111226  0.0841906897941011
  0.8165249793625691  0.9696751166673943  0.2210257325742105
  0.1617973878550922  0.3808526002292051  0.7084001648255295
  0.9807127282043331  0.9084149254529750  0.6644683640456901
  0.7851179456953129  0.5225932527784385  0.5826246686552837
  0.7663544106218917  0.9261099463750821  0.0970543817439684
  0.6726543378573178  0.7930903550734313  0.6406579422869688
  0.7210120900822335  0.2620678313486953  0.1551340031367497
  0.1412580426284334  0.0755744452694892  0.1078370841111870
  0.9393252596128180  0.9766641261255870  0.0138121974738418
  0.6074498500863127  0.5079241902253101  0.6028175088584576
  0.0963428150420128  0.5105122079555042  0.7928262947447909
  0.6279677243514977  0.4378154478155366  0.0469944865974162
  0.4362360144860303  0.6382192012965967  0.6227619223526515
  0.1117008745463272  0.6046258724059613  0.2308288127201111
  0.2460413286274456  0.3708699593682218  0.7033566102328637
  0.8371523960410452  0.2338581619753447  0.5296937871518519
  0.7255009470838952  0.9043427569826981  0.7927999472165929
  0.1120874172569544  0.4006336156869831  0.0096790793432354
  0.2951466657133254  0.9153255045139913  0.3891893152816424
  0.7061321394629434  0.3585811070692864  0.7084224380763391
  0.2654166436721875  0.6966700200396584  0.8695922120132823
  0.5532491095841899  0.0025270508791632  0.3302587266457304
  0.7028632296034776  0.3398230187062889  0.1560148246324142
  0.5592866921045787  0.5739930637065856  0.6163601503766930
  0.5733033133023787  0.2072647700248423  0.5894221706046640
  0.6590973215190815  0.6553242400414752  0.3889591877496591
  0.3962145046131853  0.9725862974473747  0.7094244638131149
  0.3021899081525404  0.5254097251194598  0.6253656401209883
  0.3384630364256326  0.6828353998543126  0.1392440423548270
  0.7927993465789662  0.1878252909156238  0.9299076421225539
  0.5847214849769578  0.1547753593543037  0.1382546150132184
  0.6936355199594834  0.7599478430742368  0.2125854431027980
  0.8828154147134680  0.7693622267002456  0.5690296868013103
  0.6481639365553784  0.5156441807771696  0.3607719319218529
  0.8511094195184650  0.2279760859734483  0.5547235361216410
  0.9359909539145894  0.8824236323377382  0.2563590545017302
  0.6551553281007432  0.7907417736684251  0.9891695218164179
  0.4593587517964335  0.0467556218497828  0.6683771091352593
  0.1694356385895404  0.4702013424647454  0.9911814152218050
  0.3702448197022679  0.2943518385496091  0.5319572095689231
  0.4395334294761382  0.1946573478576793  0.9770655711731305
  0.5667812922821611  0.7466425559299760  0.8352675633277513
  0.9334038439341469  0.0237539728822602  0.2939819680121544
  0.7774222199121588  0.0132358203939597  0.3530479577317848
  0.5567567821651669  0.8461842852585306  0.0002368288304837
  0.3190192187531813  0.8139937592175613  0.1788269808937418
  0.4583810660845339  0.6513303005197415  0.4960206200301073
  0.3879704350193856  0.3241105385172199  0.3031838166834174
  0.3815936129139771  0.5774489156215940  0.8538393682011086
  0.0592242862514684  0.4469494977759859  0.8565476944943471
  0.9462500695369624  0.6174201047347144  0.6099117777258134
  0.1150231343408862  0.2321383003115396  0.7336981166820015
  0.1102852050635337  0.8521068088013246  0.0690614246576134
  0.5300330871731762  0.6045685551222010  0.2212424228066906
  0.6936306867121926  0.5762848563939966  0.4512903190001950
  0.3846794270820070  0.3090637140346266  0.8357257201288424
  0.5919895626236091  0.7195502442788495  0.9862569225178017
  0.8808354838588406  0.3058145170835120  0.5350811061435745
  0.1265318743409322  0.9460092407963318  0.4283537125031243
  0.8320846029566509  0.3988990816308532  0.1670001266052960
  0.1044256546058296  0.3079918546074466  0.8262628070736305
  0.8640420896082465  0.2826676313062771  0.5743082869174554
  0.1891719024334938  0.9483137434194850  0.8984767464471189
  0.4455065334235463  0.7071466813549593  0.8499107106569737
  0.0110906605284950  0.4728657684617548  0.0972552434188146
  0.5371942213818153  0.7079461065798576  0.0466058328001042
  0.9937049130948079  0.2777518641853134  0.2252005281776562
  0.6885759500840702  0.0933446664997913  0.8098867631548797
  0.6601440590920223  0.4578909879086057  0.9947125591688705
  0.1610475580264925  0.8829503168579830  0.2611896785000767
  0.1494019872342921  0.8804091219475964  0.1878666568915559
  0.3242906332237125  0.5722066895606421  0.8049809824666051
  0.0285378264184449  0.9713523539225805  0.8290518814163217
  0.8600548043213619  0.2035934358197445  0.6694416158096355
  0.2749515616644645  0.7389277864364636  0.1589899746103193
  0.3442020295819113  0.7597773187031273  0.6453120416541241
  0.9236913379333481  0.5337951203878206  0.1882275557012453
  0.6206711619622501  0.8613852531925732  0.3869924180184873
  0.2488762890888436  0.1492650502800570  0.2083400821372635
  0.9312847785656547  0.1539276490014643  0.3400859518452349
  0.2417099865011168  0.1388946257888868  0.3353220554120275
  0.0564313388923268  0.1110095969814544  0.6522763845611386
  0.7213333203635013  0.5758635649090912  0.4528404923653385
  0.1175750641426002  0.5853492550846306  0.3959958054917640
  0.7682276132863283  0.0691186183969312  0.6768652498222180
  0.8401151810273056  0.1225028043850114  0.0628130982248808
  0.0198087554752312  0.3642830874125947  0.9665609838303044
  0.6450920099993199  0.2898037792984906  0.6581866459737938
  0.3923703422367861  0.5888694175229124  0.3821984965858531
  0.3479401986503559  0.6109150217161703  0.0563190203182324
  0.9228973577336371  0.2382059112218428  0.4997980162685599
  0.2485390499832542  0.9161923833393911  0.9243879141258837
  0.8791114671972386  0.1253906477862402  0.7842907557624483
  0.9578918782423113  0.8378127462197308  0.8002406098248321
  0.3164792013728439  0.1563536835828467  0.1572431465172524
  0.8800571297955380  0.3279357994188355  0.2189525486497026
  0.4531178997474141  0.6390766883453041  0.7195206273935481
  0.2330960733957055  0.8478754003214675  0.4580860633788570
  0.3559933347355782  0.4762702962676535  0.2471859863014836
  0.5145285122692417  0.2775515315473611  0.0224632636436730
  0.9732892042735386  0.9166536329381357  0.5803307282371933
  0.1003280142195344  0.4607133880414095  0.3040207810780637
  0.3844824145622404  0.4693864425368649  0.2856671935396804
  0.6264645870036888  0.1580654100916119  0.7858088920403650
  0.7069843451432621  0.9566435118497023  0.2550181903736797
  0.9201541799618014  0.9250988564436561  0.1135730666551901
  0.1610828118393273  0.3192635037051178  0.6124227771255426
  0.0632206377561338  0.6526390628873633  0.9274503999371235
  0.4432889405957736  0.2841239605183059  0.1799704780468528
  0.7623693812298250  0.5052092446923085  0.4552561741157062
  0.1503843305985293  0.1825782892877646  0.6034047819749985
  0.4927146827266766  0.0052867487291115  0.2873724840440998
  0.0521466439314065  0.1139808443021815  0.4474833947720511
  0.2101360022678988  0.6038210079160889  0.0581771084495570
  0.9445945448132398  0.5922814520488490  0.6865281030801939
  0.4745415777320389  0.5125431706166795  0.5312521752061325
  0.2293802613325640  0.5853159027194867  0.4936054072324740
  0.4351948716678828  0.2512276122383089  0.7560172026111665
  0.0671463731612713  0.5138559912827082  0.3637289735103695
  0.6875504164245091  0.1447325968954790  0.6825755449791798
  0.8268760419478870  0.9802860664651101  0.1770567189920513
  0.1683810304088471  0.3395317015402043  0.3538381651339317
  0.1051948384110456  0.5819038006472406  0.8073941390868649
  0.7530465818436709  0.2589556140092947  0.9676295006517805
  0.5790465010429989  0.8595853945524460  0.4121897414360848
  0.3233032590112431  0.5381431743406041  0.1347846625841409
  0.5179590232237059  0.8376060036409687  0.8077658161939721
  0.4536051457766493  0.7738417882943838  0.7763453557189121
  0.4286845916721216  0.1897249973084923  0.4524056950218178
  0.7063152802890900  0.4384287091569289  0.4771277368472348
  0.8687080729065109  0.8508658458676090  0.9940623942800690
  0.7489946055131441  0.3397661258344923  0.8590543049774600
  0.4964367688956671  0.1817315390491238  0.7022153075380608
  0.8560470284167148  0.1264192303399722  0.8027982860542001
  0.9306836632462686  0.0889313812524836  0.2722715807280892
  0.3091399847976921  0.2958150357017165  0.7287700988162046
  0.7757241280605317  0.9753911706431716  0.8607220932916329
  0.8310859851440598  0.3886089812133953  0.3860443839723773
  0.0664510464268648  0.1249359353663769  0.5443501393082818
  0.6049782695360086  0.4384239338421310  0.6470089010296830
  0.0172588746390432  0.0857068181487265  0.7411122854648220
  0.2332057755786790  0.2830365414774636  0.3885230997840832
  0.0306841396368131  0.6521954597452246  0.3650230205237752
  0.4320755599156805  0.5285052404390324  0.3508098126687231
  0.9160139365968737  0.2341187146019997  0.8884121169319629
  0.3005521608339926  0.8271652134109870  0.7977378651956702
  0.5539171060782649  0.2850265184026001  0.1249905496562308
  0.1396618249807573  0.2140045092964072  0.0859073856699153
  0.0000456187432898  0.3136685188778640  0.3413716418804262
  0.0432013440430865  0.2990124309931523  0.8841862656026197
  0.3812407692057108  0.6456138828343757  0.5581301069833797
  0.1237715881466114  0.7019260519993794  0.8010557739295462
  0.8006491507191386  0.8297608687225203  0.2930295470534997
  0.6425164824463202  0.8510305371787681  0.0466791104725805
  0.9988911874026237  0.1252218132867396  0.5731777981925434
  0.9755310075267289  0.3659324102665307  0.9437148932272471
  0.6762217446231830  0.8071666930950940  0.8059872889001355
  0.6064683232305094  0.9743459524079514  0.1459211984069253
  0.8986030324797242  0.9756397808346202  0.9379795551926430
  0.3855889809880134  0.2592711911660118  0.5634057871673285
  0.2901630060577400  0.0941081516954770  0.1214446052402181
  0.7567175619584137  0.6526291445467670  0.5454920873141123
  0.2131238738528247  0.5859373696870437  0.5168279145717699
  0.3781609804084490  0.2474423594319195  0.0131414459207357
  0.5968115766547976  0.3830333368292024  0.4128253547616212
  0.7852963678237945  0.0497995042826034  0.8074278295330911
  0.0186102094748083  0.9907288945885225  0.1273113917282930
  0.8771893113422895  0.0292765303138306  0.4346111211875526
  0.8230206053516239  0.1288703042201338  0.5780850278245229
  0.5676531673927827  0.8578598153702669  0.9269563502152119
  0.2490967698403612  0.5995833186051029  0.2483620576329875
  0.8544632162945165  0.7573939350017348  0.0574465718759330
  0.6501276704749863  0.7151371150492604  0.4986681247569592
  0.7791115568975012  0.4080841628876951  0.2193938932948605
  0.5198518767996144  0.7915736377757361  0.4385285659515651
  0.5479891108676607  0.2263685999029553  0.1260572363596002
  0.3628918624238376  0.6455393402986315  0.5362107090688771
  0.9175122747154250  0.3058675046333185  0.8676743656759167
  0.3665942090230102  0.6977517307387282  0.6669310893707836
  0.7510508607472305  0.5981490825820704  0.0117125149542251
  0.4178857906793411  0.6296970704551725  0.0207887660988846
  0.3648903284123596  0.3471094334184655  0.1578876380800041
  0.6303733545642489  0.3526861646865848  0.1456299200396058
  0.8279216917543361  0.5717916558511633  0.9140898623851750
  0.7365437607757608  0.7133438162236750  0.4459347244605432
  0.4055611559874486  0.3201844661923176  0.3247825852004240
  0.8005394351938795  0.3077709625298840  0.4381126469617087
  0.5494110441405337  0.4073016676992408  0.2545635627425252
  0.5954980332215581  0.1499373754008400  0.5313348110909518
  0.6393446344248537  0.9515662332344740  0.7351113277917170
  0.6346859957718709  0.7864401267477513  0.6097638672277029
  0.2649846376029058  0.0196034236635765  0.1718479846166294
  0.5276872431691796  0.1567877015191894  0.0882287694425078
  0.6718673380909738  0.3746878158695301  0.7817885943180971
  0.5972334319950516  0.9099955386282128  0.0582229319455450
  0.7667530084151543  0.0568337882270425  0.0877721329300675
  0.7161584351975137  0.4343312864346859  0.6931343925582547
  0.2985784716046264  0.7938167201571685  0.5497415425977504
  0.5339278334637872  0.1565514040332368  0.3581829781483618
  0.7520481918095022  0.3487922435753512  0.6299660203512035
  0.0014921658473677  0.3450462498449202  0.0822241571445894
  0.5174199327195311  0.4811527716909555  0.1809062537887315
  0.3055036670780402  0.0958860617530874  0.6551079652606474
  0.1464238319046868  0.1810130126174416  0.8762438957152129
  0.5232537877776581  0.1562292132836156  0.0600738813737286
  0.0938692223347758  0.5242967644750266  0.2940925105928098
  0.9749527556671994  0.0968781320285833  0.7171844932537961
  0.9306776025269651  0.7627900919190971  0.5637339198085740
  0.8897367980076973  0.5172329605771017  0.7275861274347913
  0.5206790667810443  0.5142878464003056  0.5140676146878804
  0.9186094572670930  0.9203920015096148  0.9636429575060276
  0.9959286303796991  0.0978870396393490  0.9474755354278405
  0.3850206444295073  0.8965442559535843  0.0940666884828626
  0.7824012236765185  0.7814310407664133  0.5076799213143098
  0.9709712448584137  0.2650275762402961  0.6727248420818855
  0.0724222602434006  0.2897776749360464  0.0678594651311026
  0.2902126539159725  0.5146690413098358  0.6741651722873322
  0.6680723432420070  0.8525825278389058  0.5064983548187137
  0.6827454275653974  0.2927646150421911  0.7354427471102458
  0.1548576960608120  0.5684925095712352  0.7984001747578482
  0.0647370403488709  0.2733661657896123  0.2939719536667976
  0.8593635941459690  0.9747867471641640  0.8631970494651779
  0.9035037869988501  0.1330796521830590  0.6105156345341347
  0.5386165943342887  0.3672065510541324  0.6111377925235244
  0.3489525443193018  0.2170717439862823  0.2236795721711191
  0.8120975835603877  0.8572970008527125  0.0938478216283109
  0.4124355302129137  0.6496657001745613  0.4788589359881906
  0.1106564974691176  0.7361167354366399  0.3122697238053656
  0.6207616133573953  0.7958950319282575  0.3574129016445756
  0.7720947468938673  0.9595125004010266  0.4533424341208733
  0.4601541194120172  0.0909776155445504  0.1447381130255286
  0.7108859986979188  0.6803536215465708  0.2973438140099092
  0.5595955362390633  0.0806647718742489  0.5605582320137794
  0.1671913192785612  0.3065055521762300  0.7696872449596353
  0.1559064882039385  0.1063150736148681  0.6418373624219731
  0.4658131392262858  0.6882364786130459  0.1526273150960691
  0.6135980859768485  0.7860094198991033  0.4808173106637891
  0.5710832043843816  0.5863651270721290  0.4198941077904573
  0.3814115507512722  0.4154946410907795  0.1553224181246421
  0.2168107580362418  0.8363469505437852  0.8515309483663276
  0.9975341292199470  0.0680648003814428  0.8211082008661446
  0.9608985712140548  0.7935600480415351  0.1100122095422254
  0.3249320268774337  0.8804425709686997  0.2314654761791210
  0.6033057580851185  0.4411279227186966  0.0603553560236075
  0.4839487190280792  0.4523205852139409  0.7581100164161565
  0.4217629296549364  0.5086109115490562  0.6714094597231389
  0.9084622317752167  0.3806258288542026  0.0183138052959343
  0.4444275915344896  0.5876397405666987  0.4359114269162973
  0.4094780590494156  0.0444891473483551  0.4924147843377050
  0.9797308992895410  0.2297004895939090  0.9423312000868652
  0.4290095073766036  0.9108605049364302  0.0068732500608527
  0.4996164984554625  0.7959064410749610  0.3090513492873171
  0.8131686260125441  0.1852298770170172  0.2706784881673960
  0.2313228429747131  0.7775092334176464  0.4364892067460751
  0.8766635050679640  0.0465678936166926  0.9891889693263923
  0.7680473055138771  0.7241654082891182  0.9748497334300941
  0.2469087601120081  0.5297838965632113  0.0719761158060762
  0.6443449437422202  0.7196211865034506  0.0732726608946245
  0.8118486861065940  0.1430029521939569  0.6797270819812347
  0.9829805581216540  0.7764093035342932  0.7808153430401231
  0.8050993680356774  0.5207287329303331  0.6362927979670266
  0.8311345561813713  0.6050663219717114  0.2243131032663521
  0.8647054829800745  0.4527408204754846  0.8855382603438605
  0.2992563873805689  0.5372327456711603  0.2798275035013285
  0.4008531133538996  0.4300880528732318  0.4686709197980440
  0.9224101091903243  0.0425498749994127  0.0047407719931036
  0.2436731951575984  0.1700881895107558  0.7634094608801215
  0.1605595188851009  0.2764245815298881  0.2677670572424727
  0.9375365127138126  0.4440255145432293  0.9040915075149957
  0.5497003043053271  0.5866384557094758  0.9117158813548762
  0.6478552482084909  0.2437911924945846  0.0026936512992088
  0.8148763160983094  0.4758751560060861  0.8671401323160726
  0.4731609929497032  0.7136190500350493  0.9724160571215998
  0.4532836614982224  0.7476551758017224  0.2562136250441544
  0.0480629337662501  0.1584959021517251  0.3653598428191065
  0.8202878698207413  0.0735844012624115  0.6956677914652989
  0.3436683113161931  0.3783790075089059  0.8911567429725392
  0.5663081908495665  0.5256823584482322  0.8445045874622328
  0.4778698630676296  0.1757376040394714  0.7470377718087712
  0.1936746293575272  0.3938144740244658  0.9215376935572207
  0.2139393193653089  0.3931189902879770  0.8243973351412187
  0.5880226398732924  0.5278066892344540  0.9729519217956567
  0.9248221699997217  0.7848141330445045  0.0745062442688162
  0.8328048808999428  0.2558293667530303  0.0472642827209528
  0.2436125004805360  0.1033687316560196  0.7880009514748846
  0.8312001512524896  0.1394209493948171  0.6333714869695379
  0.1539017621955039  0.0172314715944728  0.2410010067656525
  0.9503869485733221  0.5832810563736591  0.7583643932134624
  0.7074600865505862  0.5977043979871008  0.9871877836751061
  0.3404545313740128  0.6977351593682005  0.7764302000905400
  0.4833896737203056  0.4067112156021801  0.9849387504915073
  0.4890983259032468  0.8304473310537501  0.0754692842012036
  0.9529065761103832  0.1364640696664166  0.2219777006127030
  0.1182048060543497  0.2772827879872962  0.3513734718106112
  0.7561250148970725  0.7239014639710640  0.0221495044037350
  0.5648643702374124  0.1593344415560360  0.8672567813026321
  0.8354001978581740  0.7611765260096672  0.2454456766514239
  0.5333394434273974  0.2008229119453007  0.6549194202085136
  0.8993949365407065  0.4624369291380910  0.1802446590788626
  0.6351037786669065  0.3830574866600179  0.3883247267652434
  0.5330909897720733  0.5474471707118432  0.1936675597290064
  0.4344452742180472  0.8968351929251110  0.0900948383878236
  0.5817140587903870  0.4337522348673565  0.7529138036799630
  0.7785444365128461  0.3216748608839849  0.2936660561990029
  0.7859673172798438  0.6376656470470049  0.4665769596641478
  0.6455199954231639  0.8723702661085679  0.2889771020200715
  0.7053257278452667  0.6828103234606937  0.2692142353602836
  0.2917787571619075  0.0217353130400726  0.1799212309954969
  0.0174773579896436  0.2653199610396420  0.5015924879553642
  0.0242049055957358  0.1040250499388440  0.3782220499523890
  0.5739797517762255  0.9557597446334560  0.8729015533414348
  0.8408310804454457  0.6297410806701982  0.4570427958543890
  0.9954100462989572  0.8999059252568018  0.4040758170148422
  0.9952180969576537  0.6665002357917835  0.3005037377781726
  0.7757276618192893  0.7821625072981521  0.9594724686522660
  0.2550782405619677  0.2182806501004720  0.1466904311966039
  0.9857893010836061  0.2090077648269585  0.1692735435274160
  0.0184105848867936  0.2159953514021694  0.2033332060614517
  0.3333914999061785  0.2650311485125613  0.3798793609806853
  0.9532637814994471  0.0534929160945962  0.5629670177540664
  0.6191387031008789  0.2338672840605125  0.4302128555776940
  0.0735164216983162  0.0961949339873805  0.8209195556104352
  0.5253783379913395  0.9913774178218614  0.4245644922427376
  0.4861491479785636  0.5479110057091293  0.2096332673999181
  0.8609710414721733  0.5986631514530363  0.0968845428957560
  0.5536350376059234  0.0901307874503575  0.9184047405833965
  0.4014690585049379  0.1158678067539626  0.6491844388986391
  0.6136799937909875  0.0104235781071285  0.2705682542137538
  0.6429832994824664  0.3838421239273455  0.0512009814016316
  0.1383915819150130  0.7364320512576881  0.3028678247074054
  0.1511568660872132  0.0833514115463661  0.1547314825674090
  0.4534822797339966  0.7769337102091756  0.9840293749849074
  0.1935991719243773  0.6330866182151221  0.7060617660849665
  0.0725972735526499  0.3035496183105689  0.7895186147919238
  0.5685008579884032  0.8571341310176818  0.2387382677369677
  0.4312789934936748  0.3880523420861133  0.3993932037181819
  0.4694800840842424  0.4817360060499429  0.1875612634477471
  0.8959783117671446  0.0831224881875210  0.3079289750479665
  0.9564638729314252  0.8374470058276812  0.4138153761100266
  0.9767421748454428  0.1575366955512573  0.3549323881807215
  0.1328713697237481  0.0457045401490762  0.4620997697099143
  0.3892929724714818  0.1298739764618324  0.9629358449210766
  0.7056752658340922  0.2517537965155154  0.9568447180583303
  0.6464934558969280  0.1425274652999078  0.5568897710906278
  0.4412769333260975  0.2453710696845159  0.4739190199498136
  0.8642199374400642  0.5226938441239618  0.8742529989670808
  0.4903126124206684  0.5185062256969508  0.7817553227228172
  0.9822210547890798  0.8496460738784926  0.0915667096727976
  0.2076821946773370  0.3134658684421158  0.6022222154477168
  0.5699764821820736  0.8509360883918392  0.9754968701668374
  0.4126619144794114  0.8515632758325434  0.2680608240653916
  0.8358055978049070  0.4626807250686292  0.0145348561425468
  0.7081976268816164  0.5978229894801657  0.8394691974569161
  0.1995453123075109  0.2154989983661258  0.4340405700437268
  0.6854956366679346  0.5283468928798974  0.3201036293342772
  0.8399015532654970  0.5415049772240303  0.1724788707382780
  0.0017295883704903  0.1829719767230443  0.5740139910196568
  0.4001809910339730  0.1199447805626289  0.5664808805924645
  0.5168387320079201  0.0855573521796193  0.1945086923919953
  0.7459397284281222  0.2369865952547000  0.4059762479707488
  0.7442363597992934  0.7964577932662689  0.7310825147695850
  0.9567287207874290  0.0338349451594337  0.3901098895398639
  0.0368841089999956  0.2725766824615933  0.2870525721042059
  0.4758051143444790  0.4552518796473022  0.9255736971879458
  0.4656148912942512  0.7110753774792871  0.8703571500777060
  0.3708956817768674  0.0401805911794758  0.5831793655893601
  0.5643582334938210  0.8618793498771316  0.3881337507743629
  0.1059982066200669  0.7198928772811464  0.4676404602946238
  0.3807917918189559  0.2528595158791950  0.6159019895674590
  0.8003725993936410  0.1320401948984225  0.5956584904445474
  0.2099561155184083  0.8121155163595175  0.2375892072813330
  0.2473298665481597  0.2088976201237008  0.4232090024007759
  0.4988267860786699  0.2883981495302598  0.1157543059071971
  0.9000057436417764  0.3234398635637381  0.0441272328237319
  0.9599713400070774  0.1333707382342092  0.6635518500363565
  0.3426468281429643  0.9613330588680526  0.5939304176551539
  0.4382215716713077  0.4352131330421261  0.5484552874143922
  0.4865314801040077  0.0893122050302142  0.1556541039846824
  0.4744909747938506  0.7861367071840119  0.5300393051134836
  0.2915663208849277  0.6765152259559144  0.1486973060061050
  0.9321616098367955  0.7368587439853537  0.2090188671713602
  0.4440444887465829  0.1905016841341546  0.4045079890246793
  0.6545056440196297  0.3135642664946661  0.4140609911066721
  0.0429065343697449  0.0468448311652097  0.6139139466171631
  0.0592404302157944  0.6010286010044329  0.0064308194895041
  0.6277634975989852  0.8985343036028066  0.7707335566687334
  0.7382977293110040  0.3284904286529532  0.9579827000066340
  0.9627851313396585  0.0767302477482076  0.8854884792074461
  0.7658604305085100  0.9733510592654785  0.2145105662238319
  0.9116235808365545  0.8115863239725407  0.6580730050985774
  0.5760527984310203  0.0370543239591641  0.0313452536833443
  0.4337363942248387  0.2914757072536483  0.0780568295132345
  0.9043310501977668  0.4519679549832994  0.9819382365837033
  0.7936329353458177  0.1945166449219987  0.0860535720653021
  0.5207313528982124  0.3068786728393048  0.3577414811937688
  0.1504465477791655  0.8672774306129715  0.1419204936902239
  0.0706843180807642  0.7770645470113031  0.7276513519462948
  0.0009832445475094  0.5179080891961136  0.3268202209044118
  0.7607659222959098  0.9206896841327772  0.9987829326260653
  0.1673864141093709  0.6514436675401539  0.4455339943286935
  0.4844779112184635  0.6512364934518556  0.9123130104951241
  0.7943577512083841  0.5875373069993622  0.8384505880283597
  0.8978589041279801  0.5618732368551790  0.3792860495966720
  0.2223794084156661  0.8468164134596371  0.0052775827292002
  0.5091416154153938  0.3067038109178148  0.8193194327668698
  0.1083495471818286  0.7398519735568290  0.5668947153479460
  0.0458772695670941  0.2296290313009550  0.9931455495989356
  0.9867667364474823  0.5272271993727891  0.0743615040114342
  0.1206602084561563  0.9418596585846780  0.1696936500247015
  0.8420127951764373  0.1437208526585772  0.7190752545646464
  0.7941138915244794  0.3313560120013617  0.8491307981701955
  0.5444195125894757  0.6495530270681604  0.7533753293252695
  0.3076575514650737  0.0314692877530928  0.7659321380045643
  0.0037619118472719  0.7779864347750396  0.8002851883915956
  0.9833671654901648  0.0763476941064257  0.8666588164645627
  0.6506048730063991  0.5258120649690250  0.8592431786973221
  0.4135137668918138  0.5535883773850964  0.1001309363376454
  0.0995021517111932  0.2222972466110686  0.3279182356545066
  0.1964801540776208  0.5654837062723089  0.7276122044133350
  0.9207741932773705  0.9097311191939709  0.5267314167371789
  0.6261830971488569  0.0765047777137854  0.5111001799844910
  0.4840570226842900  0.7287693010468880  0.3453767587609734
  0.3323192542638979  0.4315525713238441  0.7741370392562686
  0.0650947799527826  0.7193553378887253  0.9615611019640775
  0.5143541516287873  0.7813027902333036  0.9233555307138097
  0.3350666869207831  0.9878252060975602  0.3667075608717358
  0.4251698193246753  0.7918998476203556  0.3205528760334159
  0.4622739654775207  0.5216663610281810  0.4299077777751487
  0.2858662626257201  0.8712490227307593  0.2845019441943536
  0.4968838230597325  0.9778895635670961  0.0321108388624599
  0.3850346627898924  0.3040820856136235  0.4869665315515912
  0.7367076258322972  0.5272239792577701  0.0239275374935363
  0.7172474034475254  0.6539397477255465  0.5758594422776410
  0.2993396477347507  0.0918534461718895  0.8673978338680207
  0.8504832484223006  0.9259828622917767  0.0897753767627990
  0.1639530116144620  0.4045274581739787  0.0784788775550030
  0.5672010920740685  0.8127269649396591  0.8689992132644253
  0.3408847096952879  0.2656113888412304  0.3317181095590632
  0.7488783004045432  0.3612007811482419  0.5317344229508966
  0.3576355119542660  0.9055455629968306  0.0549264615662857
  0.7290932366432810  0.1136528019548207  0.4639856110251971
  0.9730601948144793  0.3819518755833194  0.4307799997999454
  0.7969898157208822  0.2270337754727332  0.3168288642519603
  0.0778956311851355  0.1165820594960561  0.6071967037237864
  0.2787366438572642  0.0636810188116347  0.3778921557322825
  0.1808488742762747  0.4057270739733378  0.1512539773940157
  0.4071866113591044  0.5781589246820413  0.9071290847213846
  0.2205316290462888  0.7380344462010935  0.2759686998738948
  0.6202031157727952  0.7937516704461729  0.2062370155024063
  0.1571152978806739  0.6740346329070097  0.2300169633496816
  0.1788561606169577  0.2395449671223210  0.7882259345552908
  0.2749148811736171  0.2933965595257833  0.6598732905968445
  0.7643083151234928  0.6564416268127308  0.7610648094364341
  0.9473964710923938  0.7582409050143731  0.6119930500829529
  0.7578488349794782  0.7387875711320677  0.6938477578463300
  0.7577918354565236  0.5875055641032683  0.5278140362099011
  0.7020475743930918  0.6674081227050997  0.6755470016412058
  0.0726909126783413  0.1495340954233945  0.1890128316846171
  0.3888144089952631  0.8322089932565594  0.0549340750339684
  0.5119017116341370  0.8391507795671018  0.7586216097801040
  0.3972028044060924  0.9253679865266781  0.3123184948897367
  0.0456757382853442  0.5314443789432344  0.2358403743151232
  0.5781804732922979  0.7820792690632411  0.6766303826611034
  0.5378997578459999  0.0338125932079218  0.8616021111546202
  0.8637371394766115  0.7588309650363025  0.3441705381776089
  0.2459831802645576  0.4180150499221809  0.5163022205606480
  0.6153109825949427  0.7201762214285578  0.6648352193567343
  0.4277886451586571  0.6428592580807724  0.5749563755881681
  0.1440939273395197  0.0530356493621780  0.5161822768805191
  0.2577965934911569  0.2350336560397778  0.5834084690407997
  0.9346312877212685  0.2385898123600560  0.4530407532195447
  0.6827913682521404  0.7144586604696249  0.4625335810502502
  0.3134881465560345  0.5735469362870456  0.4982765211667854
  0.3548013224466127  0.6776320842336671  0.2219131314325848
  0.5246787622949125  0.8548046129999942  0.2646946051835926
  0.5446794787143694  0.1563140020025095  0.4742971782241981
  0.2350970237128016  0.0540981326461961  0.5405180559663478
  0.1708917557957030  0.6635547163273429  0.3136472544258411
  0.0067213727395335  0.7583764249292386  0.5656632795367890
  0.6223436386229795  0.9423037232754757  0.2488815750957024
  0.6051729218514759  0.3697303504962322  0.0769353769463733
  0.8477414463905664  0.6249554911901438  0.5052275790837317
  0.3386037829153099  0.0652980197195352  0.3334724757667239
  0.9893558444081982  0.6089584618784252  0.1896606299653674
  0.1605981636263068  0.0569986352608627  0.0378632347521648
  0.5312043858474906  0.5899048070833398  0.3927186114747718
  0.5868058943950833  0.4377565630559297  0.8027838587433689
  0.1003244889707954  0.7916658704173792  0.0290900381395312
  0.3223085199558599  0.8186568589087707  0.1297716135672509
  0.1601098093297543  0.2146860436612661  0.2697914279971076
  0.5181411904798700  0.6237495853255478  0.1312075131713938
  0.4904076292572609  0.9189513863623798  0.4860965240258177
  0.9879162237085259  0.1088865745266427  0.4100626980896310
  0.1669392232886894  0.0196990717869563  0.1673478923335381
  0.1511370868128283  0.8037769156690940  0.1543198755378227
  0.4740958193611186  0.9203267541153360  0.5091406168944844
  0.4302169212951526  0.7693995862245739  0.6944121324417488
  0.0657356109758477  0.5639620649995725  0.4899149396000242
  0.9699925061595021  0.9278135135173922  0.1225172516514566
  0.2468276465794242  0.9216231666830734  0.3885890136961874
  0.3183395806371525  0.1255147187414314  0.3652729903678212
  0.4434503391448738  0.2731256291019975  0.2534297392426135
  0.0757597039303211  0.3867102040662224  0.2752676075197728
  0.4379474480429453  0.1927793254010221  0.3766116341975265
  0.2003444806283453  0.6356364408306694  0.7561820875950026
  0.7042023862884329  0.4548695458267341  0.8593861852324371
  0.1330973155254360  0.4224902052868479  0.5179978293955820
  0.9216142379386358  0.7433047826545676  0.3254594242810804
  0.7981950022068172  0.1891263695244061  0.9574056837281032
  0.3542021845006728  0.2937119105373435  0.5791076754571804
  0.6222574240950367  0.2930113915978420  0.9060166747256028
  0.7344752841358962  0.6592591777993045  0.8677189682915383
  0.8239601461925339  0.2816427545925524  0.6405924171647384
  0.8437534812194109  0.9838478965179170  0.1548205920040337
  0.5257615536798136  0.4171999193534038  0.1565273859629031
  0.7789565083092812  0.1954513095887437  0.5332163997664813
  0.6252399866412442  0.5261872928436275  0.0048116472848522
  0.4485292481908087  0.2506523401214228  0.8034391360186033
  0.0371940193815510  0.3593390508643194  0.4644283645326295
  0.7155077175889732  0.6620967739332628  0.8458821381234235
  0.9004138203226438  0.6141742958302989  0.5736817019340907
  0.7888474360492851  0.7221167973776013  0.8798081729766238
  0.2484905446321526  0.8833430094218647  0.1624498661995809
  0.8722782826737749  0.1929606295329528  0.2098260189981603
  0.9951483023837326  0.9641279920049081  0.3626251489569549
  0.0136868370535264  0.9548028177743509  0.2817820183351905
  0.3969568320868306  0.6399393813634781  0.7286146469969859
  0.2193994883948606  0.6643204262133717  0.3048844597459952
  0.5813488904931373  0.3693204204766158  0.6353965731777035
  0.8392626361141931  0.0803685834518709  0.3184329391245517
  0.8537661549999273  0.2298055596259317  0.5077546551451483
  0.2950708305924526  0.2521144693165286  0.0366285763940128
  0.1458646145835478  0.5335479987680356  0.1542165818842415
  0.3004872548518993  0.5255877628313774  0.3537767182972328
  0.7332704646420546  0.0004255507820075  0.6382612150449832
  0.2231670949113986  0.9626025762485130  0.6618808171304019
  0.7764000626649955  0.7310502354751578  0.6109508387041729
  0.8255022987217846  0.1883191127588395  0.2237628974565392
  0.8064005335593032  0.3200938903609964  0.2883965164901738
  0.3345962174350241  0.2241051319184319  0.1687263350069599
  0.2521798663565181  0.1008836531399719  0.8718313270469570
  0.3640826055785306  0.7643711958701781  0.6647939214550397
  0.4126574269486921  0.8421044894393450  0.5648094388559211
  0.4541459559241043  0.3193742062068045  0.9802375414152661
  0.3000038152886703  0.8532441804869494  0.9641603246000076
  0.1005187688031336  0.8976815794490036  0.6388352833343165
  0.9519925005419995  0.3169510835933478  0.5076841980029213
  0.1932772698141802  0.2803963550133479  0.3586049534423343
  0.9753735233575298  0.7098422345105661  0.8064440949570258
  0.0592820151322952  0.8784889747983307  0.3790270955000276
  0.1538215365754792  0.0393314809997108  0.6437009545353045
  0.7302974113954730  0.5856031633878446  0.5263579139209220
  0.0821446041582988  0.9548771370716483  0.3336900457865988
  0.7928916498342352  0.5922758968716499  0.9379360087227095
  0.4945464071138772  0.0384450522260359  0.7005342602867495
  0.2032272875754501  0.0734230943504843  0.1003447940154473
  0.5055872750108326  0.9334886965552481  0.2903947120667609
  0.7901223928701168  0.6943118310411726  0.3236253300963676
  0.5019918848833661  0.4380923820466784  0.7730551572818638
  0.3392502604113673  0.5732894139743289  0.7806050197428439
  0.8379008052042053  0.7748771227416956  0.8820397066077600
  0.3198833500593879  0.9655564001666999  0.7212087269725180
  0.2576147368410767  0.6627063617954700  0.0847016781288584
  0.7324687411206608  0.5039396636142716  0.3737270117372495
  0.6082199515317764  0.1536704541236974  0.6452833854355416
  0.8391452734440010  0.4049964391396212  0.2648436940757535
  0.4795831230773444  0.2882788041894627  0.0628823673535142
  0.7548179598145899  0.1168971044382311  0.4747251176349971
  0.1535411473418692  0.7835996113240856  0.9084640328303250
  0.4345943099929807  0.9607565565980486  0.1690186753317748
  0.6573642630771014  0.1474779326934772  0.6414629878346074
  0.8551989579430846  0.2488468535886048  0.2594140470895780
  0.8999503301532730  0.3961990151670560  0.0901828708364165
  0.8107795643052296  0.7814478500719092  0.5114136748873962
  0.1322739327172877  0.6857366091705488  0.8541669517267592
  0.5631309266041575  0.3908138814174316  0.3292151504942492
  0.7965734316060650  0.8539445541445980  0.5337712790710654
  0.5075585932819443  0.2867410499953890  0.0679984781529111
  0.7797625062088058  0.5104978502486517  0.8582185991397245
  0.8633085934322053  0.6522921900983005  0.6755445446495294
  0.8443954975987672  0.3950609208524686  0.3620903163797279
  0.0721245378493392  0.8356729957743537  0.8034405789500937
  0.6895452976959019  0.1801518082854945  0.7389011512776296
  0.1826014776238460  0.7206383796596771  0.0198830867414600
  0.3619996980563844  0.0188173016036408  0.8133121522481374
  0.7259336479693507  0.8493866686088127  0.1918390118122093
  0.7996569598240192  0.9141034888197077  0.5464246419118460
  0.9715330144817517  0.3103317800070543  0.4620345712513408
  0.9379187680121118  0.0228642120561054  0.7183990868479473
  0.5633463638652265  0.1514160563230143  0.9981244889178383
  0.9123142686264311  0.2665168373157882  0.2015627972613193
  0.5888377354482019  0.1574102397703837  0.0082745170446283
  0.2926565278819300  0.1634209458685340  0.7090642399747116
  0.4323271235727869  0.6544858882412866  0.4256305280236791
  0.7433733582646901  0.8955301434791114  0.4562188539164424
  0.3486534330146122  0.2385227267639624  0.5382101812390186
  0.4179792735047684  0.0561889386878736  0.3625284444901054
  0.9185631517544004  0.9850459798853078  0.1368256955901597
  0.4522867909186486  0.6798233985787825  0.2003839897709770
  0.2345781453808102  0.9526112593076779  0.2345487722689648
  0.1761671043912573  0.6275482567208426  0.6835799816139873
  0.8436290999025226  0.7219900059664187  0.9542548323915849
  0.2108131202462822  0.1432776816315524  0.2986944640191639
  0.2615907186740138  0.7074410825349277  0.9419363719456249
  0.0520651668596657  0.0578110259877941  0.0760319124487048
  0.9603923140373378  0.6000538987199883  0.0102064082758987
  0.2217651307209714  0.4767472721189325  0.8882295981228725
  0.9979006388718020  0.2103190644882279  0.1214018674131406
  0.4279740152189102  0.8479074925707212  0.9817473848452566
  0.8524095835416148  0.5590895615575656  0.3956048031230444
  0.3139533532207300  0.9576153649024842  0.1403115681629394
  0.3891123830004057  0.3368340872681611  0.2289219126213565
  0.5324818453761196  0.2351946993280990  0.3611184439029557
  0.3712317868723092  0.9242007119641367  0.3229258750686727
  0.0302482166169671  0.6703281299566823  0.2075206353317234
  0.8982792520997864  0.9162566049148887  0.5717269987175063
  0.7240335239225514  0.3254305510428230  0.0303792769845600
  0.3288424198641303  0.6687852799625958  0.0591868370356051
  0.6041632582841487  0.7948725091385772  0.6784716975154821
  0.8517400861672481  0.0099155627108807  0.6886874219983848
  0.1354197335002984  0.4058120841670818  0.3213746235130544
  0.9356448282459617  0.6464833344714060  0.9054212931357153
  0.7034368778738174  0.5136549306299930  0.7190350749348570
  0.3368291262450702  0.6552775403332142  0.0364246202323415
  0.6330000454107610  0.6466028389418533  0.5902413929541944
  0.6357039943569002  0.5928921102964674  0.0110635889423523
  0.3020901228844994  0.7476471244141804  0.6093034518380153
  0.5400819774959162  0.5262722387441831  0.9147947785077463
  0.4607783373325395  0.4356571684726759  0.6259766695012591
  0.6142715941759919  0.4416561921371328  0.7897954472105471
  0.3142178125903637  0.5102391321687492  0.4540354480627213
  0.6906067328783106  0.2523059556067428  0.0410891800511727
  0.7856851310168387  0.0558692149045769  0.1857962810720538
  0.0600036779477563  0.0434117316958906  0.8704156990269952
  0.4881922091572060  0.5112356741506620  0.7071958420978889
  0.3977910539615033  0.4651906571876693  0.0261273913633964
  0.4539834731938912  0.8518093701258449  0.2922500213525238
  0.3746925217222297  0.0870255321847915  0.1844585004084351
  0.2439976430703071  0.0493062148724597  0.4589839134701783
  0.0344876287612453  0.5891997763391166  0.6841634209417212
  0.2821899798684243  0.1665799817155844  0.7346544495882520
  0.4557319860494234  0.8495034892118815  0.5881755218866421
  0.8956611015413539  0.2391549874193135  0.8697158391768545
  0.1931377285355254  0.8747247534192247  0.1659957931801715
  0.3341503904778053  0.4745166652414935  0.2643120640048063
  0.8713798857017080  0.8390169557979067  0.8472589011845091
  0.8923201632790422  0.9709904842781422  0.4966803683888900
  0.6209871886469270  0.7959662602662321  0.9541454080828344
  0.2825497224435724  0.0786328509344169  0.3023433832409799
  0.7935585843089819  0.9160088852810523  0.9196599747437854
  0.5219388759459805  0.6533661040940051  0.8806525023340851
  0.3178495284203163  0.9640248844398773  0.7493071222693817
  0.0054830571792076  0.5796942398236015  0.8112523274643436
  0.6338175862867111  0.2206949601070504  0.8525102038425584
  0.4799705128023315  0.4078921968664839  0.2293206627305502
  0.3018020062625329  0.0301499560929665  0.7387587539802548
  0.3739343954670051  0.1106381948198784  0.4428834814904986
  0.4297532506514987  0.1243528590100520  0.8965873679456137
  0.3481881433717625  0.8365537155590571  0.8675518688086787
  0.0139784266579431  0.0893107772166669  0.9029747927736014
  0.6994124999613107  0.3030886588556343  0.8363018285629773
  0.8112932255471527  0.1933391732121647  0.0395380525475811
  0.1605691264744282  0.7200786061305691  0.4505610113232235
  0.6730238800751341  0.1632587322240829  0.7794641058379148
  0.9590257837723426  0.7167115493719097  0.0365250654990795
  0.1653167450376005  0.9296131897595986  0.1052125031567581
  0.0355090587111604  0.0509595289731070  0.5867539898719992
  0.4113756388526346  0.1776927626612180  0.6627420388066569
  0.9337212935499495  0.1369046027799736  0.6513271721209780
  0.5345919608117697  0.5865765013274581  0.9362338746309251
  0.1698781264507824  0.4759528460066952  0.8030759681991454
  0.5196385202382856  0.8255221437348438  0.1233116154979242
  0.7469182497572255  0.1396812686829596  0.3815438385687166
  0.6559325901899246  0.8545619481141746  0.1693635093037987
  0.2360088846489717  0.0847241794183693  0.2875763422066741
  0.3365840674319499  0.0850504040091403  0.2150397052338867
  0.1024859073264472  0.1454955999873019  0.2276690071920671
  0.1137468336172496  0.6665969382254351  0.1067079623634550
  0.0175030818663515  0.6240913781851548  0.5470450182816594
  0.1330344358013713  0.8065575576568870  0.1755184045196862
  0.4502788118483353  0.8230307436031040  0.1500683672833253
  0.6476982250523424  0.2187518185839402  0.6935289541579837
  0.5638689822923373  0.2750989197692555  0.2268453618567046
  0.3945460461497753  0.8936337435733350  0.2069076760305842
  0.9527162526271831  0.2594373826105975  0.7267771398784842
  0.5862807998376351  0.9335735603451137  0.3454963577408018
  0.9151934159718449  0.5688507332062046  0.3585382038324086
  0.7117344828498402  0.2405481991093599  0.8268357330422005
  0.8496221453590403  0.0570899870023913  0.1459208509009247
  0.3205299677811267  0.4834817884534211  0.1816518862314438
  0.0408968095888692  0.6848778459084350  0.6153310897151897
  0.9731997486026590  0.6635407055719503  0.1580539453533941
  0.4180252214004022  0.7756767467011050  0.5926000728984817
  0.0543000012655465  0.1785639097098808  0.6416644431154361
  0.8370304857141281  0.6206378492239546  0.5309346701561272
  0.1901266480055298  0.6919572073822471  0.8750972501657529
  0.1719073932187691  0.8555010846699991  0.5009302966334055
  0.7403448427035488  0.8851742139601215  0.2624892667712194
  0.8558708502272030  0.7582531994680458  0.1631779914743589
  0.2249438822828478  0.7230256047330006  0.0830694480555632
  0.1667179156199060  0.7742448078561474  0.7510028232916052
  0.7301015013344753  0.1923463219210914  0.2470710147227816
  0.4955421450683692  0.9300938543834559  0.2637642510563814
  0.6530005817875492  0.5260999652431300  0.0104510555665321
  0.8622206678382769  0.5019185846833177  0.3735781172400255
  0.9250299442309319  0.7109353733646485  0.0021419344194741
  0.8606023772102126  0.5230473037896618  0.3010731666419503
  0.6418143881423515  0.9258870607666240  0.5725317115892735
  0.3539460114739854  0.3141759260314440  0.4500784609636608
  0.2113940217476472  0.3437403101789723  0.1256054773564113
  0.3352440585681443  0.8937891410128201  0.5323333256944347
  0.7568526390250303  0.3298373195906395  0.9125270293002757
  0.4779694571340313  0.9792264218896155  0.8621064838489018
  0.4543452427863593  0.7886330622579787  0.4009796066881604
  0.7203740633628443  0.9841008378795126  0.0208204412507962
  0.6178170178956498  0.1621610530364392  0.4334569303088414
  0.3238873269964184  0.8251483489186608  0.6971026485514400
  0.1525904171618472  0.0854408557439868  0.3043313981342745
  0.1433403829553528  0.6649166683076952  0.5437915424510387
  0.6973800482197343  0.0626377657583639  0.5180886759613952
  0.1818055607549613  0.7940859830231369  0.0012943220000745
  0.1628477624241562  0.5760196516705326  0.3406897124581236
  0.9912733685226169  0.0793528868715074  0.7292714834398584
  0.8542938108333880  0.9799915789657870  0.0097538553998608
  0.5344916009454362  0.9697939133244902  0.8119418663461858
  0.8740837673532903  0.0155504887631375  0.3360037924434647
  0.3018116157915383  0.5803948887036244  0.4737495736992107
  0.0311105834732975  0.1176596017135328  0.6412660817961162
  0.9973460810374942  0.8477408199240686  0.0189677004832896
  0.5498868769279432  0.2256842623903670  0.0114576686029634
  0.8451133160895443  0.4361396485937316  0.4341784501639083
  0.7990167205275854  0.8437671498808175  0.4867173954012950
  0.4081730954135741  0.3120114523137438  0.0017587646356004
  0.8076236155205360  0.1237866155269454  0.8091188029506126
  0.9530512312914377  0.3086367211061120  0.3500512936453597
  0.8652373008435660  0.3144469080559332  0.8491194150439945
  0.8239865903959404  0.4187318037356421  0.6281013019496813
  0.7209655445229624  0.2081463775722700  0.5094423398813148
  0.8373610100097952  0.9988149084859889  0.6360730114440569
  0.6834587181534983  0.1440141941206018  0.6537811095924815
  0.4291622954659472  0.9637912969758353  0.1968528710752125
  0.7046819145700407  0.4397081638075674  0.0622854085593450
  0.9075023842261830  0.7226660007275950  0.1245652269616080
  0.1160885543851883  0.8380449830932524  0.8766610532212651
  0.0413036888232000  0.5267276513750032  0.0091034202419749
  0.8510338575522089  0.2308527508290346  0.3312488642302837
  0.6376068261340516  0.2918946571354170  0.0879936165007954
  0.6222056562649484  0.3084835110453902  0.0162064893080012
  0.8966027059056149  0.1994739589174838  0.7142894095402147
  0.0655094977346498  0.4733604143103795  0.0653461273807305
  0.6632218227401082  0.0397978513137643  0.0122838834586179
  0.2535267743080902  0.7430071229909585  0.5997271784775987
  0.3579481074913712  0.7042096507423827  0.0184429007489995
  0.9844375592131803  0.6418173562584589  0.7376742506803092
  0.4474278759414155  0.7177529142282293  0.5133995634608142
  0.2632888608786579  0.4733768179529090  0.0355485123128785
  0.1271921438497700  0.2174279966767880  0.1327261889453620
  0.7605259187298361  0.0665541748491196  0.6222241518065846
  0.2253676335850091  0.3010773453776373  0.6849884951800733
  0.2618390183503540  0.3332503168216707  0.3416190405007194
  0.4351560446769824  0.2470289638614591  0.9917072795790055
  0.5223928561085285  0.8615566105969756  0.4133881681853304
  0.5462379450811714  0.2950759561573915  0.8482844467045764
  0.1367727525660553  0.4096035731612458  0.3710632139089865
  0.7864840822300780  0.2053989873179605  0.7320509041700655
  0.3130577888544382  0.6968105790723104  0.7840526740706251
  0.1054075910908060  0.1075427085282897  0.6475364047173824
  0.5374151779785697  0.5714332274158221  0.0834564581134191
  0.0405081182090404  0.0450352774389024  0.0304973039706926
  0.8167592717584817  0.7045236896038661  0.4200158631512351
  0.5985060195943216  0.7825263969429780  0.0499626910646743
  0.4402065661052496  0.0361514995924848  0.8419352595610808
  0.0305771572111476  0.5109275334806378  0.8305210401905011
  0.5575193815910942  0.2388622023817997  0.3741383754725540
  0.4743083171224671  0.5542936841025814  0.0597631322492050
  0.1065066721291475  0.8815446146263801  0.2110495467431220
  0.0351020205571018  0.1458057422023242  0.2816888229975626
  0.8244472702252179  0.1345718512276233  0.7647242720784866
  0.4220329080269774  0.1880878130544509  0.8516324405600246
  0.3588842554187991  0.2758752452825327  0.2367887851266779
  0.5798701939248909  0.6711874644191581  0.2554351134033647
  0.7173320084030154  0.1013598750297072  0.8496704745882724
  0.0647592671649410  0.2224441482079526  0.0353285315953792
  0.5125264561993585  0.8993817270970430  0.1565192297926543
  0.6664664328434109  0.8703093414902183  0.6522898298769276
  0.9217456174654944  0.1932224743720151  0.7859022777647867
  0.3060197700837234  0.4129753651335960  0.3714653188338952
  0.7285512451743263  0.6424774079258151  0.1090464294428566
  0.3544459966911376  0.0330425204839607  0.6288367881791311
  0.9979655780153546  0.0405436339956571  0.4209530531663814
  0.0283777272337707  0.5795266850023892  0.7679470555538664
  0.1942889525157672  0.8846235188836277  0.6019428378582704
  0.3309898648592776  0.0147785963814660  0.2416060680209539
  0.6132044705542353  0.4425004225678378  0.8680486801411370
  0.2643972851715233  0.1752419116489614  0.9082348351875242
  0.5527887604717423  0.3805137666444235  0.4841456686265406
  0.4095693798395928  0.8546882129652466  0.4636503679382190
  0.4038226443242342  0.1984963907842806  0.3412241542414052
  0.5410038983676096  0.1005700918902749  0.8072737986005761
  0.5843504556211431  0.6745716207046139  0.7658101641999915
  0.7059038390136592  0.7880104321321081  0.4473890511014455
  0.2744324152235625  0.2793143407564065  0.2192139356891654
  0.9794024232029696  0.7329420090014306  0.1943894824024478
  0.5452196732761495  0.9366036746340750  0.3191128203857667
  0.6824005058024977  0.2145205977677315  0.6581020921925353
  0.0483745537893373  0.5100400388329186  0.7333360851710921
  0.0351452839035659  0.6626477134349467  0.0759027666734039
  0.3480773405987743  0.4075268114702209  0.5856561795371990
  0.3093163841381086  0.8939872671223189  0.7938192680905369
  0.9562407243587278  0.8446169185341198  0.8975425104333846
  0.1070166552905346  0.7908868892085918  0.0008473658083794
  0.7506507363386152  0.6448546237183576  0.4231922623914172
  0.0600116579494809  0.1440379525470792  0.0745358676523115
  0.4441748462055854  0.2394235927950537  0.0418050742770920
  0.7451528608540112  0.7813488384112569  0.0905104874292471
  0.7408871535534011  0.8458666847455221  0.4799581471689793
  0.7220377583394704  0.5980647778843916  0.9627218341322111
  0.2202839378479699  0.1389395220185090  0.3526256297212258
  0.4833019764342462  0.7894962341024333  0.4817160746117209
  0.7851734657183147  0.1884432994756837  0.2639321822289195
  0.2221793716770058  0.1350031372316658  0.3801915792900359
  0.5960640994921721  0.5273118027101024  0.9246172540577620
  0.4036638724891575  0.9551168815709854  0.2055582344764526
  0.2577529878966173  0.7295971770721859  0.3414075508338188
  0.9167067693571821  0.5208125405063100  0.3115239807379056
  0.3257301685423447  0.6971452642882515  0.8305256615794130
  0.1086760356936661  0.8603550471105460  0.1172970068912926
  0.5284201461764411  0.8450331771227773  0.0015882506758170
  0.1903789892184413  0.5121639133709255  0.4097759314885115
  0.8378126392905936  0.2811563993022005  0.5576668919057867
  0.7011681715845000  0.7939418137694074  0.6454704755317561
  0.6796618350806661  0.9138405287830712  0.0549298476455162
  0.8730652949459176  0.8379625017145789  0.7974668465885099
  0.4389688384174179  0.5947715004094285  0.3117505991406674
  0.2105050832608475  0.5907511516419913  0.5652637318071326
  0.6429516023852494  0.8488384007466010  0.1452399403485800
  0.5040187435020543  0.3043370084838981  0.4604489618936819
  0.1995200247610012  0.9638950772151202  0.5320157725467131
  0.7845942353489586  0.3292550146311352  0.1074559105108020
  0.2007118042891677  0.5354331177822140  0.0882655505678235
  0.7919797990536073  0.9247538576288706  0.0448378256792745
  0.3019055704713304  0.3010287644388231  0.8454489139760414
  0.4243948449721595  0.2949725339263600  0.0514108617991062
  0.4673077503649264  0.4391558341038554  0.6751926858056266
  0.0079064601385559  0.3942432169155732  0.2533170763542960
  0.3925309012355354  0.0818781141966785  0.2060260268533843
  0.7350535316157850  0.9011579192915180  0.2173052920481933
  0.3271156731993479  0.3672983199380862  0.6516435829479367
  0.6736835237809597  0.2489564698528831  0.9935930447395708
  0.2906477030878735  0.0301322412779804  0.0798619738828880
  0.1619867414353735  0.3219104386162163  0.8713785491738102
  0.5299997789557782  0.7422724218659283  0.2525710747616108
  0.2044893541663606  0.1274999227977401  0.4413923841454525
  0.5751386214276069  0.3507290532188186  0.1533961099961219
  0.9327329458360549  0.3671224395137898  0.0180633609679166
  0.2603158150248121  0.9319273271203574  0.8808745193886501
  0.1982668662647740  0.6965887837356182  0.7989222935053887
  0.6762534865588253  0.9570516647357838  0.8807706483620656
  0.1905875428887845  0.2812146679970612  0.1989851282141178
  0.2751717839367012  0.9514228872976607  0.6377954628128530
  0.0769862356286634  0.5127209314153781  0.3908140481234028
  0.4312141627794565  0.9899835738009701  0.3437565330760486
  0.9214364674645554  0.1564303757518872  0.3658699471579189
  0.4663537901038682  0.3764282859236508  0.5255461306848525
  0.9182299623874574  0.5119430030945888  0.8090751282201022
  0.4209949663593004  0.9695729601818739  0.0674160893594649
  0.2883159287496990  0.2219857029277802  0.1810196503676304
  0.8660459193717691  0.8916921428149321  0.7507816178860035
  0.2928693132938452  0.9580783384377528  0.7912049768408909
  0.6642985199637489  0.5965431368625956  0.9622647976070965
  0.6941704396835698  0.9839774596350302  0.0312380981839552
  0.7297198205852624  0.0087706692782991  0.7120365064945219
  0.6260131839116938  0.5860990990351487  0.6923712641704085
  0.8405558280783458  0.9464014614023286  0.3654647519547354
  0.9956952108531448  0.8428698625051323  0.5858615487696950
  0.3369875778055834  0.9552113212908171  0.1563951188462187
  0.9523511126513948  0.0245065435109114  0.3151348907393820
  0.0035901275622137  0.9970748394004368  0.1762039254385496
  0.7370572060930807  0.6196486761848703  0.1988938118939417
  0.0519977559718774  0.2180857755156132  0.2382436328261739
  0.9144297335649854  0.6213264378469858  0.4700129643242166
  0.1113277330194559  0.9618018574118075  0.8421603548694918
  0.6999474014793167  0.5152381298911521  0.5685040348756901
  0.9470004208265345  0.3236279523042156  0.6409896962854407
  0.1465436549926607  0.2742151444304175  0.3128285371023322
  0.6665826447281253  0.7222785420668184  0.1525079716353588
  0.7464815622926891  0.9387842187243646  0.7137783091778597
  0.1039307679186605  0.1520479781768642  0.4772351811333291
  0.2513974658440209  0.0769324470649990  0.0884761388033569
  0.9412432803156198  0.2278850865770502  0.8773356076603952
  0.7548421025674679  0.4434792844071387  0.8441530753227018
  0.3581188030600113  0.0985214837768110  0.7075301312468263
  0.4768002712447962  0.2797083943024358  0.6003094354031393
  0.1531970268657167  0.1687149786368528  0.7258480863936858
  0.5700212423718197  0.0952431992075107  0.8447527356052723
  0.1631126913407971  0.1283569929210908  0.4685635276178091
  0.8403232631177794  0.7680925350376046  0.9871789517319427
  0.6553785641006922  0.8046033889614452  0.8884854098353826
  0.9229712236668359  0.9812608214306615  0.0869654636836880
  0.6104249277899877  0.8011961893991784  0.2543218336405458
  0.9476666409895241  0.2683294048738128  0.0600474643042489
  0.2636586994512275  0.6509394623897768  0.4249348947603619
  0.2220836685569043  0.7756960209134918  0.8378745717815145
  0.9433789357352004  0.3005863098925950  0.8771107047428497
  0.4231168189949544  0.8370731461345754  0.7151117762779511
  0.2041845284000048  0.6935688463736294  0.8267498285167415
  0.5186761018568204  0.1151208242156930  0.4044247378899051
  0.9029677313227356  0.7070320102064888  0.1001697165242966
  0.1581403748401160  0.7367416223397510  0.1832238745162416
  0.6965577125780414  0.4510770268039307  0.0386452533176973
  0.2432546473079379  0.9075622294974871  0.4739605262749455
  0.3227694892788169  0.0327285711947677  0.5904148533600403
  0.7270048282439971  0.1815652105746452  0.3486952707203752
  0.0797971137709937  0.1111390814754585  0.6355269841233513
  0.5406753221534056  0.0800755504906680  0.6045722257786335
  0.4743606180164797  0.6425716421744752  0.5919383064396841
  0.4542877152739141  0.0680178778269108  0.2724028915018470
  0.2487946231984556  0.8823802016846202  0.2167990295144738
  0.4740605430798713  0.1316087280727823  0.5217530866560165
  0.0974774600732415  0.0099300998019295  0.1622836815753676
  0.3247051438565526  0.7689633367629887  0.7314003745402483
  0.3835908879803902  0.5098361994291721  0.6401579003912297
  0.8051125553289080  0.1156632427881015  0.4957322561839909
  0.8229708967760199  0.2050849333962071  0.7007132579421893
  0.9191637957065858  0.7741740202197738  0.9567558575273876
  0.5227039254308206  0.9079788456541181  0.7312126691940791
  0.3662771126234387  0.7344284822570202  0.3068699875865406
  0.2961823090365593  0.7766247223317483  0.8599306614017906
  0.6727294137602312  0.3123263059425168  0.4354944738255396
  0.1631766857010048  0.1001752554088581  0.7253247351421641
  0.2496004121323243  0.5517847648274072  0.8745326751631828
  0.0181466110576638  0.2635763493759744  0.3066913666965455
  0.1075000075624371  0.8731310436985150  0.1636926877422320
  0.1131982079764715  0.7991760603362231  0.1231398296942356
  0.4999961543245313  0.3398961190247772  0.2140728649806869
  0.5605739847263340  0.8325731956734039  0.0978705725345193
  0.7222428313621224  0.5956049446512712  0.8638734115768141
  0.8886651648804801  0.4569928761801145  0.0822234346768085
  0.0188780898564270  0.6903981796920120  0.5199767057227715
  0.3588112646180340  0.7706547398037613  0.7987380271459379
  0.5156813783551636  0.5893374190693578  0.4163624167318684
  0.0918483179046363  0.6482716338173776  0.4426274493301219
  0.4201934823482703  0.3716922692285969  0.5423027317515904
  0.7893489290803362  0.9877451533150512  0.0473873998483246
  0.1078041679475658  0.4726461099980903  0.6201010083832975
  0.9885291953249331  0.2950048718348510  0.7335660563854972
  0.5934895230882801  0.2230968847564841  0.7093782639524966
  0.6076467774026670  0.7809391859301347  0.0773479826047951
  0.8686281702908046  0.4532016031064431  0.9349447917026602
  0.8531611835758404  0.6562639716721950  0.3481472273037263
  0.1092321092303384  0.5268379739784520  0.1211176167234001
  0.1692447481883787  0.3413125710681859  0.5127576212774356
  0.1476733626505844  0.7214518853159099  0.9847514700084991
  0.9776641946145431  0.6531376762564949  0.3451038322777314
  0.7147819794037518  0.8022718089140463  0.4016242202988674
  0.0034238507705820  0.4400373493527372  0.7908026815291885
  0.2371257776453052  0.6050544829895298  0.1759628693037847
  0.9663921190910553  0.4428580575737225  0.8231755669710465
  0.3024297681580191  0.2784664082399195  0.2253526251811599
  0.0591416274932350  0.9189627273949936  0.0277251832713834
  0.8617214808439660  0.1778379634665704  0.2546550566234375
  0.8788318750247925  0.5282707333751206  0.2800037094851489
  0.1273428601918218  0.6574804093235749  0.3500093163634219
  0.9451908621056145  0.9755199557002547  0.8180174315936241
  0.7556375782488939  0.1213698332558641  0.9732113488531784
  0.0186418791431475  0.6393851395787650  0.8071839801234497
  0.4579501139862546  0.5567204896493964  0.0821745517652468
  0.5935986499824065  0.0873790857418382  0.6606275770211697
  0.2865218694554327  0.7346251554278602  0.5644000190699854
  0.3676560651711644  0.3657549839971877  0.6255622956505402
  0.3866782126549267  0.8299246451170165  0.7920116617190281
  0.4112439527235045  0.7557096403646789  0.1794888495601866
  0.7197262705370694  0.0658749417790334  0.6867293699783001
  0.2472546056126785  0.7507056266587296  0.6263181492587896
  0.8502335345599619  0.4954044730033570  0.6545183814496507
  0.2539067027886118  0.7868707987653031  0.9974550628977134
  0.1370333683439561  0.8115773386635113  0.2497602702714903
  0.5322486342455355  0.6138357729732131  0.1745528454694054
  0.4050597366541467  0.4640133390644839  0.3270673189139779
  0.7528234919290356  0.5690645943197117  0.1586739401479912
  0.3486529726079526  0.0495068995730055  0.3863564680089365
  0.3512701982152411  0.1067730907043156  0.5411888908487476
  0.5972496465245485  0.5086545433467251  0.5762074092146632
  0.5412413227579949  0.7774016647688451  0.6434266231979310
  0.7865328569913419  0.4720530471914258  0.6616118707331874
  0.4432889165917346  0.9234024695858050  0.3350340362662116
  0.2847620611802161  0.0275543330887910  0.6562578834588901
  0.6240701887422639  0.1622261795951201  0.0749507443245733
  0.5612071337161433  0.4627837573532889  0.3035592454123995
  0.8855345008637971  0.2615609924509716  0.5706898756763011
  0.6229371443418130  0.3767543004169415  0.4620993328223242
  0.6708218802813681  0.3358988338991075  0.2376205008580284
  0.9932545815473069  0.9689409791942549  0.6773172541237603
  0.9963355077663395  0.1711960124221925  0.9987546852380718
  0.4105100755145730  0.4406124637256129  0.6836846622854634
  0.1466252303648991  0.6326269216002639  0.7602408815269880
  0.5668012782558189  0.2269518319296144  0.1049967790871550
  0.4605412677889212  0.7749205716458303  0.8041702814291533
  0.3928990870718454  0.1733456263344132  0.6412701620857193
  0.6783828733330918  0.5606665482525569  0.1750348066319430
  0.0622192082311074  0.4854849478110663  0.5654019325787565
  0.8872417778283223  0.5934738716324491  0.9673916955218261
  0.6947909918684456  0.6877226817594836  0.2079974480345408
  0.6960787978788713  0.3592753736723990  0.1131929846725589
  0.7980006926807912  0.1903400075764975  0.2162116281373561
  0.3556689983270405  0.8979584740090560  0.7610489912999718
  0.4669342376484434  0.8465748907892556  0.9071305436854470
  0.9020151786447029  0.1237252717204467  0.1697291224913183
  0.7454186713119991  0.5293067076895979  0.9759654040502294
  0.0315258346445970  0.5919767307125023  0.3523556171579656
  0.4891490852994284  0.0712651194296469  0.5812414204187780
  0.0967770752940523  0.0992682527978303  0.8040216554775123
  0.8776845858692257  0.6749856604037774  0.1729032038223870
  0.3077939532095054  0.2400059571491579  0.5148021930729344
  0.8197195979476500  0.1924778690404908  0.0950922007353428
  0.7616751037912833  0.4260951185170788  0.7125612946653193
  0.4365256945042995  0.1219731152006970  0.9520032861023072
  0.1062797829732046  0.2188205868736992  0.1517348018471903
  0.9027420793536511  0.2689737846146376  0.6135133186929607
  0.4043493166752527  0.3658344168556245  0.5639531411833766
  0.6141107533242197  0.9232670715298834  0.5670758874209788
  0.5925548316298727  0.9617965244058808  0.7316160106311119
  0.4984535267499552  0.0789815404689090  0.2391564132502764
  0.4679356676848819  0.0830521826635008  0.2003846595316771
  0.2319189163525243  0.5169240808739740  0.5164940102045633
  0.9040981494116654  0.0875208445998864  0.3557829902820224
  0.8976756817435833  0.2460993571926005  0.0044564766326091
  0.3669767787274983  0.8889841013142697  0.1671602056252340
  0.5634592081040467  0.4377519287427327  0.6235620919942959
  0.0629190097165149  0.2769869031370947  0.4860659519148675
  0.6056697391705587  0.8041838586418781  0.8978160541706530
  0.6246528699599971  0.8724569032879064  0.6736654390186061
  0.1042388598696156  0.4449235383373301  0.7970766438443245
  0.5107776884070097  0.1989348013293098  0.8937790344756702
  0.5223797414833281  0.0719088232586671  0.4362335012493552
  0.7199704764020451  0.2827170831419316  0.5918899461899734
  0.6644765616233788  0.2465697008274020  0.0513958388782210
  0.7764560858330286  0.3901226417161927  0.9005884907116328
  0.2480902937476248  0.7038139886604438  0.9892420551767338
  0.3677450040452129  0.4826581394853687  0.1720881824075648
  0.6307924791925698  0.5075063713494593  0.4568883560912851
  0.5313937218541468  0.2276672855825089  0.0719429091427134
  0.6298001504907368  0.8203631481679948  0.7924472486667256
  0.1753054950695619  0.4194274173758856  0.5422283185721941
  0.0789905444842610  0.6553938165349344  0.3578670122252794
  0.1284292379809513  0.2847556323195042  0.0814325599188473
  0.9587301156581535  0.4090330521251408  0.0857307780701635
  0.8125907323405055  0.2566908104170080  0.0281649180458939
  0.1684878002182479  0.1941532522413411  0.5229941440145135
  0.2560287734760369  0.9488498829170682  0.6163600561853320
  0.6036865818388377  0.4542121021650567  0.9422689596378466
  0.3161467862712918  0.6325866099990827  0.6687339761538762
  0.3843291743684808  0.0250107608307745  0.7990548608319858
  0.4565859176053204  0.7752812446817133  0.6254264937525189
  0.4991140820185934  0.1420113390092032  0.5640392962177749
  0.8406000168406973  0.1896948915707537  0.0764667234199119
  0.9561251946147534  0.6655675024166625  0.2041600639234516
  0.4609089837759694  0.2664238459270093  0.9534858461027026
  0.1910017264571541  0.1240509332333291  0.4660260323885898
  0.8339472329188035  0.6464615833488400  0.8905973765518346
  0.9776581127784516  0.3746048618242301  0.7638768324020352
  0.2771236548551063  0.9812041889429837  0.0544402962625255
  0.1474119581865400  0.4913419652537216  0.7275498256833820
  0.9110111209150085  0.4000044154801651  0.2851480528424102
  0.9285165451856437  0.3914874361064976  0.3580847706278766
  0.0750301924821470  0.7535499296238233  0.5996557393403297
  0.5851387113864907  0.8325014729759944  0.7760438351433044
  0.6823634663345417  0.8732511597187965  0.9268002911623244
  0.9244923474194993  0.6877308470890712  0.4898839626666282
  0.5079486441387393  0.2861842945871705  0.1423502936810167
  0.7133278818460347  0.0606508550824562  0.4158795797900791
  0.0424460676515951  0.5328832735779676  0.0845524617777493
  0.6530605304911572  0.0410261226535920  0.0390779373678063
  0.4477805362670988  0.5909010320023753  0.3865896898273378
  0.1115008730800978  0.3897859131925813  0.9329934513180768
  0.1574819661813883  0.1749489445672859  0.6508441588208956
  0.3765091437059516  0.1685833057964759  0.6956983956413932
  0.7732277415988122  0.9309588033807348  0.6723388939815250
  0.8272974371628975  0.5919853209738835  0.2719828100554555
  0.4422440242392481  0.6006453983312602  0.2627892181588312
  0.3102572051045917  0.6423947828159592  0.9667590442139880
  0.2407179702509452  0.2362802363482414  0.6069719871848916
  0.4743733583906967  0.7191164431014360  0.5044753247879219
  0.4249669498358112  0.3643061163308742  0.6166021780853280
  0.8235325947326465  0.7657672211177828  0.3727289680905725
  0.1660459006762710  0.1006778403788569  0.7534688312858392
  0.9212128269253409  0.9222101618973675  0.0639705344970021
  0.6045203909698110  0.0291250488813154  0.8266076296224467
  0.7846503870256366  0.1193959639854686  0.5137345580429244
  0.7498330421821361  0.8125909694492246  0.3585502382818517
  0.3527722169259548  0.1534007841464310  0.9443141126140844
  0.5529335573993474  0.5066143463796159  0.6686066073887871
  0.4064679560535708  0.7093028063957395  0.9048891840916762
  0.4841747673871272  0.1404175947438895  0.3074536453580696
  0.3384074793837126  0.3113252919007549  0.4967574950811166
  0.1463080988753959  0.8799283624026792  0.2849030791486492
  0.7014115423835654  0.0449043881083214  0.9783465436239772
  0.2463632084644315  0.1177097633677956  0.9985230566565243
  0.1490917090385279  0.3399033177621110  0.4006001497754346
  0.9595841440350009  0.3213161407025939  0.5643975480498084
  0.5207972422356961  0.6481689186068823  0.9553900807863432
  0.9035097053935849  0.8693354135226720  0.6385519196466282
  0.5664002874204818  0.4457187642387083  0.5233593038810566
  0.5029847145641079  0.7649038290423203  0.1494998382476575
  0.1496842466259092  0.6616866575446029  0.0140012033221388
  0.9110453547265847  0.8484181226995383  0.0673382490173721
  0.2006999489715897  0.7709720297343178  0.7152269883452348
  0.1150253831822925  0.3283253199502462  0.3031389214733548
  0.7505113486383069  0.1917322000193175  0.2273261806984791
  0.1978944924971145  0.5703065971419156  0.7758494963204230
  0.2911068046197066  0.2369614133299498  0.5369757453328048
  0.3620156043039632  0.6104681890212034  0.2072105713992505
  0.5593397942769019  0.9654015383671743  0.1400475068904480
  0.6701054877438714  0.2928743384357917  0.7098401583469618
  0.2020207617641072  0.7890853795959394  0.3583558874345412
  0.5814657830196973  0.8546542696816609  0.5091340535602752
  0.3996768678876086  0.8265868116485989  0.2028282121050007
  0.4581754635262328  0.5052474324866114  0.6278122667396075
  0.4864568461716742  0.6528486397347620  0.4914713115583614
  0.6964326619142206  0.1173426984013622  0.0826798705816903
  0.4564020037359769  0.9976141892922885  0.2233333788373870
  0.9352687128762581  0.7732232213158994  0.7702229613323999
  0.2713736815803114  0.9453310597519494  0.5931907970261701
  0.2793747318919192  0.6486607697581955  0.4743176498147164
  0.3498280438603695  0.2453995424564274  0.9148777631010090
  0.6930233260296436  0.7817343089011866  0.0986650183475118
  0.8870091970122289  0.6712684736849576  0.2291285865044083
  0.6474149027337450  0.8021242113985517  0.2876666476731785
  0.4405420819439142  0.1941184539254744  0.9239731554934342
  0.4926895037562641  0.4348135197821681  0.8850124180314466
  0.9439365418988408  0.9674500740774122  0.4295320183743666
  0.9443650856539609  0.4271904050024933  0.0468181232939819
  0.4170564689308277  0.2031346170502345  0.2935467117362568
  0.3037331853399615  0.2342466005318982  0.5617598993466635
  0.7446556575396484  0.8820429606888984  0.4096401636597060
  0.6285255587735504  0.7343902793458971  0.7095421148354315
  0.2812648638891221  0.5094883468380706  0.7225541162940478
  0.5697321485317405  0.4190600655723791  0.1320705840044351
  0.3596265228767837  0.2853495183601686  0.1632260725569078
  0.3759978494883826  0.0148648397295971  0.8621873962322189
  0.9600408551334759  0.7350416988074675  0.2153633206979390
  0.8618373093655721  0.9533053550852170  0.4185557948454445
  0.9098343001448428  0.7439550271385743  0.6783874082716637
  0.5803213091521195  0.5873908420658460  0.8135195796620786
  0.4520688334518891  0.9056439929716334  0.7523851977529308
  0.0291230630271060  0.9054907545521436  0.6601561392381536
  0.1645788340000781  0.8115327729560926  0.2547710382541827
  0.1608802159682551  0.4998073145106351  0.1333096264694316
  0.3521265921084160  0.0436513858043854  0.4137611319063499
  0.5997548917591511  0.2209673320424713  0.6819346849944190
  0.6702649964318855  0.5288439263606082  0.9127112916515835
  0.0471289320391786  0.4218652983818215  0.0389250732057269
  0.8005364064955856  0.6446546944940075  0.1147187714934812
  0.6897964943738495  0.5129371202736611  0.5418694454779913
  0.6713745395263108  0.4145017961686041  0.2774208400727750
  0.7734860553304692  0.6515738302845573  0.9107027871311271
  0.8984627639666755  0.1237648812527611  0.1416988405750458
  0.7918464330380984  0.7905856774130303  0.7424308302484182
  0.4724100592513426  0.4763130148739217  0.0273897690366980
  0.1071000254960666  0.3536414928249880  0.0179129678059735
  0.9433602809693077  0.7147713052040277  0.9804643421885356
  0.7844857837788859  0.0573781048140629  0.0335981258663358
  0.4159361508321466  0.1276858199884159  0.3560382789318673
  0.4034104193528114  0.5106272004827657  0.6930484118780781
  0.4827509737643617  0.4071070261997408  0.8850955348934293
  0.1629434884237089  0.8842086884182736  0.2121435192809724
  0.1643693194159699  0.2624012848122010  0.5520951342044630
  0.4790713201521492  0.9119754854956551  0.0033251748759246
  0.8634928788934744  0.6353136543427639  0.4051495564466846
  0.5481517681766589  0.5259465200099975  0.8663809619694671
  0.7805716182215625  0.1919633057366187  0.0028104708923762
  0.0399005124423754  0.2892110727516476  0.2129529176719400
  0.8738886879564077  0.3965239872028379  0.1400737828732930
  0.7439361435712603  0.8795035028053543  0.3602706535139893
  0.5957701743299051  0.1566058480105951  0.9054367765922345
  0.4655157368760076  0.7231428695743215  0.4293853103191647
  0.9419520278098068  0.1754129436140231  0.9304046418377345
  0.0164506240770414  0.7410780513428191  0.2265169346169466
  0.6461439092412691  0.2677592690152208  0.2377891454800254
  0.0723123948897421  0.3216566392716357  0.6596230401827864
  0.8825018016339140  0.9778568239619185  0.0115396899192121
  0.6660976321019182  0.2363874975639607  0.9189424069177445
  0.6534338606157034  0.0565514245980393  0.1706567516824915
  0.7180680465621109  0.5812234021963408  0.5015433741747640
  0.8244389189478317  0.7009640133999288  0.4945379798668514
  0.4653425156730267  0.7815710035293745  0.5780538324473318
  0.0573464590551001  0.9837185786449437  0.0903825777652562
  0.8337433769713698  0.7190754663916905  0.7986690249596302
  0.6731036189278407  0.5439125988833904  0.2189689118936166
  0.8044309610759854  0.1368754757253957  0.6233738695976759
  0.5158010465951094  0.1998558442876245  0.9238307622042025
  0.5812195135120053  0.0343727950025895  0.1337475986630453
  0.3408086401294151  0.3800980771159050  0.8424954877325366
  0.0874565625519378  0.3124651616525332  0.9747152341785571
  0.8476488112538439  0.5541771372075542  0.5203282980251630
  0.1804158186709879  0.0852969439158663  0.2988710327399284
  0.0429688835327354  0.2652734243589262  0.5816664899991686
  0.1585218077069141  0.6517615444210438  0.3880946874124068
  0.4873813433769983  0.5381024555836498  0.2853716130320412
  0.4384862086037316  0.3980393474391463  0.8624172431941901
  0.2933800986831742  0.8531864871421619  0.9172247172228664
  0.5405209710162185  0.4656468295858006  0.9988533837560778
  0.9300004851152297  0.9854724637424923  0.1630309036476051
  0.7726109023914596  0.1941497743661867  0.1049872635551981
  0.5865848866639797  0.6425072797257444  0.0667849715671493
  0.1332280005068218  0.5275593209225540  0.9763288684722714
  0.9238244217835563  0.3963577250352183  0.5502186278542938
  0.1240682513476863  0.4063906929575005  0.3962763233979019
  0.3270035784544320  0.3007854331708122  0.5711681874246112
  0.6245484268126770  0.9110764792569022  0.0575068651690683
  0.7183847547565902  0.7802361488992030  0.1824547509484605
  0.2703283130039215  0.7867624818460193  0.9499358899363325
  0.5272740699629482  0.2323985915150233  0.7797401105750026
  0.2999023336211271  0.1960936499282061  0.4396730952015059
  0.1972648664267088  0.3449595541515219  0.3935947093738772
  0.2737639686783173  0.0243834709778271  0.8317353812716414
  0.5001246572730903  0.5444375221388771  0.0648576149084128
  0.3494783199131317  0.5629968510797201  0.9449245988909750
  0.6864780467804350  0.9505277032750975  0.7855632529948613
  0.1186234489982699  0.9452141417757892  0.2009088005877825
  0.3633411387651586  0.9068753804229960  0.4602127239476516
  0.2372268891502961  0.0511120715413299  0.8907415815217152
  0.9825040564353934  0.9215827229347533  0.9853024654224886
  0.0906908481812498  0.3542952611735992  0.4857138285335247
  0.6960706252934727  0.9552673011382263  0.8107482493685745
  0.7659018937622373  0.3425441614124481  0.6788644794997063
  0.9957149563404303  0.0375395548801486  0.0134337238187230
  0.4129864307209127  0.7796637521939277  0.9195286359130262
  0.4075765907614339  0.0309654027987099  0.1356375619526186
  0.1911198691919401  0.8840734868191188  0.2128715964580341
  0.2709691910917559  0.0654454770233214  0.9749554822716874
  0.8819879809303488  0.6157051499996250  0.5509599539481362
  0.8971433401879101  0.8488835970153655  0.9940552698058358
  0.7969410345602841  0.0524928488069046  0.7814087746684272
  0.0119806975156060  0.3647125941959882  0.8634505364547317
  0.9584443035192863  0.0862077359137459  0.2677481347992350
  0.8066358134393200  0.5047480617434884  0.3631409709117975
  0.1837254364088068  0.6653111022531273  0.0806698391591471
  0.9813380129272529  0.1865455049266308  0.6271365659715713
  0.3215906892206114  0.5895171914598726  0.4020742846591838
  0.8598770026488458  0.7753308481931789  0.7691865357080817
  0.0632617344099518  0.8224455707473806  0.3569687092137960
  0.3264389459691559  0.6461542300466301  0.4918630574376128
  0.3495528175739450  0.2798453852596253  0.2104134323997070
  0.1340196534964113  0.3967733900858226  0.8806753627778483
  0.1505732499937087  0.9146189071543485  0.9344887852703040
  0.1671331587713561  0.0449900596690266  0.9359311255594794
  0.4274565794142703  0.1645685670133558  0.0717454908635431
  0.7488964000836754  0.2617019024417465  0.1594184707521850
  0.3539627637241636  0.5699909224300317  0.5258166182130616
  0.4300119123959318  0.5057569632936282  0.6231491049610648
  0.8184297907510615  0.6950752304529775  0.2289765416067639
  0.4903869366089091  0.2764988266141065  0.2384285444966522
  0.8923420340328869  0.4467277359572761  0.8860813216387250
  0.8927123663650521  0.9247727914911837  0.1115236894970145
  0.8089930818342704  0.7105374624307724  0.1356053284663831
  0.8391459989920824  0.5572536341320923  0.4934585348434079
  0.7387465812062917  0.1197450199037831  0.2336361040728671
  0.0885406808907081  0.5792017359820102  0.4362601654208525
  0.2653700372916876  0.9875253722429984  0.3985076826748164
  0.5469421995435521  0.8371903590377848  0.8059829320486636
  0.6073282570444678  0.1559519489630747  0.1209202395276959
  0.5399186996561688  0.3028298550275050  0.7727802427596796
  0.6402166879681043  0.7289875936355205  0.3221973569958779
  0.3283519170752467  0.4510695022810036  0.7314904795996013
  0.4959614161558487  0.5441273286671481  0.2366190583060631
  0.5439929399569412  0.5725586018358172  0.6401617862858958
  0.4385073509841799  0.8470708446528137  0.9084178169371345
  0.3115608634912272  0.0013992934280715  0.9310737973082053
  0.6174725287921932  0.6471303707374940  0.1352202112540724
  0.1673743125530057  0.5323134414347606  0.8589944573898294
  0.7754955192048807  0.9128247738174479  0.5322706563741121
  0.6947364603536957  0.2143779486107893  0.7053886505691835
  0.4445540550746098  0.1224272172985400  0.3957353884229141
  0.0698634256441847  0.4585261631671263  0.2498119452554857
  0.4469205333772082  0.1006228986814018  0.0318480114967997
  0.3738108223237118  0.2290349966791790  0.1282605624837659
  0.8832741719006342  0.9783764792018417  0.1825007774568929
  0.6131627067989167  0.2316368389932734  0.0901238246769845
  0.9822612370787088  0.2674377659848078  0.2719503781661401
  0.7189788055451806  0.6909334849581041  0.2217747763474544
  0.8212001998261249  0.7648667381879074  0.1964621432642904
  0.1271264919254885  0.4566261892505949  0.8944280991292103
  0.2860583317966876  0.5314968429800321  0.6486389546813138
  0.7562612695322857  0.2972791157563121  0.4948719984661343
  0.9192571065709193  0.3014268813430113  0.4423493002365138
  0.0777244026690591  0.3152287560931010  0.3681782166873364
  0.9555220299878487  0.5315298942739152  0.6160268813001566
  0.0528237940523317  0.2713385294129325  0.5342410294258665
  0.1878319449280136  0.7332787322729203  0.3130447784227931
  0.3237064699185924  0.3832437210853255  0.5573251796759605
  0.8339598932331259  0.3191738692824201  0.9420565140288338
  0.3842183049151306  0.2368088555907467  0.0799050485943870
  0.8246269523135002  0.0074539414094190  0.6841019600765217
  0.1167022904967088  0.1118481669977565  0.9443121446158574
  0.6675374361965630  0.1752340113213424  0.4291234002170367
  0.6096854214878723  0.4521226101617644  0.3958225575174986
  0.2253239756794606  0.8942336913208232  0.6712331294868847
  0.7860842005076422  0.9036135531219288  0.4815698615621831
  0.6864581931357177  0.7203075931350519  0.1323784971673587
  0.5736840406026491  0.4743928249820757  0.4289215942236931
  0.4998781459492069  0.3105434864060502  0.4112931418853885
  0.5952439075311744  0.3795806447506372  0.4614504445270773
  0.9638919297714641  0.2979048528389355  0.8577342491239420
  0.3048359688709560  0.3139442247159681  0.9767964905031244
  0.1250192570703974  0.2211793525692994  0.4371068415460569
  0.0785434702917454  0.9783521581430222  0.4914319996915376
  0.6310552959034134  0.9539825998874754  0.8226532217634250
  0.7813546351219116  0.1211992925931161  0.7979499460636675
  0.8535978168427270  0.2699965317727032  0.7331328121974000
  0.4253278807679434  0.1172276580566243  0.4959608365727652
  0.7813615918162488  0.8581496038744143  0.5571304119817749
  0.1363186575398576  0.7821032668011804  0.3966838653688287
  0.6469480397477185  0.6598748403846719  0.6855845080524879
  0.8313761705247039  0.1245124426421899  0.1919463957757511
  0.7871525897531854  0.8389912352628801  0.4618798208571521
  0.2761390221179323  0.7084906682685668  0.9963873156396985
  0.4891667859043374  0.2303240426236165  0.0550199482959118
  0.7453733035726310  0.2737573131738782  0.7716068989695066
  0.7410780806599561  0.6032076829228005  0.2630321597240767
  0.1460362632281177  0.7788932871402029  0.4228966919041356
  0.5218899209679021  0.9206776485407423  0.4393380024198915
  0.9922354629649578  0.2219026940362650  0.2962510519312534
  0.1235146667571580  0.4650892792507367  0.9713144250224218
  0.9935274811085101  0.2219592842958048  0.8568903987395727
  0.2042457297375912  0.9192404422916710  0.9860817847040985
  0.0345277109143809  0.6726246216122034  0.2359240583293444
  0.5659349699732487  0.0948955734893435  0.0022980823529333
  0.3644823954841951  0.6990565670451251  0.0452350825547829
  0.7245046749303160  0.8924389557901310  0.7674866622089654
  0.8841630746145596  0.5241305571255477  0.0040626332520295
  0.8919322799185891  0.3298496445882504  0.1456336237641713
  0.6521448599852016  0.9521536822095362  0.8411285025363691
  0.8434507175871891  0.0410099694655801  0.2481156931135956
  0.6270872077099164  0.2875896332122593  0.8547614956147537
  0.9492296049565865  0.5242283857525193  0.0421353869473306
  0.5148960862907008  0.2758508772652685  0.3196463122391506
  0.2371606926870903  0.8502340106869160  0.4083215226806772
  0.9010024721312353  0.9259683030220764  0.1581159415060951
  0.0845097153879467  0.1019755761302275  0.6915861150447636
  0.4414167929018106  0.1929135132191323  0.5082280348734618
  0.8443127695461842  0.5969534248107023  0.2487434564910106
  0.6267177899608596  0.3817437366599459  0.2899038868959157
  0.1190781338150465  0.4238638881336179  0.4933815424239728
  0.8305503920848827  0.9065751105472961  0.5057021372060955
  0.2586317275406945  0.8301235658719203  0.8249868347812118
  0.7835161021722565  0.9194428752887281  0.9461221678976124
  0.9348731580187397  0.7156794293429640  0.9524262293628212
  0.6525348546465523  0.8532474779015223  0.4828612812378336
  0.2636530532262015  0.4150184286288953  0.3465416894589295
  0.4109179240040060  0.4358144706331721  0.4954288718218752
  0.7253545705017896  0.1233928898317921  0.1208602125756648
  0.4936882603354235  0.9093964804166269  0.6912461042716530
  0.9595125166389269  0.4097851192911934  0.1344533705241532
  0.1187940161844371  0.7332880753913346  0.1521472024890963
  0.4104003877274101  0.7669379242029596  0.6401063777166693
  0.5788306262950057  0.5953072309125793  0.3224851937711860
  0.2653673638868233  0.8440072252654041  0.5090088932819946
  0.1890621690986139  0.5269515863959193  0.9868066573708087
  0.9333227604953627  0.1989836878434677  0.1518016899384577
  0.5379337543970495  0.8580118635009950  0.4864463848104207
  0.9691726944715243  0.3185207330682253  0.3041708078756932
  0.2862973485481170  0.7847070813391480  0.3717218920935807
  0.5181664804308135  0.0394482959543005  0.7794469229287514
  0.7380980621505603  0.0478679087567146  0.9441411993197620
  0.1578019492232344  0.8461824392640654  0.9491310788650611
  0.0113588338504517  0.5019495377372897  0.4263067799113818
  0.2095591614557231  0.5513209876054287  0.8453534540376023
  0.9044157826236756  0.3779122049029999  0.9200412353208740
  0.8644514851844353  0.1454627730465271  0.7010329053446432
  0.3351188495904552  0.3153364590489247  0.0214994954316973
  0.7812830425422763  0.9854425543371981  0.1311926469689010
  0.0816996407728597  0.8094057994164074  0.5828102236327183
  0.1928565406520958  0.4004694948734028  0.9948809452656423
  0.9665185049235167  0.6125969192165499  0.2313484484230454
  0.2279228050561122  0.2143410074769185  0.3409909424433615
  0.5480541633551298  0.1539485592373987  0.2300903764973923
  0.5356916802011746  0.7812549183707194  0.0069941624690701
  0.0571443480569802  0.0362116834377491  0.6674800646806868
  0.7405491336238982  0.5692776647009657  0.3802767403049632
  0.2120849894353771  0.3397664481687265  0.4769655192825839
  0.2896450692579400  0.1364707416719888  0.3287115112901418
  0.4494822371128723  0.1317655212910011  0.5647836745125336
  0.2256028245331025  0.6980036391049648  0.7036520564677115
  0.8499050585928343  0.7250408139697224  0.7162429083098191
  0.6808391478114951  0.3970409034089645  0.9770607954707121
  0.3200508592499195  0.8898215082408192  0.6353600930639293
  0.1630837770292728  0.9752704459103737  0.5009447319605228
  0.0434271570503631  0.8389375526148533  0.8515708534383197
  0.3402039971999587  0.7510588700914845  0.1885394862259265
  0.5157319808920949  0.1750640287506969  0.8465559851253091
  0.4506918703901689  0.6442031494934909  0.7939237683955769
  0.9932350533140096  0.5406325565526996  0.5747233842379910
  0.1372189871410762  0.6649171944523080  0.9266123393153588
  0.0048584556721285  0.4972386887693742  0.4745060024759847
  0.7502688754264457  0.5946424566435231  0.9132179950810362
  0.2883495061720927  0.3264036833020048  0.0220639976864715
  0.2762061287601090  0.1092558618431025  0.4498745907766575
  0.5817149808106933  0.9550115972468427  0.1812806880974282
  0.0046767429975721  0.0893601597141411  0.2833415206532331
  0.9447693424770245  0.3142299088536866  0.7459100607269782
  0.1218031576460087  0.0166795560707069  0.2045989575891476
  0.1784858142140547  0.1110666826321801  0.5059589489502913
  0.1561959496852702  0.5350105072908579  0.8329619992948781
  0.3303131910464455  0.6416552049163322  0.7640200834338750
  0.2558280898595209  0.3741897727413396  0.6301082432943566
  0.8965742019432509  0.9113628090821532  0.5428484484412113
  0.5213065449230917  0.9215440424457949  0.9131179999287603
  0.7390140083363057  0.1804578005485142  0.4476629315227282
  0.9649083406752118  0.0492880873673652  0.6910774516333700
  0.1762276188548774  0.4725493201811211  0.0408433095354091
  0.6135192634201402  0.0309177970845319  0.7532763843064670
  0.7101501169684530  0.0374898682196232  0.7995983509981545
  0.1837685352851388  0.6346927616921036  0.7323671065735865
  0.6665860460204911  0.0300987862341538  0.8603418227258723
  0.0226098474015040  0.7768567539346187  0.7163550501395429
  0.8260695019885501  0.1741437877217401  0.4783217005292180
  0.1254019412579901  0.4222973765389047  0.1964927887242580
  0.5047801513337564  0.7717367795000137  0.0747230561484372
  0.5563052862790147  0.4667825408919985  0.2756824062336527
  0.5651222560893201  0.9909678379300277  0.4893937026439501
  0.0346034673025117  0.6416207327116307  0.7630806769156339
  0.9507837586962955  0.9631735847218651  0.2118679514314747
  0.5372411922218862  0.3062540157679863  0.3808815590676113
  0.3898355714983243  0.9034586501684438  0.6151608718970540
  0.9485105886459687  0.3089895136587034  0.7736599239386526
  0.5937910697771781  0.1562514795883338  0.4765492816453568
  0.3603752217327268  0.0990730999312937  0.7357707695275579
  0.9270294408615497  0.1827770974454316  0.5611299835964422
  0.4695223307113869  0.4101238112963626  0.0096194581555639
  0.8061526414908367  0.7217949927327951  0.8063775237094650
  0.0533888519285956  0.6612349665517870  0.0295138403450961
  0.4105211642122789  0.9865497902024162  0.3628260170448299
  0.2025130283649869  0.6049290862955844  0.9738759390487397
  0.7727837003945667  0.2908166513678085  0.6424952670349626
  0.2208098149031468  0.0317315421724257  0.7142943636049980
  0.9249045261930455  0.6653153374848427  0.1653540890804889
  0.5412692625077803  0.9284946990843144  0.3670291882968460
  0.5310991594825624  0.9886364880914265  0.6536080219439374
  0.1119478983884563  0.0337548422544877  0.6833839994524641
  0.4954502639605211  0.7182598437470193  0.5235002883080137
  0.0336993445540511  0.2948883812380674  0.0346683180915980
  0.3411662854553076  0.0025116314294529  0.9282667885295327
  0.0064606605723347  0.7796804808362362  0.3977646551242583
  0.2923115284545106  0.3339899861263340  0.0487714875903877
  0.0672621859713518  0.8539933354228124  0.0923775185292969
  0.2749937167470670  0.3751678004681432  0.9170290977982872
  0.8521694163131164  0.9000341477742539  0.2593336998544281
  0.4578183629610862  0.3499004936868379  0.1211469617413621
  0.3352294512178992  0.8954476628932729  0.8049509815160365
  0.3541178084414184  0.7525747288430072  0.1340406331982328
  0.5413734661540820  0.9067057439082822  0.6876096704153710
  0.3315733734561128  0.6103531242136296  0.0337920572614785
  0.8265524787076061  0.7669257234046231  0.0124706384740751
  0.0303740029924645  0.9807965193037512  0.0820932519949061
  0.2202303794631900  0.4269409270072045  0.4192355859234413
  0.1084019198508457  0.2871627522939356  0.4718780695115411
  0.0055351010372773  0.9413876638714526  0.9176723987421523
  0.9065484949947504  0.6281759548768409  0.4218363637188667
  0.5091976467881668  0.0736421578638488  0.3237786295427799
  0.8244422084209571  0.9207496941419540  0.5891963157531490
  0.3839771195600888  0.5390472041401442  0.2937791299219809
  0.1836562361169073  0.8604391347692510  0.3570695220272496
  0.3827879327875340  0.9066494944298529  0.5300590812911864
  0.3603338866146513  0.6984389611430334  0.7959807033082471
  0.0909026797630409  0.0124090932120570  0.2971237529291421
  0.9023219455097183  0.7470518598530910  0.2776809926041851
  0.1998453440590219  0.1112078096937217  0.5781653209497419
  0.3119133010201659  0.5946834655703579  0.3269964389126613
  0.6213508320458929  0.5898635172216574  0.0354086525708552
  0.1864397740566908  0.1004478777530836  0.7087798481983365
  0.5869324851983241  0.3938193897149517  0.2762277000641841
  0.5666580520777735  0.5964324279190293  0.2970549691866294
  0.5055072889133062  0.3225989273355498  0.9135738981412549
  0.0317375004952668  0.9057884683947983  0.6884239888019060
  0.9930381055188510  0.1370524146129588  0.1289630622973124
  0.7990444650474253  0.2870162216035079  0.6523385488554395
  0.2542401760394940  0.3867432984695341  0.7979702833813943
  0.6631890976795386  0.7223967456490737  0.0521453117231761
  0.8979329376459572  0.7404010416501748  0.1704581632259640
  0.9827790595973167  0.6848308239588540  0.6295581877899072
  0.3965920724287416  0.2820259662779813  0.1953486546772198
  0.8605264402665062  0.5959619898705134  0.9777140666703606
  0.0591263047516289  0.7099190325744970  0.7265846227566092
  0.0748182539634171  0.0043356854740877  0.1759170430020966
  0.9843710515002922  0.9210788483426817  0.0457957151478702
  0.5272052323414145  0.3074139368726932  0.4078345112579236
  0.5885797337451287  0.9256333106735873  0.6103422643115070
  0.5355222108972443  0.2217236048396355  0.1733056273946663
  0.8910174822762653  0.6970991424331165  0.4218662845065747
  0.1762934611108382  0.9171807680491798  0.9460726813597107
  0.2395329872988531  0.5811979397858342  0.3972122288032076
  0.8518089800366265  0.3143110352206915  0.3035082077231457
  0.5003092621692919  0.5701492932551335  0.6625807771841185
  0.8095790218643958  0.9857195102765298  0.0906277416454038
  0.8208329306620076  0.0258701840772315  0.7290833111450263
  0.3749461138430320  0.4720280404857847  0.0417480380009816
  0.3441450233671603  0.8876235219088437  0.1842403391874635
  0.6733621983335559  0.0173651627960312  0.6951683948805871
  0.1582694177273692  0.7848774470190150  0.5215013251720366
  0.4483236815750982  0.5279366142998823  0.9478423205963815
  0.0640113989840587  0.9255073373859770  0.0845448629397886
  0.2415825512270919  0.7097987435428041  0.9613064546171172
  0.3021436713326771  0.6992715530236685  0.7375656660775233
  0.4428011121878759  0.2951480789535871  0.0297261069905228
  0.9083273319675962  0.8551295955460559  0.5901887960973025
  0.1236267657399413  0.6956392513062211  0.6708974855856038
  0.9463372249819840  0.9181472457694597  0.8401578164699333
  0.8666525707483840  0.7595164021776923  0.9783094101828893
  0.8089674055114222  0.6535309743760523  0.7259409711002291
  0.3214564457509042  0.8197231262519635  0.6477958257626897
  0.2410431671986456  0.7202024350357330  0.4246813316160908
  0.1456471883665215  0.7339201939280110  0.1583366565153973
  0.6645068901124621  0.9149635705372997  0.0312201276746867
  0.7123986795442995  0.0505188833324964  0.0994392787513983
  0.7689603714286898  0.2912430467893584  0.6884281853276569
  0.4803912373589110  0.0309893358288690  0.1354315923002969
  0.4986384046533691  0.3552723225858723  0.6916172783568104
  0.5735299520049318  0.0052820583418208  0.3104803564887081
  0.2170544345323964  0.9922494927545011  0.4123479688943507
  0.7080705860048105  0.6290881331651395  0.1636417717001191
  0.6949183511910219  0.7339767160170283  0.9082310675330776
  0.7176060950186403  0.4421593777840875  0.7744169399083802
  0.5850781058819373  0.6487042632266730  0.9927399335407340
  0.1136000853580732  0.5145044849408823  0.3467294749679594
  0.3742939930825414  0.3502738739159084  0.1312199366111179
  0.3733580628042291  0.6454496396977902  0.5099431132631569
  0.8807362626543128  0.0483191118139044  0.8366669263033034
  0.3665393500621631  0.5100376405194930  0.3830445554570311
  0.8039287813464835  0.7211964822676548  0.8346156168193736
  0.8724212708350317  0.9833435415340619  0.1573901864466970
  0.7943848028815996  0.0485337888966649  0.8559978834866225
  0.6246915782054545  0.2125858799384519  0.2208990592219367
  0.3209748570922038  0.6507761364528548  0.4437695656779596
  0.1595853322650745  0.6072146739681440  0.0877422029236305
  0.6896905881766321  0.0636867953661120  0.4321879261730779
  0.6732163275829458  0.7812559218948973  0.1193672081561658
  0.1264106450873776  0.7756848234348255  0.8145942950767484
  0.7091189210875795  0.6015276062909307  0.6940937616328494
  0.7337353767754103  0.7848724369967153  0.4512545322951647
  0.1533337005688833  0.6110789433791490  0.8889032146565339
  0.4620466130343913  0.2650731118552798  0.3057413706644230
  0.9461826796576562  0.9143088178845239  0.5395073205347710
  0.6007962674552924  0.2377708002462800  0.4086916305997889
  0.2271926922253180  0.0016423789788712  0.1098466570021677
  0.2186120271116667  0.9551756894152115  0.5857064095856326
  0.6398467204326368  0.9937684328282894  0.4850065275658515
  0.0564090707338790  0.9585513556157402  0.3453545636689529
  0.4511745389715149  0.9173500944553612  0.9636599480243255
  0.9917855007669122  0.4462200951232100  0.9706047692707194
  0.1308930073627148  0.3323769046542094  0.5766178310363559
  0.2497182390390104  0.4045389761659641  0.2741537926698596
  0.7701829347336049  0.7054265698593154  0.1700423991508357
  0.0379957297610676  0.8348175133886034  0.6457662003325443
  0.7833959860265168  0.7943288111729591  0.6678733436746466
  0.8581463506972015  0.5848130383238306  0.8271362175128352
  0.3529532319703597  0.1058425111878628  0.6238729755920179
  0.2466844433141273  0.1280959579449830  0.3899114283418776
  0.9415153510134520  0.0456818765537397  0.5078188635923939
  0.7231391619551563  0.9182305090237223  0.0762171455722541
  0.6407617556897820  0.8590422265093087  0.1936004662204089
  0.2251567311753800  0.3427556258345457  0.0779684575749271
  0.4401740840613454  0.8396949877954244  0.2210353200523348
  0.4609875392710616  0.5790215208703245  0.9587934892232324
  0.5289330315727129  0.9145313582475978  0.9994093733162809
  0.7685362157760445  0.3278842422845676  0.9958390056815382
  0.4297509501548676  0.7284483441709877  0.3633723730332639
  0.8848147008513422  0.7722839480320162  0.8910670166827025
  0.4112156413887736  0.8343181773903825  0.7408703138701893
  0.2414497023284899  0.2436867022218292  0.8444566761245412
  0.8496795449351381  0.6593657719122316  0.0035349663727868
  0.0351435845745721  0.6039237995299156  0.0494028266321984
  0.2608535210055179  0.1890859217598204  0.5033667586013045
  0.5103765032296964  0.4149218460910275  0.1807900272604473
  0.5367039533862920  0.9645788827071596  0.1228294056301117
  0.0764758945044393  0.4197964297082242  0.5181431826984402
  0.5655007955199406  0.7655004455044534  0.7270900656250795
  0.1110420864526443  0.3271653283241359  0.2745464123242911
  0.0850432178931476  0.9198342639119803  0.0404235050517008
  0.9950647056780741  0.2631084221721345  0.5979012148110193
  0.8548570501291310  0.9619621680969680  0.4668530605966683
  0.1642278442263715  0.4156108232712183  0.3705518630376923
  0.0816443070574182  0.2876093554215424  0.0953402803391366
  0.5327732873584281  0.6513850371420046  0.5086658423323970
  0.5522589796548655  0.8543000629558805  0.9033403754992340
  0.3565912639798200  0.5120514138943166  0.7098834422835268
  0.3742719274574303  0.9288299855715904  0.9273661467665922
  0.2074292225212831  0.8805258447433341  0.1897338906032358
  0.7786838271230627  0.4714133750956017  0.6908252492536570
  0.6456764858726617  0.2278228030539242  0.3477638804881912
  0.2558106209576322  0.4935046968493746  0.8434374073564567
  0.0971181793630764  0.0315991312202940  0.7309729982735449
  0.8978473044674709  0.7732048226434270  0.5233080377276501
  0.2927428746711541  0.3440772611564450  0.1535228166159828
  0.2347971007314577  0.1109786275023579  0.9155121098533484
  0.0840236387258994  0.8348678505866161  0.7293169117329438
  0.8228075665224795  0.1957929937696772  0.7754186490018568
  0.2777920568184856  0.3176398177700711  0.9672592123662325
  0.3886527375308729  0.7526911769402894  0.1972737521461383
  0.9346323963922283  0.9838823362851720  0.1128465923345255
  0.3365884592178601  0.2402561296792151  0.5123529351084167
  0.1599874262438131  0.1708774550715927  0.7748215358941810
  0.5580989887278957  0.1581362130720347  0.3426340405964787
  0.4912396810891911  0.2526105368824412  0.3846756271769912
  0.2404464083089944  0.5653484312539662  0.7056176738577625
  0.3438063746391578  0.7070507826149797  0.9636793013429388
  0.0898240425063882  0.7637273051018010  0.6456247269121376
  0.3674376498258390  0.8296716402578642  0.7191577301237446
  0.4107197148649318  0.5463600703122884  0.2234604950894654
  0.7892967954070038  0.8541830345381182  0.8449205745905206
  0.4413293206815691  0.4096936802444235  0.0106144734497757
  0.4150493804136191  0.2445476114309069  0.4867472781116443
  0.6999738594372438  0.2587502156276720  0.2489413585530445
  0.9718547572897096  0.2221527820139337  0.8387413347155065
  0.6064634734180940  0.2197360394538507  0.8606112501002503
  0.5646237539094147  0.5185890978154406  0.7695921938517850
  0.4467958508592158  0.0587152566240092  0.6152366398287938
  0.5260797275264048  0.1077510266865114  0.8818972191271671
  0.1328528531386103  0.7753559684716124  0.7867968732439689
  0.5696838927013018  0.4187859342121166  0.0830193536827711
  0.3334227596988407  0.5723193714810703  0.9034574954425991
  0.8995313095400936  0.1798514819882234  0.9123733049907025
  0.9610454734940040  0.7618125623307394  0.6590849028916325
  0.4984543874189500  0.5224669393013075  0.3861150996398297
  0.3378327382332739  0.6719690993902105  0.2682009747985988
  0.1774042968023150  0.1145576438412227  0.5332315345145570
  0.1333082199849277  0.8500914740793627  0.4260813078375262
  0.5129773628755949  0.7196092260324133  0.8819050249857152
  0.9974177657204527  0.3168549573963824  0.4715816352694369
  0.5129698354368792  0.4121493777686498  0.0333736403968867
  0.7418229804851494  0.6564773076065903  0.7774050325809388
  0.9068753608701252  0.3789058134468655  0.9694722063317902
  0.2360286416675395  0.0312959561351672  0.6666002171637783
  0.2173577562073252  0.8529059722702513  0.5085194709612095
  0.6590370477872638  0.2067751788475019  0.2554410234102603
  0.6739815565174416  0.2086701369309815  0.5189026296069147
  0.7505430160174009  0.5928658876946866  0.8634094569968321
  0.7280889800742965  0.5176491138117987  0.5733314503555423
  0.9376668778226024  0.6731673659377612  0.6117353144617891
  0.8243132120114752  0.6350773614284606  0.4344962898938565
  0.9207834888912269  0.7111687026316611  0.0782110095486702
  0.0523506778709968  0.5801689977899496  0.7247387726883937
  0.0936351775108232  0.9057854199547980  0.8547548942031857
  0.1184870212600778  0.8809056584035299  0.2839782181814587
  0.6234522266201155  0.2128763703848586  0.5322585537862373
  0.6819126541548473  0.9149885545831599  0.1040512485271806
  0.3664918177430246  0.8543119654560688  0.3883856144659899
  0.3957906272584037  0.1913828596389541  0.4162325869669596
  0.9584739452220815  0.3852322385651205  0.4064783901334350
  0.8417176147408959  0.7603886765157999  0.2174370236769692
  0.1502981654156721  0.9398390198231200  0.3848235697402458
  0.8401506149577520  0.4712334473294830  0.6537642272940454
  0.7330326876689985  0.7314960146679377  0.8664870735480045
  0.5362238409688354  0.7105441099698029  0.7981592072030443
  0.6282799939303483  0.2747493259121862  0.1861980613373770
  0.1018342638256867  0.9704031942314255  0.6178728195475187
  0.3324868949142863  0.5088293931203178  0.4318366865872730
  0.3885037066186672  0.1031055863888160  0.7759690231536769
  0.3611355782386331  0.9763974599830261  0.8368207247635228
  0.7637972556282502  0.1919907785809145  0.1801361219725715
  0.1901483512024981  0.6505644982982248  0.4265633571792104
  0.5087227711874657  0.9732774154638606  0.8236722079574260
  0.1470269003940328  0.6190329549366994  0.8317806452308627
  0.5370062094068274  0.2466675442683071  0.4434695862333465
  0.1264546729744123  0.1052295531232257  0.8430284865843279
  0.5024821890673036  0.6440040528022392  0.5873806690467250
  0.3464493518156821  0.1831157287505240  0.5293011534689197
  0.0048910349315357  0.6592181969834998  0.0375093944827558
  0.8866098291592396  0.0637446641324691  0.6186484693741860
  0.0153197119389416  0.1703001350743941  0.9468324228666977
  0.6717436105863268  0.9827591266598068  0.0133499606837584
  0.8869086783185343  0.5793246393073969  0.8946914802198299
  0.4806599435773074  0.0393772505473582  0.8207336419041996
  0.0121630847777521  0.2602100032084168  0.4744178513863582
  0.9540287696354329  0.2013016449565018  0.1329443487634835
  0.1704217318969878  0.9091728926637733  0.8899137556931740
  0.8721436553683457  0.9586432538526102  0.4446361221925855
  0.2178727861522727  0.6959116855505697  0.8813652664007062
  0.7952145462608010  0.1962059295431432  0.7788034816998803
  0.2337994958696933  0.8621471102967613  0.0912012121202044
  0.0017216698651205  0.1410955626230097  0.7252861046596552
  0.6574397410493847  0.1037392958090037  0.9594723263631885
  0.5974972669696573  0.9095489483060448  0.1565426870489145
  0.7567887571212845  0.0469341232492347  0.8893014497193485
  0.4498789825243074  0.5078450594855985  0.6760870888939433
  0.5049364048222268  0.5507250775177596  0.1872274729118025
  0.4796198675192843  0.0918751445811660  0.0993298770886559
  0.2144164203476686  0.9250486846884739  0.0985757996889896
  0.1597475656314115  0.7949384889323113  0.1078526791944895
  0.5916647569518905  0.5219440480659371  0.3520949315435328
  0.0652729039209263  0.8004395219562729  0.1400890426754312
  0.4886242014649939  0.9131759136540566  0.1993951221665423
  0.5046509696739703  0.6514696341568901  0.5132371815622991
  0.9695683420485121  0.1149878510741886  0.4639535158198961
  0.0787907501206048  0.9176525880836338  0.9550209007523425
  0.9868323096470552  0.7677349965471957  0.4693139902736850
  0.7902135795648351  0.3648807170056602  0.4563898052247524
  0.1648141640133783  0.0566098406595207  0.4973026245777838
  0.8582431822642281  0.8382763524103370  0.8221169983605672
  0.4558134101179994  0.7840192642854542  0.5513385230571812
  0.6797101005028452  0.5883477450632215  0.0852447857177750
  0.7266861169246478  0.9737505962053238  0.9306625578253347
  0.1371551400595273  0.2739737101959175  0.0355859507736509
  0.3364724601484351  0.8244007000609822  0.6715637511849509
  0.6457876326852214  0.6505466425769064  0.1304857003210715
  0.3999403523660122  0.0959325724960118  0.0665987875116665
  0.4431275616028714  0.1588540272604644  0.1848734973249878
  0.6072823542339824  0.8588699355336169  0.4115645432702080
  0.7643613641709723  0.5697724376382586  0.4322913182265705
  0.7028264951145032  0.6646678515537329  0.7985281728013929
  0.3016337399420519  0.7711879191226326  0.8148669069207626
  0.5727887598454688  0.2787375760078475  0.1780332214752429
  0.1819254685095926  0.3040904297467015  0.7232079847070075
  0.8057753590565249  0.1261017473501527  0.1809608038137212
  0.5658511597746144  0.6587841455441831  0.3556108124819456
  0.6397979201516076  0.1682092724320486  0.0283979348477793
  0.1847760292145735  0.4871225356554911  0.1375351587505897
  0.4617433928474581  0.0633810271921800  0.3285706831807628
  0.0444929623718378  0.7434286849938986  0.2328709716135067
  0.6778665986713338  0.6783694024094259  0.2654812753995168
  0.7892427239918971  0.0013632504873150  0.6514235178590265
  0.0791907152758640  0.3792690462738590  0.7662050344267336
  0.1876362384340647  0.0338424454266828  0.6784443198945257
  0.0341119849184222  0.3442076223698863  0.1208003423420261
  0.1864776088344798  0.8506149919886754  0.4768540147476016
  0.4704475291096905  0.1215132302481233  0.4077109041350667
  0.4843891987928028  0.9866783204307363  0.4628799647707761
  0.8637376028580828  0.4329611489964351  0.4967902917114476
  0.5674297611309849  0.9203832072516926  0.5671867045594317
  0.5660907320638995  0.0822234133430493  0.6175232393329275
  0.9463947862915034  0.5524690515800608  0.4385421976460052
  0.2801436585986019  0.6583249944608185  0.0680037434500006
  0.9954240518429279  0.0812353757633932  0.2360892840053382
  0.8996207123636925  0.0511351897056684  0.8587555860938295
  0.7957017432205450  0.7700666889739418  0.0693688215717151
  0.8375102587545261  0.6469202027817426  0.9191205067491459
  0.5235957911534019  0.7086324463900121  0.7496100998049799
  0.6866095465408962  0.6746637386796895  0.3112515532684707
  0.5151334657325058  0.1485380920822908  0.0053443817194480
  0.8541163745340127  0.9262599957264013  0.1393929657106808
  0.4957253437132347  0.8354046442350709  0.2210595452687992
  0.8811096830543593  0.1149812719031568  0.0007464737659625
  0.6858652496040706  0.1134416951113675  0.9980276601985552
  0.7974402546391343  0.0193647970383172  0.3992238376304397
  0.2395384398020616  0.0580158870711796  0.9361325267303772
  0.4642854372180978  0.8983280179726700  0.1592192093284430
  0.6955014465873421  0.0974085345797263  0.8676294824902833
  0.4713978198809627  0.2727627341008851  0.2589559443984178
  0.7520997755692279  0.5037630222272937  0.4282229869182487
  0.5982822184032459  0.3726437127046203  0.7095893548091657
  0.9647069765675543  0.7734706599591695  0.8648108480927565
  0.4101423641274429  0.6204628010008697  0.1376712833041248
  0.7531309681531957  0.4539116969697253  0.8720005949351950
  0.0213070706855093  0.8821183423162873  0.2584390542734581
  0.5942318097023567  0.3760116949118078  0.5108688840788148
  0.7766318779110496  0.1253785310693436  0.1423351114364461
  0.3527652394558061  0.4141630370213154  0.1549305403774852
  0.9295453791298032  0.0318307295372218  0.3968987479288030
  0.3074901661183850  0.6429232980415261  0.8918555707258502
  0.4202908511621057  0.1025739919839374  0.0218687632440303
  0.6223912585696000  0.5936624436702470  0.8388429291168508
  0.5381539749085682  0.7921621725418510  0.4167962180518466
  0.7584776832400422  0.8375998275367071  0.4575924565567501
  0.5872780113457002  0.9749067277601204  0.1012774215613842
  0.0825885845705754  0.0098396725589077  0.2685596434775071
  0.2395018556907822  0.8940818558765385  0.8426655512371657
  0.0420551167810373  0.8475094996231969  0.9470615844362111
  0.8687001200843558  0.8545127225244789  0.1420474542259456
  0.2949914843729998  0.4091494822678448  0.1538013408717784
  0.9953564175398423  0.0495305809930828  0.6253378496612999
  0.7695192566885165  0.6607655778659407  0.6418933862411546
  0.5374716703949072  0.5816851276654382  0.8371203234345481
  0.7766093941955495  0.4030532108164046  0.8548299987872543
  0.7297525414251766  0.8139369385296117  0.3050631708192085
  0.6275034065378515  0.2854200623086453  0.1132064484258061
  0.5561548382143671  0.0798612881635964  0.5324176069219672
  0.5882813156968867  0.7782608322414388  0.0974341843590305
  0.6886127897846460  0.5272857233745543  0.8909173466098025
  0.4678103510596682  0.4172333066808824  0.1560818219455790
  0.8129152861951761  0.0345263085658346  0.2882142061045210
  0.5540705483050913  0.2804542974510406  0.0494119263193161
  0.7559983481121160  0.0505286738059408  0.2682592552023051
  0.0550212371355100  0.3043676355234183  0.9394542973100611
  0.8074368304405481  0.2747735651767452  0.5935241282289235
  0.6775756285892578  0.5075115497844551  0.4399871332077916
  0.8366298912233285  0.3045351656765568  0.4049262126967771
  0.0022491777854120  0.5358783905714758  0.6012272480508142
  0.5608359800371281  0.7219052947938913  0.4499607317825552
  0.7197545375344278  0.9495951716597636  0.2800327685221057
  0.1758356847402290  0.5203885352324517  0.5075295197553070
  0.9750022554800543  0.5456434727395992  0.5208775619213641
  0.4789523402768550  0.2782831887521021  0.6498761381695738
  0.2533472198922379  0.4836395415793057  0.2078956612423312
  0.4808997130448786  0.8294138865748636  0.1978635634192518
  0.9829636970997967  0.1271730838995410  0.6476400392635281
  0.1075098615640533  0.6581215121757257  0.8906073488116896
  0.9380739236084971  0.9613588492503621  0.7441369023407282
  0.9121971998276692  0.3082859194213404  0.8397111630393341
  0.1983323609761423  0.9291502564014231  0.3869298689424555
  0.8251544557359930  0.9251106640310975  0.6171739557209205
  0.0494731561572480  0.1630283213683203  0.7917863880482525
  0.9803939938134623  0.1675861051304146  0.9018819785890861
  0.0010502298863405  0.3765083398217133  0.4309987742668004
  0.9839860896726232  0.3655069679238943  0.8653927963912840
  0.9322198488273711  0.3727542558271024  0.9191756026832162
  0.3561396374736008  0.2011702511497131  0.3533834192625580
  0.7587548746694193  0.1918456768489655  0.0210507627769021
  0.9543096387864666  0.3955490890749932  0.3074193617066751
  0.4246344543736250  0.0040891673405748  0.9058847887833205
  0.6390338541690053  0.1602738496691752  0.8700427994362641
  0.8067365837690308  0.2593434037443669  0.0943679112534431
  0.8262046647078659  0.0140635734063118  0.3280324777511773
  0.9554673289879093  0.2691558845156587  0.0876540824962981
  0.0865023562839704  0.5143527014810202  0.8413455114162199
  0.6339953288925587  0.0281773009140695  0.7336072119981142
  0.8057368411074004  0.0595825787354835  0.5869559401584920
  0.3769229879954298  0.8364206156566701  0.8658304114593537
  0.3709140556149668  0.7079244452624301  0.9713268462576673
  0.4184558075844709  0.9805633745182042  0.6199647054673978
  0.2122592917330163  0.2400425311940925  0.6045871801602729
  0.8911261132251973  0.4916719289076794  0.4534889738340681
  0.6604014196303947  0.9457375630374933  0.9408965293793747
  0.1670846051028710  0.1752172770691307  0.8234981803993418
  0.6675069214519121  0.6004750415507193  0.2800303856810752
  0.3263592332406521  0.7957887503953773  0.5525069468517867
  0.0584439669193634  0.5108865316153124  0.4126042876369539
  0.2145109968487655  0.5438482518162305  0.6596099375632263
  0.7161210683728118  0.0291652584639082  0.2787002733966988
  0.6383309490251147  0.3684653938736485  0.6342028660168740
  0.5950352772432724  0.0848344437034083  0.4428782588801324
  0.3220837100999001  0.5571000726855547  0.9418907071721009
  0.0110457864405131  0.8127335752909534  0.2609752268154780
  0.3160513291485750  0.5117204413600003  0.5296522207045745
  0.4252983193733362  0.2578167006791327  0.3472712195878390
  0.7542587079198650  0.8492819269609460  0.5060058502359397
  0.1261765405661818  0.9463318076358790  0.3985281161879759
  0.9337833959079377  0.2619899792243396  0.7057085645131491
  0.8296704666523490  0.6549359436362802  0.3627095103473479
  0.3984071042810606  0.1689733582214532  0.0329968757538331
  0.9246842205292550  0.7414355003417855  0.2596822960699057
  0.1319221254011801  0.0321088142532408  0.7665270987394338
  0.0290804529132382  0.2632145925739092  0.6778366032444679
  0.0258591385358040  0.1636340299503105  0.0442291298398748
  0.8380300388021764  0.1945885645956547  0.1769249144150724
  0.8851125265065717  0.9749045195602513  0.9132090008080802
  0.7161486415783261  0.7358972334870616  0.6554753436343567
  0.3736215101308678  0.1729481427459759  0.7714266808345147
  0.6356283957889219  0.5949423282201100  0.9619002850556525
  0.9330073732327413  0.6406428839574509  0.3789942848411960
  0.7303474095538197  0.7120034767659501  0.4733376147546666
  0.3653179257758077  0.8054104513769957  0.5796963373952806
  0.6418850138729443  0.2925480642483310  0.7073074167753742
  0.6169870835249731  0.2161135598447387  0.1935947852788874
  0.7511095965229537  0.7841983342460407  0.9732431394396093
  0.7266890563376860  0.1134334027843241  0.9343983194780784
  0.2837824856549995  0.4782432683129208  0.1124123853904728
  0.0248700791657752  0.2146801824388275  0.1272317767808744
  0.0432480743289510  0.1198939157005111  0.4739575261798887
  0.7024408098093232  0.3197319821827628  0.0470576304818734
  0.5238765610969898  0.4613113835955053  0.3694668767565118
  0.3340239821178467  0.4139438670271687  0.4199243692703227
  0.6591999997158983  0.5080542620811316  0.4617121582301970
  0.3792565483572510  0.9113958235511559  0.0105445455026726
  0.7464515400511423  0.1904846043351627  0.0959738781699511
  0.0326900228333733  0.9843792076365211  0.5115709203506201
  0.3537730474664759  0.9998430547755773  0.9747119515094167
  0.6907891888593014  0.2109121136338762  0.5743146598648707
  0.0368045219323441  0.0039881268152031  0.2370115977976341
  0.1956534751840328  0.3406111744586720  0.1732363241968172
  0.4990837917178745  0.6403861111336794  0.7367302949197307
  0.2291778513274825  0.5136814808294737  0.4409686893581207
  0.0358916542930105  0.7470614547493111  0.3052925608528745
  0.4185044468328549  0.6848311811729915  0.1642841968647324
  0.8126722926583528  0.0578747778020222  0.1035002591254057
  0.0588521139309306  0.2184365335806863  0.1631992560759754
  0.8215808509871275  0.7762073181309181  0.8344248632804312
  0.7343117727667009  0.4106961248643938  0.1979420939635742
  0.8400706827879099  0.4666042057586280  0.1388883348919881
  0.8195139744729415  0.4020702935741411  0.1922365791183953
  0.7371734896620450  0.0433478666199483  0.7934711849173669
  0.3689826189608744  0.7916810205051880  0.3110243817419710
  0.3040250133853767  0.7202947280752109  0.4822669918669214
  0.8035766021132860  0.5480665321871901  0.2161555502082439
  0.0941140189071706  0.1708718723030043  0.8097297140906641
  0.6278317985444999  0.2382820920093170  0.9826447058616981
  0.9680650668077847  0.8472350400841276  0.5390091203807533
  0.6769925850963752  0.7990035158319310  0.3686476784558395
  0.8200818497832325  0.9132606345462203  0.2143718724506155
  0.9691636304157035  0.7379686899938313  0.2424392587489388
  0.0170984817145882  0.6639510503002073  0.1222445239721089
  0.4609682826348850  0.6422820248176475  0.7676587598461815
  0.3831025600970232  0.0290104270005669  0.7702168028206366
  0.7431718501949421  0.8067934744398894  0.4087165852982846
  0.2554130004936395  0.7836173667552080  0.9055850277825025
  0.8104575991590883  0.6985846284720048  0.5522473013504698
  0.2981116054614066  0.8270605634587272  0.7481622262743536
  0.9680854637146111  0.1295721879634919  0.1186621868198400
  0.4497428247017523  0.9251202936154723  0.2836866778819922
  0.9211632215813365  0.9535305943581497  0.3034819583944519
  0.5142187084011115  0.6503601998540857  0.8325318153239832
  0.8736819622927250  0.6444089293106688  0.8301294506288278
  0.0587648751867843  0.4389189456417399  0.7796020961820296
  0.4955707207097870  0.5775000696751710  0.8107863768291333
  0.7790513322750191  0.7949470780819667  0.6960975846422485
  0.8473947861677431  0.6527628691493301  0.9762645678377362
  0.1895960568228931  0.0865569841904682  0.2719870887481384
  0.8517069959405917  0.5176389952597513  0.6964101917414729
  0.2709654279230980  0.9496315766215748  0.8362251708234850
  0.4399217998241667  0.8993547166152557  0.1734342210482651
  0.1566051535155521  0.9025840361414047  0.7199541180824415
  0.4411875582024019  0.0404344470278377  0.0125231717818593
  0.4434125304160942  0.9096806468242139  0.6667914256269544
  0.1392432636756052  0.0165856174351577  0.3913708593529267
  0.1343203991349018  0.1019500818018692  0.6860260691373693
  0.1209214916216252  0.5556246193895585  0.7079972562679436
  0.8159294446849625  0.9777679911654523  0.8865714353641827
  0.0276329463106679  0.7588753647092390  0.5859459061519451
  0.5530696479360064  0.3669419738919312  0.6361663049811892
  0.2009611963958571  0.7852673592988095  0.9200071039789145
  0.4467915963733941  0.9754161015010691  0.7153603172190074
  0.1745888767449620  0.0574542551667639  0.5526655270266391
  0.4134721909192119  0.0425017492678401  0.0127329305722745
  0.0132865002121737  0.7215258823166436  0.0499637233619113
  0.7643986104275406  0.3074786385244021  0.4700395723817115
  0.8659996949278858  0.0875152820850662  0.3877812105461451
  0.5779337991770369  0.5273830746401259  0.9464154878125836
  0.0928733945383767  0.3938432291897110  0.2978196847991149
  0.4170986926701238  0.0517516582093056  0.9638147465162306
  0.5949353783226734  0.0998368322992935  0.0413461641455186
  0.5587304265476375  0.8381914341479214  0.0487539553715594
  0.4170458234993126  0.2536652686500684  0.3949107991698683
  0.8797039777949464  0.1857744386122147  0.2348587881037213
  0.3830505740230635  0.7681769357903849  0.7069951102868770
  0.8571629515427727  0.6828109628811045  0.1904400342196096
  0.0325893770202574  0.8407848631905539  0.6182798224232081
  0.8817723986257218  0.6787976963931956  0.5503687588636421
  0.5449906934144394  0.5219003261935588  0.3689317856540595
  0.1139111722560669  0.0770560691227237  0.1140224069444684
  0.1970553061834468  0.0870066344246964  0.1705977181487101
  0.4723059386812165  0.5886876834968019  0.4381131640121594
  0.5541090620421835  0.8370630683059115  0.8568751337268485
  0.0345662680836026  0.3843513748543501  0.2528114992130344
  0.0950729009846017  0.4614080169893840  0.9759133362682174
  0.1965770641169668  0.1491568444239807  0.1866623419797943
  0.9297873277748442  0.4433400105176026  0.8552833578411404
  0.3186689229498861  0.3465780053443904  0.1404048065881049
  0.4544244350668115  0.8444549177782602  0.2444335784512173
  0.6859075168862018  0.2929731193484035  0.6863026750959115
  0.9735018804811950  0.5191248207666009  0.6685650890392260
  0.4542893657442382  0.5197109436942647  0.4786731966361768
  0.4118427369257646  0.3144054675308244  0.8372764866991542
  0.2577380064343316  0.7289624703847566  0.1181955101095203
  0.9330687311493411  0.7128315824163761  0.8458827694059504
  0.8234947283765905  0.1897181040782203  0.5521056495676984
  0.0091944852714052  0.9849875542094255  0.0999491347857501
  0.5604786999124086  0.2282734423584117  0.7444508361352949
  0.8166254139520813  0.5136045849779384  0.8150499708373048
  0.2347323234876676  0.2140224636381514  0.3684596905355867
  0.7296655939691651  0.5890754035766137  0.5749393990983708
  0.0454208175622354  0.9136437687015901  0.8590060008417516
  0.9188025373178985  0.3205932201877006  0.7378748983203177
  0.2492699020556999  0.4115340332161129  0.3223438566276423
  0.4410235669061183  0.5832844085237403  0.4851793105955255
  0.1606224108369151  0.2405742724635944  0.6717451998198526
  0.5859459905019259  0.0335644005485886  0.7462083607596621
  0.6122584722741168  0.7915975523298027  0.4056518008170181
  0.7841848310791026  0.3981375298374465  0.0967691089777557
  0.4617408572495877  0.2227222129692015  0.1783573379571738
  0.7078695817626894  0.1152610494109313  0.9801846038662166
  0.8137784511451406  0.7726750772303924  0.1184690406199167
  0.6425444375125535  0.9824170908642803  0.0526108831880557
  0.6595516146597176  0.6745218785540482  0.7808152849220492
  0.4215698254190954  0.4000109627648612  0.2769678878454065
  0.5758549369651464  0.7894388341059420  0.4489207108539403
  0.8177701900153934  0.1233148871925511  0.5507466065069418
  0.6541384927795245  0.7259449505330950  0.3694842239995393
  0.0744682389525379  0.8803046108579418  0.3556518979520596
  0.2629775587597346  0.2991595600638581  0.7509832835943412
  0.7235349767589537  0.9621757096542738  0.8104662103721572
  0.1419021607812505  0.5249234371040213  0.9280021769390036
  0.3781528255344718  0.2985524971009873  0.0688906192457097
  0.4438152011390611  0.1904604410872049  0.6296881478194644
  0.5139301003285685  0.2854713936434821  0.5211346201663561
  0.8767516218123829  0.4004053641444751  0.1886146060409387
  0.1545379843057236  0.9686435897592779  0.5500361270818471
  0.9317860056819536  0.2703586846646992  0.1818762737017959
  0.6909550724140087  0.4989244801827407  0.1396765139733555
  0.1192754762757132  0.9052670015600951  0.8667254378139114
  0.0292139054014114  0.9055191937167140  0.4503341363993079
  0.1378416873667573  0.7804019103947176  0.4706837190437556
  0.0093850201003302  0.5247544451142341  0.2787426775458691
  0.2613121456359482  0.6682003257806689  0.1119857003280346
  0.6922327650203267  0.7985675434385221  0.6934891272447805
  0.1004847371939109  0.2743464865687021  0.3279194360933436
  0.6606866329651654  0.9954783338311269  0.5685339175860394
  0.7030736199983669  0.9965100824572350  0.4236766745334167
  0.9244688936505409  0.9203916779048172  0.8851210727767356
  0.0515298395735740  0.9221691928535364  0.9142467751725275
  0.2406472829777718  0.5398245446308353  0.1951320754703016
  0.4507038836178526  0.3266881700614583  0.9089090489344970
  0.5119464050029731  0.5726185008047201  0.7373143434852051
  0.7616656144094544  0.3311473224065290  0.1248997576011628
  0.2679702641899040  0.6662185556144223  0.2959743076917767
  0.9669266674144652  0.3970735571789752  0.2818144682611495
  0.0496174724323699  0.0525260100968386  0.5395105270491939
  0.7963983243315590  0.4235518514600472  0.6353158391567512
  0.1478652584532642  0.5214457123412064  0.5029262155847524
  0.4216928649278482  0.7977639669611171  0.2464522215694644
  0.5873873277752483  0.7384034881531044  0.2332369190801548
  0.5577868565163727  0.6550922536990368  0.9237292199087176
  0.7276503296935042  0.9838017504859813  0.1522524579282828
  0.3376467757700030  0.4124933677999361  0.1788617920167589
  0.1706998855004203  0.0204849416390294  0.1950578961660510
  0.5069310067257012  0.6453930038558788  0.7846734292099548
  0.7199192310704960  0.3715571224883274  0.4354061042921180
  0.0245814294067775  0.8545303756261466  0.1159881618138255
  0.2339222574311595  0.7925927029079503  0.5838971077696228
  0.0502606301619438  0.4330110646199941  0.7282024555801461
  0.0136442245393911  0.8462621795631694  0.4663696484863544
  0.3318624257804946  0.2852394492753272  0.1573886336920877
  0.6841644058089309  0.1972171623544295  0.2627135283858804
  0.4809949053650093  0.4440319983338639  0.5223532579768231
  0.5049723140516843  0.9758934881636336  0.8524080863785489
  0.0937309909388245  0.5226887489452628  0.5696826493739457
  0.4051876722793634  0.4314223517750979  0.6378153933040625
  0.8896523377058267  0.1888195934544196  0.0707571481254380
  0.9485973147035642  0.4633870707789520  0.6482372946602815
  0.5563935592779814  0.0834013945767253  0.3186903340535581
  0.3413885256450579  0.5386049548733665  0.1129081165283849
  0.7989433041335567  0.1583416380795504  0.4080690156820941
  0.8640529100900681  0.4016924749784991  0.2139179622770631
  0.4823013477443947  0.4024837870475227  0.9354932820272569
  0.0564163168561837  0.8494807998434970  0.4937458024624060
  0.5106521986434118  0.2672591368386624  0.9506743401875520
  0.3037646809171773  0.4548132496094304  0.3252746007897486
  0.1046344567234512  0.7956862126510911  0.0960010684102209
  0.7332631920418736  0.5787079975580141  0.4780669509746105
  0.6963368490222622  0.1979486902546120  0.2124135378564472
  0.3786090836064074  0.1186565941753806  0.8798535411475638
  0.3655725722799678  0.1535302407033129  0.9176425521050905
  0.9335534060973169  0.5331174248427258  0.2151654887784082
  0.9576591102254380  0.5790643822748123  0.8424917040455177
  0.9691110016121783  0.3687883727726700  0.8404855062113742
  0.5814465643563720  0.3057418713585942  0.3995093216257901
  0.0244379844199302  0.2853467722332129  0.1574706200573293
  0.5514564025424806  0.7961231956600888  0.8843466915273368
  0.6518378445372487  0.2088224665343419  0.2275767217029067
  0.7097965236568187  0.0491785640007002  0.0256207835281550
  0.7993146376473107  0.0145342596084998  0.3706756625514145
  0.8870104875747878  0.0698337014868629  0.6463340219309676
  0.0968594472264165  0.5314813070157857  0.0194235784747026
  0.9621288992122969  0.9260092950665290  0.9348566887107500
  0.0383401642119503  0.8161103749089565  0.2604630683033635
  0.8090643083655424  0.7221334389934363  0.1075048727835957
  0.4577117386468306  0.1867303011845330  0.6772582322135935
  0.1293504689129411  0.5936112654021289  0.5116902708255808
  0.8492972334495444  0.3978755573143565  0.7502588538274354
  0.0145824019186929  0.8323797358955994  0.6631652125353951
  0.4330456634940134  0.4696810020331935  0.2816041389516557
  0.6526072064953898  0.0505384178479196  0.1409458082986742
  0.2651934875211309  0.5283444841774858  0.0501988223941000
  0.8917049977674966  0.6780086252562711  0.0984562075230043
  0.9343093541331788  0.7897003095304693  0.1016767951372260
  0.8142632557521408  0.2807325896325675  0.6982473040578863
  0.4200603395055491  0.2892896561424996  0.5117388294783715
  0.8601574881869396  0.6462102707736475  0.7479847477051217
  0.3382910806268584  0.0349296330176126  0.5159111320168533
  0.0363331391605541  0.3560380860233861  0.0169033339323452
  0.6039407679901134  0.6667125339982863  0.1786241576336975
  0.7930248357861123  0.6333566790588587  0.5155746844828952
  0.9079629200592991  0.4031697790656532  0.2359990366569077
  0.0713404976625006  0.2248956490159035  0.4216101381141217
  0.1771536006670813  0.3059106745255961  0.6952244888422715
  0.5121413826770319  0.5249890267318948  0.9102402654622779
  0.0979536373667153  0.0690542809389835  0.0925546968886160
  0.6422282065338505  0.6478216038017149  0.0556531695616888
  0.2096071926588593  0.6054218532199975  0.0868722316715514
  0.0592779963783550  0.5408352735049428  0.5367070033508847
  0.8378403739002617  0.0738746506193242  0.6500639156623176
  0.5271674094603496  0.4814977444801680  0.0445521907773391
  0.3493091984392058  0.5872961946370124  0.4037270624777149
  0.0399484063111362  0.1688020096898480  0.0187368872381970
  0.1593914095593388  0.8356903319798921  0.8526663590908786
  0.7445802170028211  0.2509906336867424  0.8939362999796093
  0.7182465060622983  0.1206100616851623  0.0648534534539134
  0.7553819669921040  0.1824915308948312  0.8364984179581691
  0.9806079823287385  0.2387543063259531  0.3400971225398555
  0.7047308745669290  0.8030482183407177  0.3746729034309108
  0.9626063366027537  0.2267424775811618  0.8958557495741862
  0.6146594549266903  0.0843788426927660  0.1821748705374713
  0.5272203944944146  0.7211425813928117  0.9307167038295071
  0.3127449910873769  0.1620582412702659  0.6586513460683791
  0.2417404658357348  0.7878667858092817  0.0461315263891226
  0.8133911399203559  0.5198814476380542  0.6638469455586893
  0.8381862182067429  0.5273956413956203  0.0200266886862220
  0.8046411913619929  0.7225845494911803  0.0086061390148686
  0.2725881132922224  0.8493457810026667  0.9701723367315853
  0.8003156887227760  0.9940925050899461  0.6036309614860986
  0.0219208056884713  0.3422196254104389  0.5091664874536621
  0.4144298233017561  0.0506441012436578  0.5485089865106170
  0.6379526674607156  0.0365059329577821  0.1820540101950317
  0.2543666643109644  0.1885234160492505  0.0069113858182677
  0.8173257151097882  0.9618648652298494  0.2475578036935970
  0.1790423539216583  0.1070704718257043  0.6243649050062675
  0.6617307253931988  0.5282640103400177  0.9614645898880934
  0.8623391224786158  0.2270475829482073  0.4596202262166731
  0.0676743026446587  0.6801949684198959  0.6074207408824378
  0.0866797851848667  0.2304936491349297  0.3739149976534307
  0.7226863474012801  0.0855345071388495  0.2873165684447803
  0.8339034727896754  0.2521646288967968  0.9446888639668948
  0.7315585271963936  0.0038354079710019  0.3547494304799695
  0.5117333369699207  0.9888931876377027  0.6058246482266879
  0.0896566006916894  0.5796220970455870  0.4879018277191565
  0.0686282245227456  0.3503962818715317  0.5028078330763331
  0.2089543754509522  0.4712702820911701  0.9629514345933862
  0.5186636176019656  0.1503569590813016  0.4886387929533839
  0.1023224625615121  0.6167741934077602  0.6725203426164267
  0.4565768660162932  0.9042038188087810  0.0465888472919850
  0.5654596272868649  0.8561849432303427  0.8787748696957248
  0.7684555881517692  0.7500149143042394  0.3147745887421896
  0.0129287293956671  0.7737330089479639  0.4242870285415873
  0.4408053636739274  0.5614263440930386  0.9751748018459941
  0.2020683671273777  0.9901167005604302  0.0536889638396123
  0.0193645661797705  0.1818332515533613  0.5965033087954582
  0.7309113438386647  0.8775809692367617  0.3852459979543806
  0.8463235871434818  0.0761026809009141  0.7061344617750750
  0.5762438857539663  0.1571869988140821  0.0820096537549456
  0.0678869427391574  0.3234070570589858  0.3135643940850122
  0.2082273601450959  0.6155809276019943  0.9284243446238414
  0.7436535924901783  0.7811313755202199  0.4774984339633718
  0.7418871018197709  0.0023721301556661  0.6657245561522629
  0.7732396824446737  0.1250041829323524  0.1142651346752834
  0.2715226683004001  0.8880769126578381  0.6394231957496702
  0.4144996391642454  0.4302882637374175  0.6108173735535373
  0.4349392267941106  0.3422651473217645  0.0502143395190207
  0.9127648556399248  0.8342725680977806  0.3872791525544625
  0.4265572477583783  0.2711423692547620  0.6539544377296075
  0.2572132699951941  0.8012206945998839  0.2941031121311203
  0.2775666522768448  0.5579349927216034  0.8787430149790055
  0.7381241032636854  0.7947502239059594  0.6777448087528285
  0.9923453792215314  0.5091585813984076  0.3745402359007378
  0.6342093769173716  0.6460715479890489  0.0823090251642613
  0.0586141446347097  0.8499201631363786  0.4444485651477083
  0.9589582716101797  0.3285647819128226  0.2492513323022992
  0.7083448526289142  0.5894208620061688  0.0858074516418206
  0.5645566834621419  0.5817985983558170  0.5183311505779779
  0.9363021461967377  0.5571403417245874  0.4116714685017803
  0.6732526699307182  0.2914620845638052  0.6603784829563755
  0.0773079521444965  0.0785448119681917  0.1443818971297466
  0.2556159196371548  0.2747523004968329  0.3162841976958129
  0.7590650176088510  0.7769300627785920  0.1353185869161576
  0.5909150984937479  0.7152917385136043  0.5438788879039165
  0.0623071480094412  0.3554721311649974  0.0283167887897237
  0.0062887444573379  0.9679250059469731  0.3874859607103058
  0.5186820507964085  0.2482554887735879  0.8984798567661092
  0.4045271923606547  0.5870713600298233  0.4077831749620142
  0.6491354187195433  0.7310554711241622  0.9231909603692012
  0.2947977675414458  0.7925581402680477  0.3239403060081218
  0.6993955083679262  0.9202936148019679  0.9552758186489573
  0.8319598823333271  0.0531270767258636  0.2013121640696021
  0.0617836085662597  0.2581205328400387  0.6323547733926340
  0.8162344293787354  0.5006646669713675  0.3899368419727500
  0.7013157478684601  0.7273812713256687  0.6097862366739452
  0.7980601069908912  0.1333458841199966  0.7537580047768472
  0.1147356720943111  0.1699963004842354  0.7564940694239146
  0.9281974639664000  0.3952672884891448  0.6951411314917071
  0.1085147377867162  0.1797107157488249  0.9073670261282019
  0.2749653715310844  0.6765658132019267  0.1947578770408220
  0.9716705888141449  0.3847816853275211  0.7158261115366394
  0.6095725520637990  0.2732916797978067  0.2076657100686411
  0.9091424821198880  0.5408757773451500  0.5572964833759477
  0.4079944111023117  0.1906706856459228  0.4723131494291454
  0.3311350826999827  0.6585384817642881  0.3706700531552461
  0.5334972371109930  0.1417941316841153  0.9605118122047090
  0.7721235513979691  0.2425402241292466  0.4884161345959343
  0.1458421029105403  0.1026607473766337  0.7982340733026028
  0.9225766661133826  0.0881250170190434  0.2998687136496613
  0.9688519451732903  0.9864352063811546  0.5538244855914827
  0.4748082978826167  0.3187686358062405  0.7440568777610919
  0.3386981122128144  0.3808531597958720  0.5818161600720685
  0.0995983584651307  0.3499312571831686  0.1947204035087982
  0.5056857181304351  0.1753551423898406  0.4788476049678489
  0.7497162580044765  0.1888963217742967  0.9652540867103491
  0.5924015574462479  0.5906339936810403  0.9859161421812298
  0.3970073848217342  0.0994871026273470  0.0384460139387420
  0.9039841989422561  0.5752770820976332  0.3325595891268311
  0.2102658149874638  0.0504365822484774  0.9003873320333884
  0.5557506518700348  0.8027833284277693  0.2435997664610629
  0.7432758875284190  0.7361991993229750  0.6469359929079940
  0.8468936438633384  0.9730944482623531  0.5143082996686008
  0.4455372584833648  0.6071529714180310  0.2139102425935902
  0.6948540000956827  0.0178186432980283  0.2935712816530218
  0.0032934846595644  0.0389649575421129  0.7338214572633470
  0.2227443637213024  0.8905996033598940  0.6428612625993272
  0.9392510874667498  0.6410409776592049  0.7749925292879928
  0.3762646052422425  0.8229572264447815  0.5966097971394402
  0.6139432949765982  0.4558346501702757  0.9977765259889593
  0.8783364294499978  0.2394150916415073  0.5580371561424765
  0.4837454656904658  0.1998684462282518  0.5709569041770766
  0.8917828957338529  0.4637935629937488  0.6617813189878616
  0.7478061766024294  0.8762067398197284  0.7017237248281832
  0.0318501569382285  0.9769199575664765  0.0537393973013046
  0.7075048080726928  0.7902619104764644  0.0042227825347148
  0.5061239464395321  0.1996135744378497  0.3438674263692190
  0.4200078365898888  0.3163402253203869  0.9391811102975224
  0.5980447898524048  0.0824683280782684  0.4710684667052791
  0.1787969444172638  0.2710912779917201  0.0167233321168325
  0.3719898916165206  0.3693140833797334  0.6722559655022646
  0.0520844148674182  0.0416093488225667  0.4372544614537978
  0.9798964526647763  0.9989590507840618  0.8936472868143223
  0.3011272798292348  0.0302192901608370  0.6092291368581233
  0.3877721949001660  0.5171686148202024  0.7890364111367331
  0.0910163796397204  0.4732470362921409  0.0516947948435117
  0.0774769674637133  0.9002572989704113  0.6555076933567401
  0.3278392782099542  0.7808685756211505  0.0520350601337045
  0.0539878784259752  0.8129798546604133  0.2372174480072935
  0.9875118269700743  0.3649543859705218  0.9169638071524240
  0.9625637880919086  0.4456297435644676  0.9757213542334366
  0.1338025984369657  0.5929010573884612  0.2729959523769210
  0.3002614790662246  0.1040211227978317  0.4892013779129404
  0.7041402127895622  0.9195110350954327  0.4753093746239089
  0.8566282799543284  0.5269034725443643  0.9223425266732788
  0.7861279910637214  0.8927165721235595  0.4331758272138213
  0.6565108050819259  0.7421560994853285  0.8012958717173130
  0.1326859517399266  0.1431859989501368  0.2661959633747917
  0.1881513272521810  0.6707680775387183  0.2678158724164172
  0.6363250197715001  0.2784268034873644  0.5841855497745281
  0.3094242285209984  0.7055773903511995  0.9291708211814756
  0.6761540303683927  0.2854232265776835  0.6112594857580852
  0.3749648158796445  0.1910477404422495  0.4360830816537088
  0.2558741366457297  0.1193533351787545  0.0843118351155099
  0.4238450549004141  0.3172515716000088  0.8627270225485080
  0.5781829416721698  0.9415399061993563  0.2719145734244662
  0.3316004908528240  0.5345858945622913  0.0864046194606488
  0.0274864895517409  0.3661173920974298  0.8883205929899778
  0.0768778199733253  0.9635481097490063  0.6885727189652660
  0.0150635061821070  0.1201108678154654  0.4801160960613048
  0.7787487013869270  0.0048014410600704  0.7010099647380195
  0.4265743575755552  0.9762403202832890  0.6704920398734808
  0.1107460795380798  0.7290514900266053  0.1254264089572470
  0.4357608982780595  0.1925790305096463  0.8759907674544604
  0.7814940055509236  0.1844865741140749  0.8472964374439712
  0.7566874267151739  0.0560794105147719  0.0396775908365336
  0.6689064576178646  0.0056210626198078  0.2090734801241955
  0.8860384844668534  0.0540066120478463  0.1125656471603407
  0.1165573526524540  0.3498674413054463  0.0442093043620128
  0.7111987526720387  0.2107294518199860  0.5558180457506573
  0.9301188553699021  0.9810871455485184  0.5254758038072738
  0.6850635185718076  0.8528049865093926  0.1195958412520209
  0.0998718219196864  0.9760968535686204  0.9397556034500166
  0.4252669212877368  0.7097848594629913  0.9866074546663621
  0.5231678652797710  0.8596565741442309  0.4623771492400610
  0.5634875160208578  0.5245970955248362  0.3474720195372825
  0.5697334380547993  0.4347176896851863  0.7256225982872581
  0.3530377775181874  0.7811514978630471  0.4830832982923987
  0.6353992783390356  0.5779347841489409  0.4974215722343701
  0.5219231980488939  0.8628392519144507  0.3643201104767897
  0.4514779422160016  0.4761975930522261  0.2344756958052686
  0.8438019521663651  0.9069738648816826  0.7921124164144080
  0.5583622902834841  0.1559548169088539  0.1273867576432872
  0.0107748189631482  0.6460968701912646  0.9078911890286869
  0.1769254725779751  0.4256849081851112  0.4440305018013316
  0.0540494719097114  0.5335243653112626  0.1871257013505364
  0.2609403814794643  0.5372785853482512  0.2484765682752412
  0.6179481576203699  0.0880657938313230  0.8361924804089443
  0.9259413587137767  0.7957488723834655  0.1689141167082538
  0.9578476048838753  0.9911759414336045  0.1654690468310974
  0.8441829612221375  0.0120119897501878  0.3731632503877141
  0.8017400213845590  0.4033005288316902  0.3407181822980552
  0.9171074364302555  0.1877831251060279  0.5871251900100863
  0.6816454998823979  0.3371102909028651  0.2109234686000880
  0.0332603825355701  0.9595734431265583  0.3275983096861120
  0.1750508492734626  0.4664048919390575  0.9125785940603378
  0.6134243189438701  0.2848492163847912  0.2790432662282225
  0.8567419526238662  0.8321422719837249  0.3012255321910370
  0.6248525206471135  0.1568915096495839  0.3372956770637066
  0.7577036895831790  0.7907026350427364  0.5792127088452432
  0.5700022797759291  0.7172268155575441  0.5248537740784611
  0.9125554686425088  0.5277587530642061  0.0855624416743653
  0.8625697343442107  0.5166120183306302  0.7987561760175710
  0.3356863159518438  0.7700892571692799  0.7810580340964293
  0.6941233525038968  0.8716343346912517  0.6524380750549811
  0.5670145627369350  0.9655158676508352  0.7432914466950757
  0.9102563715136583  0.8889350587482860  0.3562571195330822
  0.9736171561815251  0.5108295480407256  0.7438186597924056
  0.8411149042378920  0.5375670756990557  0.2484349016243880
  0.2817595481492154  0.7351216885254439  0.1317336124057759
  0.2832291903477644  0.5717238259606732  0.7308730191538412
  0.7342472931184058  0.4358727360489530  0.4780978898306477
  0.3051774582581257  0.8472708396906613  0.8926176349517222
  0.3855126426545050  0.1011171668028324  0.7479047732272734
  0.9473719424433332  0.5915149613350843  0.3205712253122006
  0.1233431249836940  0.6758474968140274  0.5968796914624811
  0.1296745647370673  0.3458746853228401  0.0992494649215888
  0.6372058427336077  0.3766679681802811  0.4378243833191681
  0.4071614958192458  0.9124525324485302  0.4335800905237507
  0.7287598418524048  0.0489529740734436  0.9713331089811494
  0.0354254973154434  0.4065235410814452  0.5924748084084825
  0.0514441679463948  0.1253400875076954  0.5204955117400988
  0.4744951799972469  0.1269219918273616  0.4933515955833351
  0.6937971296217353  0.9415500642327698  0.7117730612736139
  0.6917188421757693  0.1252155897614108  0.2398464832110700
  0.8582960720235198  0.7934492710534009  0.6680125384657414
  0.7116535414022593  0.0299104851170057  0.7255823344864650
  0.9617665586827939  0.1228278669657587  0.5373158322606330
  0.4278957647086050  0.9160409357390497  0.2430004669113651
  0.7431429509856918  0.6794137517043768  0.3345717310370859
  0.2323245923659865  0.8026718824071164  0.6101564548169902
  0.7307697948466881  0.7397135853392689  0.7019207571231798
  0.3653809467930886  0.3051985630804542  0.9109667594228432
  0.0600953886906986  0.0713686885693598  0.1231205545344114
  0.5780754771716363  0.4674864810241641  0.2575889832511085
  0.6889785734434469  0.0429694023224952  0.2267771532827166
  0.1381498019080015  0.5349975051303931  0.2025022158039895
  0.5606069625230080  0.2892391563614392  0.6514327225594915
  0.0633224255188234  0.3752004984644509  0.4223964055116715
  0.1532216222074174  0.0368705444067420  0.8507557815208953
  0.0754503601156219  0.6613113486391834  0.0113152023054065
  0.7977460651792677  0.9798622584354063  0.9582277378306834
  0.5777098441782611  0.2979691419147131  0.4741752885906290
  0.3974325992202031  0.3287516325081715  0.2770555299008684
  0.6439327249548128  0.3780666597677217  0.7824073574103416
  0.8187272293908259  0.2537789115701112  0.8976638850205748
  0.7204852219367643  0.3671416819119244  0.4843158704121042
  0.8876432633218116  0.2533944347654379  0.7971131780680295
  0.8325718731911638  0.6928017390367786  0.1797379354082877
  0.1898469629487008  0.8666284894086640  0.5479363110509861
  0.6211341380353667  0.9185823909862791  0.0091009383396894
  0.9645320088323923  0.4038610459442374  0.2328867236156088
  0.2300764743719516  0.7867985964338664  0.3624981409247382
  0.9588732688248275  0.7669808256695904  0.4760097495204288
  0.2853190762390958  0.8868146062160381  0.5377074518833789
  0.2272290780577726  0.2780910694968569  0.2338654520210313
  0.4882278842737903  0.9297422880280705  0.3132185053701503
  0.8501798700532823  0.3165721122796144  0.8957447380407964
  0.1560044041793128  0.8062845806400930  0.3033158649554925
  0.7318516753198970  0.7880598073781139  0.0172441699420239
  0.2781787845313612  0.3279633955116514  0.3195230939061675
  0.2989949404412757  0.0850948582324721  0.2464546986018561
  0.7106949552925816  0.0405719746057720  0.8748696217109481
  0.9500612523951985  0.7719479384773300  0.8174350423993636
  0.7022136795102888  0.8731058374518033  0.3365073154114243
  0.4230848793291256  0.1161434116366130  0.4397911971399133
  0.5991946615105570  0.7309753466374374  0.2817575325894292
  0.9158049582709310  0.9932232655933109  0.6237230189368914
  0.9528480778258034  0.1092577431841217  0.4421141344687436
  0.3855148835461599  0.5681098023207531  0.6557564246845903
  0.0342457846860331  0.8885933736414285  0.3308323600515451
  0.5854024771525229  0.1578621832963006  0.6612868584312896
  0.6902295368159915  0.1305228155371950  0.5245195711045989
  0.9087250894076638  0.8858869697084457  0.3056970666554571
  0.0241116564425817  0.0557980662055607  0.0821126806666083
  0.4698494417559026  0.4171602017869667  0.0580204191161783
  0.7525605755398935  0.3270587211381947  0.2242621778051031
  0.6792626423383317  0.5934851809367753  0.0361878928920475
  0.2896259371904101  0.8879223716395683  0.8397079925981986
  0.1471559016014323  0.1404894751047429  0.4491216831535341
  0.9582776298420127  0.6943422860962382  0.4564685572189771
  0.8327232946614599  0.4768542174158993  0.7685384009437242
  0.1503310648127381  0.3458054689019310  0.0792199908164506
  0.2637080962703784  0.4825014657665678  0.9155438202769186
  0.2582878577053801  0.4073876013352935  0.5387450418732469
  0.3763532757527320  0.1134357577079103  0.6091398274151615
  0.2841151510864902  0.0966814610110634  0.6992902369024113
  0.6323662493492943  0.5276746765902972  0.8809685223670982
  0.0562891809086763  0.7734748277822717  0.6802178289932908
  0.9866061339726311  0.6038050175661007  0.1066818020155363
  0.4127243506279145  0.9994518851269740  0.2591686906181578
  0.0205246421750541  0.8336170370825429  0.3723833038317202
  0.2078340618374738  0.1926092760601148  0.9900496158341228
  0.8278401383445324  0.0298299929535425  0.4428801266747837
  0.5123021913673524  0.9952696970916012  0.3691686869477610
  0.8778448975682966  0.1142746977746103  0.9723783084305571
  0.1513917088130478  0.9602312998435872  0.8707519862352322
  0.6384752033500832  0.7219236455779083  0.1487268708707120
  0.6333757882328602  0.7843043992105173  0.5344435248198111
  0.6561596266982083  0.1583420141906523  0.8247105955677568
  0.8874017895079374  0.9747984216167545  0.8641287182633024
  0.7232310378342942  0.5988148397035351  0.8152458307504656
  0.8487033981097204  0.7012002194997532  0.3803818077622417
  0.1739929378216615  0.3995950502077927  0.8518505316384932
  0.5218482561474059  0.3924950368010217  0.8599929098670954
  0.5765433700581863  0.9232317022691157  0.4917857543870930
  0.2306432742253372  0.8993748834344063  0.7285730665212079
  0.2495918714893553  0.6045140500786257  0.2006701798007218
  0.7036810391591418  0.8718444604616018  0.3855937524598223
  0.4068573369908829  0.2563845898273415  0.3685608781104135
  0.3082410519477293  0.4060370607379323  0.2265507914011086
  0.9659672443275833  0.4018664606488441  0.5234937369982335
  0.6833315918846756  0.0350333780727653  0.8819100992947893
  0.2008677229362545  0.5139365147753004  0.4363957468710072
  0.0129831413157839  0.6395523539753510  0.7793334924810440
  0.6406387060796439  0.6589335158859183  0.3678398312162239
  0.6479515738438029  0.0079659762193359  0.3043691267846021
  0.4747105532111455  0.2228292895780291  0.0088531512100925
  0.6808041809289906  0.9942528735125803  0.5483831709009512
  0.1542368647330150  0.9617566807100507  0.7487054318623672
  0.6901435444528757  0.7855845774855751  0.5440602884411019
  0.4567694877962900  0.1757006995760649  0.7650296504917590
  0.2959087583898493  0.9289946262802128  0.9182233881439275
  0.7343025680082312  0.9435627365170699  0.4280407867565292
  0.7367114058253411  0.7247186721777185  0.0430625339588975
  0.7266044629028269  0.3972819523442289  0.0489583776802649
  0.4212139514363569  0.3123386019252004  0.7386361168280108
  0.4439674666503959  0.6650123645253972  0.3033314065300856
  0.5904856128268728  0.8916904303787404  0.8612586253215040
  0.1643594558352481  0.8158430237257526  0.6356634132957566
  0.4777153705100068  0.5775853595012153  0.5623137104811305
  0.7259912869005267  0.7224836552501304  0.0920227141010823
  0.3500831263505693  0.8974513922868560  0.7043402405972101
  0.7761617141489279  0.1904099943116236  0.9751305599632452
  0.5351078917455894  0.9912323536468487  0.5873511130000326
  0.4973627364759732  0.5606709011469643  0.1100666168773233
  0.9568795427112752  0.2166316004840036  0.2619909904624841
  0.5361987719605819  0.8624965297992192  0.3887060194074763
  0.1732257364240214  0.9319368434289588  0.4000079927366135
  0.3640776386205835  0.1331729930195631  0.3335835173611864
  0.2474739031760475  0.7356319759617075  0.1643057927393702
  0.6678313218531109  0.8600312579196736  0.6039960612304962
  0.7698692841374720  0.1848567701302827  0.4835818912444331
  0.5831683327297071  0.3701680403239566  0.6851963254123891
  0.7996017169492937  0.5221724022821733  0.9122252942890162
  0.9111164260367201  0.8499171819391441  0.5395089538530551
  0.3072600738275093  0.4769942264374685  0.2551412123076545
  0.6711877147744676  0.5279653859198420  0.9884607238073235
  0.6432405759200771  0.1632060975881693  0.8978104728314859
  0.2953155726565623  0.9539457005206851  0.8475785485869632
  0.3332422154001224  0.7302652783519429  0.3432197485331668
  0.9652797656471506  0.5406203026360301  0.5689661577343080
  0.7065192762938723  0.4370588938223274  0.7223271592032001
  0.4805532925078639  0.1442479639478086  0.2794963427080249
  0.8594031110064020  0.0535488978144542  0.1942074167139268
  0.9404621913240705  0.2402038778756087  0.2760675066117627
  0.7291628459208781  0.4060311892449952  0.1495612279683183
  0.3396452680348716  0.3685439262705737  0.6271487366978775
  0.1318064972805302  0.6641393459445416  0.0602434296315714
  0.4482048692698339  0.9844096910453695  0.9968953898540670
  0.5914366920796857  0.2806312176187131  0.1564443779220036
  0.4494646637807332  0.2131252588533827  0.2255580725724450
  0.0992752281049498  0.2182968347487762  0.2263217079903843
  0.3494306457730373  0.3007333190780098  0.7570344252222350
  0.4175214801575221  0.7053298446168330  0.8553192066723876
  0.9156710926081969  0.3771648143665562  0.4795205942271264
  0.4080351424186916  0.2506165404035597  0.7640006699931162
  0.7944038759480332  0.6493310399475424  0.7998328193490376
  0.9293542303930271  0.5895422102540691  0.7106099502725928
