Generated using phonoLAMMPS
1.0
       19.0173412636         0.0000000000         0.0000000000
        0.0274794244        19.0750378075         0.0000000000
        0.0427191677        -0.0310708624        18.8802078552
C 
1000
Direct
0.806659610940865   0.102393120603164   0.107279504840946
0.051662745666075   0.786756774115657   0.241467760575759
0.609407734562240   0.975361641558448   0.464434766145063
0.248590316024699   0.215148561248326   0.457711789842393
0.943305637876714   0.809241600160503   0.451375255789509
0.828445635503845   0.178134917718339   0.337857384776786
0.990235325597099   0.182407252344367   0.491063770118742
0.980772383641799   0.532992712718540   0.835546367973653
0.774210148180357   0.138523963598608   0.954436748694847
0.180554964212596   0.931351297638858   0.482333394305925
0.710885741551633   0.903079572167354   0.391350008785257
0.162829441393920   0.154225693804784   0.498252028375264
0.354021613310657   0.303755241481802   0.472909161725191
0.039616981488154   0.076438258129771   0.081563032664170
0.071332853031719   0.948692875073109   0.063698255295890
0.772506551987634   0.056580030823010   0.935621828714919
0.224657953034531   0.332184649601596   0.520550090093057
0.797319778724899   0.129545136368935   0.648169135311163
0.971580444945106   0.113576078163701   0.522456531498578
0.102216219589682   0.045155059517622   0.256599202040336
0.889651159428442   0.873401854610763   0.227708447543172
0.981042330470472   0.406575950130457   0.353392519890207
0.760720739200288   0.513221594577730   0.159250816148822
0.943005231884522   0.930887468416134   0.221060956638276
0.406573240266468   0.173834704293680   0.611383952365800
0.902040415911584   0.315784823274489   0.377053035888020
0.854583032182704   0.997208203704045   0.685107716991444
0.127584738550188   0.572987639901869   0.601515146819325
0.124638444875563   0.610683043138905   0.029575499448022
0.281601708199076   0.097190698570478   0.053355447552584
0.121093912663253   0.126232653092260   0.846619895426500
0.050112390298310   0.435067265946538   0.888174469720231
0.876602025431628   0.434316381847858   0.422999014166065
0.931310411498692   0.322419963506209   0.077037249333005
0.934240073763958   0.185539807082747   0.548862940465240
0.212244514576797   0.457953932211873   0.458803519878317
0.456426732028583   0.561390106820334   0.212295760234232
0.126147363956677   0.306952122711656   0.796492401743249
0.254443830066309   0.396510530867933   0.920286891609327
0.024575778814826   0.145335865651906   0.992198790589086
0.130538096912661   0.453328170465715   0.902353158962059
0.800312054938317   0.179781745222031   0.027515400041368
0.390063622898690   0.387827621950822   0.352442470497871
0.474165127960210   0.443129143204941   0.176811321443190
0.290877424507519   0.700934524912869   0.315796297144995
0.865452230350607   0.671432751089036   0.474815022098974
0.513557402303925   0.341571048456245   0.527319874143120
0.123051800050029   0.682992190930621   0.983061359405960
0.699803995075106   0.163214531479352   0.940628500289987
0.876883318062429   0.594309111895585   0.845611506104411
0.138273076709854   0.462227409260889   0.043393623803477
0.299154873595847   0.185609888229782   0.837550148879571
0.246368701566206   0.522921808648907   0.152270647762397
0.359797348735302   0.435648180016571   0.411299963938757
0.962764142206056   0.533624163230676   0.315288597225930
0.160926437891079   0.702295892865362   0.532032495459706
0.265974413473026   0.767043306179849   0.783124879418515
0.106902774855204   0.809821544515302   0.566819766078610
0.171513241228258   0.386201041797211   0.904780923547679
0.878846802582467   0.204893716153921   0.039007676697646
0.102646170792814   0.511212794057950   0.793627290277588
0.076631014294687   0.010596527662554   0.195767234044619
0.961836960527820   0.987804598650410   0.121752838084719
0.718154548267243   0.653043345442319   0.049107238443068
0.002130526486000   0.342325302842979   0.309905276195807
0.240989633528212   0.142213739831867   0.478966880521359
0.084412365319660   0.332876553679251   0.300909789424552
0.221423969189164   0.277409001492450   0.887490706061536
0.918352796651037   0.364905762528121   0.617991098905537
0.706254382965672   0.537290149405769   0.095588383551770
0.830501627039735   0.707527801889385   0.945692157466498
0.730734629295401   0.335403477943426   0.164146153144519
0.966350386706436   0.974701581562815   0.967450434872689
0.953612584166621   0.545491451563690   0.117974267925580
0.958437560147070   0.734497679953063   0.414536759871762
0.247642875571325   0.876006530091773   0.639666220447554
0.763234610622590   0.766431998395586   0.551753152290158
0.730685335587649   0.462382485784124   0.564103037513258
0.869732234612149   0.757059711637714   0.985731314121852
0.824641188505038   0.408531516846600   0.288603170674271
0.987375019255522   0.668746227762842   0.937935929297660
0.764549793233055   0.622247127490065   0.413003743380526
0.922598272995695   0.620683266206193   0.484543015636365
0.098343506833183   0.404416348729592   0.417052858760309
0.837439910913732   0.122472166739360   0.392282028185412
0.466409457740257   0.606014925369191   0.153320923805547
0.955964171731424   0.919843782604847   0.603186675027173
0.538113219233500   0.946298502537110   0.431369200618037
0.063260275304193   0.681950175542056   0.623899042337912
0.249549559546352   0.723784964420398   0.723329160607662
0.848670166227144   0.989199063563618   0.999851121596671
0.531647659315505   0.936439443970054   0.561052922787740
0.502579747164894   0.060215516876304   0.834015505590057
0.028638549756146   0.016357112945802   0.578353495032766
0.012540387872276   0.904935912554842   0.181785921337445
0.284123173478489   0.785006131839091   0.461436949042938
0.914559922870010   0.936996012258537   0.421303378702434
0.155469611983515   0.050979394320953   0.450139584012009
0.827988062516484   0.372700390125351   0.922236149810415
0.542048042184841   0.952763621634895   0.960440167771019
0.276718159809419   0.116593650948967   0.635400128642965
0.968070941807396   0.052306378863873   0.965725347932450
0.403743222606930   0.135230818787354   0.116663035009615
0.317005189760882   0.062314279026611   0.252610573812429
0.803110574466663   0.124804379772218   0.459598852223975
0.461740240319613   0.864318202451287   0.377900340119133
0.069720209127762   0.307999652435157   0.626847579791893
0.073711976160118   0.121636000281924   0.678928182269433
0.589197412221070   0.897257719411121   0.604834220448207
0.835005731008661   0.608120909801386   0.239270667709084
0.965732580025455   0.169646405628221   0.419139034415899
0.367978258515837   0.120120526639115   0.248224107803413
0.051036951589939   0.227678405378654   0.518488683762232
0.619514970421697   0.867604328063728   0.221119056104575
0.065801292680966   0.211254503242483   0.351699486622504
0.680307305211020   0.973294232036789   0.181062689892923
0.207833386296763   0.745126966801447   0.661737767709955
0.905860775823234   0.405975009328827   0.091645729393993
0.882454813720810   0.908766992822500   0.860521537930277
0.915096929728169   0.158421364386164   0.810698617165084
0.469171822758963   0.969483030379493   0.598318063372843
0.200733553520501   0.095095631958488   0.030329860952367
0.307194354311696   0.197757254180286   0.159796987042654
0.621385454720039   0.265613569811054   0.348938056218778
0.730410818867732   0.539265842177036   0.537996905431442
0.225607516401880   0.205135272449345   0.850491282890058
0.882620103034889   0.900398847564137   0.613161581100473
0.152386683053619   0.672891652864190   0.858824528011439
0.084696536458895   0.247995245754339   0.831202189105018
0.524234912934896   0.202087193698185   0.185618285395877
0.995375135309642   0.194033673955496   0.108633503175925
0.628218324835198   0.751332068076956   0.367328219222433
0.012062396947462   0.594286392419650   0.099459868471883
0.133494752559403   0.223233423094942   0.525080869131935
0.152787280606597   0.429705265481451   0.210813110243581
0.210699431315426   0.750815250423672   0.171098832426799
0.072819479012389   0.189675212378775   0.721725936732578
0.194144865020067   0.272539465408025   0.474129314605746
0.970560643620886   0.095983046051641   0.036350529944562
0.245194337055985   0.341796299742587   0.167329119691333
0.018835496768288   0.186945730972047   0.924566749152195
0.899676122499525   0.748040355177463   0.059491639531428
0.900935746708101   0.246207383634453   0.969436281654014
0.425396965238701   0.738098952571111   0.321446693094985
0.007064358920661   0.293888754439366   0.191591789547154
0.097719987161663   0.372436799486477   0.223991887294569
0.321771508409123   0.025916222390980   0.035144242907117
0.172561683205818   0.155194955088764   0.068733394777886
0.882178263662126   0.462350410438912   0.850346189148453
0.020653350851440   0.362270205981554   0.878295081663143
0.892533020597359   0.603919314195957   0.116107204264504
0.132449944985174   0.974969190405942   0.927903698643599
0.962666557252092   0.470238628175206   0.087362911078636
0.825427349593077   0.573681449505767   0.381680386956930
0.340987398901072   0.387102368232222   0.286766079670506
0.201192267530771   0.541546028867405   0.272395887770035
0.189703094129651   0.529246581112444   0.611831881756454
0.808511825092575   0.381688255233822   0.726257899550797
0.910722158026188   0.639074683265005   0.735735777197717
0.877533789079992   0.435320829901577   0.018408525566326
0.954544921620939   0.276240375983159   0.337491303001998
0.030917775713599   0.795786411288097   0.315980351262759
0.169379170210777   0.462739300815056   0.283364779192646
0.261270821854558   0.232470827223400   0.223383192195016
0.038106258156449   0.671134797859245   0.699132287167300
0.094935155673257   0.834131337921822   0.432942835835819
0.023677851506039   0.619243692456253   0.398088263521418
0.980467251148861   0.533997705893577   0.704506645372369
0.423073899224583   0.488337039191402   0.425529076354276
0.412721055201107   0.321242319209756   0.724308646646260
0.118763390710042   0.571286914991869   0.956104855330195
0.546540543366903   0.737574910012817   0.024118878589283
0.081581866414891   0.781021626232390   0.864094099234544
0.281478674594062   0.485451698947570   0.020045183554257
0.184560905846156   0.551616307290334   0.191121724277319
0.331048783313631   0.387948498159638   0.468397032904717
0.960381490166654   0.938748098432409   0.300467016227132
0.780992679406670   0.723332616189709   0.745621441668756
0.121175537320268   0.653057930635057   0.792788337649445
0.385603405321762   0.287859923135023   0.001490047621073
0.491388616607435   0.593373492954826   0.847962046963937
0.006145817086544   0.924176082154299   0.100209895701911
0.268518060200876   0.861805084591311   0.270632052845367
0.102225568737751   0.891408457931927   0.017203802388783
0.953740050702970   0.590996512364582   0.562701389808797
0.836248383923736   0.414128334958815   0.134379807121733
0.757093867894644   0.552730220121198   0.849453285843082
0.287040244501604   0.284215180079912   0.748348249572294
0.111748462632755   0.761065075677644   0.064867607888262
0.000062492404241   0.132496969123023   0.643110742907199
0.422736706874868   0.569632977757690   0.438461828041792
0.225936620849670   0.110442595872916   0.949444255989104
0.390054458650850   0.766455714102443   0.144361113018643
0.048423029823049   0.008850027550782   0.375371689991648
0.313017242051378   0.910579211346820   0.118702310757810
0.831567662049916   0.803281636894920   0.530590159643869
0.996267639080724   0.221147643247739   0.375358618631316
0.993636510151395   0.730051721056270   0.338084615855644
0.988264759919898   0.818965601614822   0.518820933812026
0.977258771555342   0.734264098792158   0.704809698180044
0.630802261403341   0.397447422338841   0.942998209370688
0.246348658394075   0.794238850789519   0.612767252814625
0.509803893819592   0.289112413923216   0.939392857113867
0.109437078282967   0.117173454413762   0.259791726214978
0.164528235723539   0.747379710835997   0.005829923634537
0.585628658294594   0.490268448290606   0.700827247320569
0.950632269255649   0.092990788829624   0.784141822671855
0.306484034327053   0.505735784885978   0.581287286886373
0.299211164234121   0.880646927287608   0.971895555426639
0.295830194073800   0.801723922997029   0.993523834264022
0.035935955417826   0.476096071665567   0.820653984258579
0.803478158805018   0.762231608655118   0.230352575212892
0.356104775277291   0.391283536636696   0.552310540221515
0.901453239914116   0.986732089666827   0.175592688673018
0.085683724566661   0.999587219736402   0.629191044458137
0.568818186736973   0.005011112614140   0.530406480521976
0.406337284833855   0.358435978358916   0.972730604496063
0.508768543930366   0.567415477708224   0.626776611293544
0.429419203759742   0.064740973659299   0.114537865079934
0.114690887859337   0.931040307377607   0.622179818680580
0.261903101436303   0.343457350092834   0.800828376253056
0.065623974026690   0.776861549035882   0.789003495843251
0.951142512567715   0.222785019431421   0.837716322897572
0.428359898670975   0.254273808506844   0.611765791382367
0.539186752978226   0.185669149948359   0.098490505732851
0.046238381267168   0.445958455898193   0.376702992072259
0.881116737065521   0.710191946922775   0.405493673518612
0.174484119573183   0.902900946388898   0.660901797040508
0.118371895913335   0.185376308711812   0.790563743496557
0.820198362555872   0.179271028165172   0.897858568613753
0.181095263476124   0.335757671723850   0.839923332498291
0.342112496770688   0.246879217981196   0.957710362019129
0.329766268784519   0.440027687756202   0.129643015520396
0.247628065635579   0.038033903541178   0.371296550004308
0.475516760962827   0.116651196999923   0.514596693771255
0.031588502206499   0.441324120991657   0.121337258973505
0.328336969625470   0.769293116873974   0.592339188517982
0.141812179962614   0.142712553572770   0.639100220322875
0.045121920502386   0.891176157361430   0.420541748845905
0.236172329629646   0.044217901871623   0.911320374858116
0.084640961517643   0.162563554051784   0.205390168357282
0.166524807904623   0.035732247391175   0.061205959111394
0.856097129585779   0.365328615300558   0.991199363032741
0.094727525899926   0.499146671909219   0.105273812939119
0.015692613954321   0.429243019149111   0.969426869681362
0.324797510706845   0.162007730196737   0.587862299245986
0.154141060560720   0.730695838774689   0.354729465446823
0.193859133334793   0.201287444083743   0.776336548432810
0.276805673187663   0.670075619313110   0.247826152438852
0.217982611392697   0.255517474715051   0.718133290903665
0.164112500342379   0.633918915342628   0.924080467429535
0.362462290947329   0.492935746448665   0.016202967591575
0.050355287045551   0.571948860574194   0.922656701324514
0.595757715186104   0.879766872259478   0.347697144562525
0.837277170199979   0.334913466174915   0.613977149452161
0.432911218275512   0.677654125451491   0.595840023916984
0.832021778379701   0.261917807353814   0.648897268184775
0.198273865862656   0.399255285730694   0.159930873280527
0.365977951353649   0.509002909811043   0.146840107442802
0.026230046458293   0.593058010431469   0.847671064997948
0.751427768965689   0.711557280544420   0.678121782249011
0.303695809188742   0.637444577673986   0.944068398859859
0.579168366067835   0.496012530638600   0.500964689188789
0.981363866705166   0.489523507109434   0.490817589036646
0.208758562994225   0.662882360024059   0.634622854361212
0.761985503546861   0.666773521140386   0.339041918346094
0.858198896154886   0.183023378302556   0.757972227305673
0.118651649894768   0.527045049806141   0.485813721985787
0.256476779104570   0.401997974157897   0.496101955647711
0.401336637439947   0.547328871731381   0.752754175642493
0.246362117777932   0.553408423727733   0.564805874055196
0.318574233311723   0.714272066804986   0.828238328726512
0.257163784676171   0.860699813324926   0.137507611669909
0.387224185145636   0.888503784681167   0.133487923402594
0.991584954870647   0.483709750876654   0.634442506770438
0.185643677275169   0.784133142548515   0.552123079361595
0.191416822782550   0.780846048565746   0.932490957463217
0.419054675764736   0.668335416430395   0.751924301304236
0.422745460191127   0.607972265220799   0.804401393060782
0.990507289941859   0.594598757431619   0.962692245731500
0.761557717865385   0.495901079123579   0.897845470241007
0.472964355023822   0.716062718801798   0.050540395864190
0.003630558044982   0.706450446201964   0.169666047882928
0.176473259349239   0.013998086740555   0.878506668316777
0.469575163095605   0.444171228637724   0.466002168910275
0.956351104050513   0.979215955279976   0.745475564037476
0.802817228165978   0.935680923561229   0.509003982037898
0.853055870173507   0.321210237538341   0.757197045161904
0.531164524751775   0.755323785218841   0.823754410930200
0.257495173988870   0.728949099374967   0.106586366285462
0.273886582326952   0.962119193531790   0.060950736285621
0.155969491959782   0.751918778642849   0.867588753557527
0.313159632208496   0.006063394806957   0.361385919706429
0.906361088843488   0.947397201508293   0.999329760811054
0.405694483933510   0.727096926990379   0.482341682879928
0.311180564403470   0.566563174873300   0.158878147052488
0.121738985167711   0.448271833105026   0.675599352392028
0.131111431906947   0.681175096016358   0.244023160408749
0.150350196505591   0.293372008182430   0.723451362652136
0.374624667765972   0.576396774527847   0.683987008990649
0.191137910044799   0.784933420345915   0.804086772583849
0.067382523776858   0.791399015570397   0.497435269888373
0.374648745610286   0.261087406553344   0.073396774051846
0.523259484936553   0.925840078793438   0.717112592395058
0.228756705307425   0.664807812753709   0.499930217526729
0.253174390264408   0.634749070289936   0.571365346331656
0.145019330196577   0.884734091041319   0.728407081398327
0.012212936696892   0.969868783521977   0.507987637824573
0.100757440904630   0.998560936212429   0.320181371749838
0.539264605101268   0.792585965486411   0.753209133557463
0.299582358348754   0.005516980368512   0.891254753605135
0.404644622564966   0.347462394940540   0.892614431432671
0.403699831728974   0.183678240147963   0.054714774748387
0.716520585399827   0.057472309281462   0.727642900192768
0.925993226245872   0.235401206880932   0.271976718126317
0.389499594076818   0.954800618073507   0.607543110116809
0.331917442981654   0.449265215870471   0.823644931203289
0.928934638739976   0.359896552790740   0.764851357079884
0.453056054592614   0.169511087422485   0.922395104628234
0.358044297185103   0.516306494150728   0.639386700219786
0.123052762023448   0.273006076912865   0.058754686839662
0.481002257288083   0.174267364863841   0.047642494505285
0.075483525751455   0.250642394452329   0.284398618446413
0.393637096545997   0.830311009553452   0.183306763174580
0.234122757422591   0.454212261041079   0.385454443924230
0.480958373743539   0.366296326027702   0.456653811023876
0.677100895775442   0.933335433487522   0.470153697887134
0.067042064769580   0.954151427365640   0.884914320230773
0.309419137162637   0.614633898663156   0.098978738705216
0.939785801223713   0.096906873699375   0.696091706235126
0.119941001513272   0.199118349930406   0.036463844322052
0.146921820797256   0.023266935082815   0.745130922704610
0.975284985839330   0.785167837938497   0.070940866767582
0.228801233831165   0.143991258405254   0.314629439758203
0.686111006810184   0.505959374169758   0.265198668807079
0.106077613380773   0.251787705764217   0.671208177218755
0.047464507651960   0.120204763665516   0.877585926334839
0.170957411576539   0.313632585281732   0.011257232210050
0.493417666541291   0.406000175461669   0.574664022939332
0.401821088612059   0.409635268119495   0.840195432256906
0.013468981002365   0.090186302783252   0.577303104054441
0.163218468730598   0.595132354976050   0.329220718207721
0.270495986092005   0.467322576315081   0.886731148745749
0.414247196890597   0.494112455612315   0.205952827417048
0.320324787920786   0.236002851846494   0.433929109405624
0.120313993988301   0.119608270173910   0.444955324349686
0.442614738092330   0.221943208523057   0.209770607949594
0.322915616155353   0.873972451355614   0.837220157809145
0.976047902868343   0.487068348876484   0.771737499488755
0.370024012394721   0.169429479581683   0.743477874166195
0.523370252855862   0.563967825171600   0.022831273644123
0.456077540204756   0.448007247557775   0.097740293123508
0.055011188707870   0.161312381453878   0.061521789320772
0.635082778512217   0.388924815407000   0.461931760332710
0.943546429896783   0.206640235092595   0.913271301473039
0.113817523392437   0.544996352601707   0.354973437337139
0.428712325810657   0.651942185100609   0.049677703772826
0.312722435664737   0.397029240703370   0.689112095575612
0.798824883545952   0.815808970368987   0.877334949225035
0.229395378029205   0.358518811272310   0.045426473880889
0.894084408582963   0.566451234813676   0.615223353952687
0.453238137674947   0.912634205020391   0.105599424290813
0.628184045736841   0.483405661531620   0.310137515694102
0.215281726338058   0.811441578812219   0.487266630248788
0.998631634837837   0.231146360690496   0.236906177320929
0.302344954087649   0.639809801430920   0.817034029408285
0.395593599706556   0.731249468591620   0.799223393922755
0.623430886375283   0.511720560367810   0.383256368547186
0.320821769795285   0.053406886259804   0.836009932785393
0.557450815690952   0.302361890503498   0.758274829906439
0.338457012742380   0.321427699126497   0.694045531728135
0.353289425899260   0.001403938610948   0.956633652474621
0.131908427283313   0.757071334781522   0.147901718106928
0.406141821910400   0.918201369083551   0.381039638184841
0.351550954748621   0.886748275672404   0.425616901658569
0.706777567586047   0.928068795258847   0.677192581673755
0.818675749169907   0.909944974247933   0.241515231451444
0.702883748690378   0.832403809458671   0.426934932169189
0.172896475275923   0.861760867116498   0.446113181305905
0.983767248986324   0.660045784127302   0.859261212822498
0.506285383378818   0.867996810486445   0.769054186869077
0.266708623723741   0.019100066373004   0.502475985050510
0.458329493187950   0.845424528043933   0.466415628871090
0.385775483342432   0.438981008959021   0.667657125211584
0.212229170299866   0.848779394128607   0.072692968770574
0.141054888492179   0.887815260551915   0.192835365368992
0.800114771807907   0.576300368290434   0.531392190009008
0.689803451590566   0.657702645325470   0.571932167421873
0.900615455114998   0.701749310731281   0.694748453014902
0.986187157839956   0.664975578521801   0.452385298695088
0.304414259520062   0.705350226026700   0.906296987365383
0.106943214472560   0.834976438607836   0.149243839983675
0.044191773530760   0.079160616635732   0.945915656065261
0.205202249717132   0.111971724635363   0.659192864583437
0.772285225794798   0.003061228018202   0.414373415801419
0.281995133205939   0.941562093558289   0.841384200949080
0.201881721471207   0.408129607501919   0.329641750119073
0.306158444556448   0.925685084085198   0.250053463722844
0.268059486650593   0.881861457471913   0.894994219851559
0.036022334512884   0.863456582760153   0.977692890966558
0.259229939793939   0.469794764784448   0.096941951277083
0.737827426583378   0.004481855609648   0.991296846069693
0.288764178472918   0.149513317265617   0.992480323506561
0.255109633382351   0.076736058700769   0.306109653258305
0.475097283289873   0.769744933542524   0.472887081989460
0.151959698359913   0.506019133966927   0.851473364239067
0.597277356660050   0.338338855918300   0.518013892908829
0.175397853331858   0.946786612061811   0.756043408498206
0.906506385973966   0.873957065359404   0.019006999380103
0.571649781799011   0.988034067881054   0.054652487828189
0.135415175137571   0.813580955276296   0.753061857636492
0.345733472454725   0.294258378638572   0.894138609567822
0.426585638230569   0.000309440514453   0.395817317654252
0.015515706674218   0.624218018384637   0.262760676050166
0.394761722459040   0.143740321459501   0.312114809603487
0.313105273098386   0.832654534577537   0.765827718152886
0.489147882697929   0.061462823605513   0.966828137698309
0.742783212529506   0.329947560888595   0.844744767765220
0.349830880604480   0.780130347574088   0.510754241370498
0.576659968376082   0.206274268171022   0.866842501180008
0.640261786700257   0.494828634490087   0.105437405947399
0.057741683821836   0.382104379405195   0.079077739580542
0.476976400858821   0.369754252162968   0.209031838540540
0.297741638621575   0.247211683347557   0.088274547228619
0.577432031939797   0.430542385319611   0.267878232527352
0.501717616676178   0.657943231343298   0.372857789172122
0.445290801383744   0.169660117752788   0.461538864764140
0.917864380162524   0.104104442141094   0.405001303409591
0.212363113251919   0.993089369782519   0.100566079810242
0.492933382438827   0.022435792352130   0.647918364766881
0.279730402545447   0.550861905481145   0.278150430878526
0.236690906061235   0.650630957074278   0.710817248566665
0.193582253771742   0.626731466608780   0.164006413687187
0.092045994265416   0.715447419098154   0.493390507744562
0.367989781078283   0.937023907466636   0.689364884106152
0.579752815116052   0.049889102878974   0.322434712937937
0.399843606272632   0.119058336105618   0.793827097399889
0.483884409439956   0.902309916723223   0.228731197935970
0.209404976133365   0.328434878747069   0.600202825461953
0.354901998951104   0.592317054715492   0.845570759730965
0.705525128827542   0.661895411053685   0.795339702569230
0.873472906047471   0.166486798157361   0.274008142795693
0.032637272946490   0.421502612378240   0.205145483021430
0.259801711890363   0.313005225678641   0.101587903306464
0.198043867998401   0.421588790206727   0.085215607388394
0.991532229106721   0.008495439601590   0.326377506395028
0.258532051916289   0.609228741587312   0.765095570492965
0.493183841767739   0.633246203308574   0.916867681371012
0.132983428441725   0.047518349791977   0.823108078003487
0.386977091867290   0.396096567660057   0.093031004397350
0.625357345115857   0.505799199057815   0.825490927829349
0.058128528939721   0.494202379285171   0.240008446662941
0.501939497800909   0.389325917426360   0.280423640491956
0.364745189758812   0.164747168014969   0.448509551639695
0.353114614637312   0.025677927575322   0.598001435502756
0.572751484804543   0.158040984652785   0.410393738746152
0.304167370976770   0.477506585256867   0.375905469072751
0.223664773506015   0.501194246791236   0.834868891322014
0.077460766043236   0.587763905054202   0.783641293224697
0.356561265299365   0.588093774972856   0.922082290275484
0.157074419663726   0.500248473489271   0.969047610085551
0.545344595707888   0.392430266778969   0.627553408885630
0.474879804010465   0.834411714806963   0.963945145073574
0.211697559659617   0.624080255478741   0.382991241699092
0.581993157183737   0.992775061104054   0.907935046662039
0.218592930061197   0.602593642719314   0.452617544019590
0.007063659372502   0.894434977041562   0.548143891178065
0.411208390432664   0.515352628787140   0.078819772611250
0.847749010957036   0.027794654656214   0.931138731884145
0.606161935082474   0.648621659237296   0.701569606732472
0.458509371242082   0.737339808634859   0.850093130493768
0.631209724607804   0.714524598341993   0.154409224324142
0.205155364215189   0.684504791354261   0.216008632493776
0.606178551676371   0.855545415830673   0.012196410853421
0.245425152835655   0.005413044389848   0.167188802909848
0.419619860661543   0.657402752341312   0.523073851503177
0.548321468829360   0.620498505533508   0.740924157577386
0.377573728194110   0.830127982431906   0.602508218513440
0.587100175665163   0.567912811338113   0.601790429805607
0.288683336612655   0.430039937163757   0.569016717527350
0.929939314218341   0.466437134335780   0.308292127641851
0.459673942474307   0.581537181889287   0.071502070864553
0.277302050960782   0.310817248865484   0.229075499759861
0.443634350769294   0.433886371768266   0.315271765313780
0.286214790241269   0.063973025859301   0.181193777432794
0.035887405694618   0.790445366882573   0.929187535145077
0.189665324224218   0.302843093117720   0.397584746819011
0.366506618654721   0.618314046649330   0.466463291481952
0.587091125746168   0.822163665215458   0.634188960832983
0.695896971675780   0.237605393947856   0.971284042031843
0.632768747630300   0.934401304085254   0.043136968207460
0.378913718749131   0.716533931531976   0.639091830584732
0.136114822741636   0.650198831556176   0.601862738331576
0.032176646453000   0.830558159950590   0.180918775693416
0.100607410337480   0.928519126662382   0.291615532107799
0.242169136510518   0.819458255403041   0.202257130815870
0.662825360527886   0.830494504964415   0.960597125788787
0.145270620150016   0.864749174007773   0.315871123122062
0.080488096575487   0.038134962225931   0.699530317742897
0.572968807300541   0.247675523236648   0.933196489950050
0.265461207326448   0.535670975584978   0.774330347002694
0.654766574303774   0.045704121674033   0.778537768902348
0.543810791526899   0.876251599625128   0.966467919206428
0.429297940828921   0.211855875650059   0.293045221876419
0.563710063848069   0.643839619390724   0.420766622959186
0.486482461081674   0.676061137566755   0.171677219597309
0.297756973922684   0.893709714489088   0.710765363544662
0.972030920482235   0.209995473217573   0.617247786114299
0.656131726375645   0.931118078504494   0.332898732800176
0.013916859992489   0.926371788628738   0.933166627990673
0.341578999999151   0.984232927662788   0.289863423748945
0.584077188297261   0.957373846872754   0.839407824402478
0.266663508412814   0.016449297806687   0.709105826730221
0.306251727631230   0.603260431079285   0.230538519140360
0.635786684496498   0.942631937566877   0.645941119585773
0.552497867094941   0.767644311671483   0.467572082770721
0.459632980527190   0.283049085655235   0.679825682981817
0.368410462190425   0.047045008461474   0.393275117358148
0.622614925190021   0.366338296999391   0.873254988845850
0.244185554884927   0.950242671741832   0.518340610180551
0.230803741114543   0.063294483358617   0.447090038665816
0.322843350614574   0.217529334654074   0.773547977438053
0.510018901867493   0.343736916439819   0.807756366718159
0.635255848643643   0.008643092666036   0.350688701140354
0.532867702162252   0.685918944887183   0.239356298122287
0.294405306068901   0.228417860617611   0.610536551737444
0.611473591283731   0.366042855790353   0.592693988637312
0.279780005791668   0.910232077769960   0.573237936944596
0.557673919712723   0.260636129303312   0.228399211124804
0.482109006593935   0.269067339182688   0.547583696074223
0.696370087058152   0.105704300352586   0.519394841158973
0.542185174967639   0.060895727301334   0.901752588243402
0.255780730753261   0.307267616753453   0.358143151911204
0.268054276377883   0.206029622385905   0.298838067529328
0.402004834464393   0.502459737529156   0.574846616268094
0.891129199636519   0.144584284431524   0.892330297908234
0.498256705111645   0.179817444460588   0.402746192643516
0.140458243466459   0.209098484091433   0.953806146527153
0.271325238177677   0.226785050089313   0.002480607986903
0.435486972886770   0.957848953061918   0.043828636387183
0.529620059434550   0.145989247440815   0.648888793701801
0.059570906885282   0.316003236731805   0.934367626421088
0.463195173606795   0.244091083706141   0.477217850518445
0.868909804424053   0.273059140599784   0.087019812631326
0.799997517443467   0.241236260011109   0.364713734234843
0.371559055234189   0.120765267374153   0.380763200020599
0.204229972292538   0.258500899975956   0.964463423266010
0.772784352814265   0.044377866650665   0.780955316439434
0.272919832039807   0.126046597457859   0.135926771552633
0.177353117902634   0.156932897093875   0.901990583504601
0.339239091578204   0.522662929566606   0.798259209622475
0.561158418815736   0.470354541186803   0.854536180095942
0.777944409057048   0.569124968144188   0.215394231948561
0.517087024935324   0.437729821466688   0.052060477963927
0.422362060600075   0.317132395498802   0.360938939457868
0.048012620985483   0.433359766159941   0.660652848510066
0.672013519888582   0.070864079283369   0.853379323128714
0.438750282430942   0.015485109831356   0.854682793947931
0.449883873866150   0.492205893416199   0.942420445604333
0.518198835731183   0.488421771560288   0.990593956562237
0.270149891321223   0.762854208859209   0.935280624844209
0.545393745214334   0.480128935541313   0.209129950807852
0.576649664956030   0.784869131581026   0.876163606188475
0.736267493573885   0.696966197424189   0.518755038351046
0.879441608064452   0.736133022554343   0.816682725013181
0.855280369186904   0.821067980291317   0.454830200803901
0.515445800710649   0.791292324093708   0.629892360889690
0.463515332269381   0.310489191460618   0.998545696349819
0.280546564217253   0.402702716033941   0.997367022885487
0.392417938979684   0.124164782062401   0.919357558620274
0.587495641705029   0.684892086483690   0.989758293092799
0.553254748644877   0.319123257655821   0.084084406918368
0.735415518246252   0.857670983821463   0.862835490209567
0.628585016336949   0.203749569140048   0.551492726131839
0.598004056847940   0.567552316306914   0.524030877513620
0.526248856767300   0.910030654862699   0.358037937497505
0.471108212530814   0.304655916781281   0.873666154870056
0.509021258550820   0.473728530441393   0.526616495234272
0.400794218910633   0.880688549603397   0.852898126095838
0.700758527536216   0.609464668811620   0.852853698618851
0.722347743961977   0.804546853148410   0.122302421546913
0.456838850497934   0.598938985393941   0.371247847150661
0.601923512127237   0.591024725374765   0.183988510435983
0.310737693999972   0.830515657245291   0.399247420781118
0.494300780522066   0.050061331677683   0.150888552279120
0.520413621735927   0.058187180324019   0.485164344601066
0.864312723673951   0.689666265592453   0.617742452278551
0.693459908372101   0.809771267209065   0.556113866993695
0.455482672717558   0.937710793093636   0.863459482280541
0.307756396729849   0.049778715625182   0.653212559659575
0.477401330988216   0.986879654674846   0.714322766117510
0.327111670234847   0.504690188913680   0.310236145964186
0.282359720729041   0.329367413036842   0.880083271722222
0.133704183163874   0.983071713914090   0.461654723658108
0.514275500283510   0.902876928967920   0.154413338155970
0.478916436768322   0.755916318849280   0.979765574715600
0.774791154106775   0.517638673492969   0.683892105374452
0.388289133794570   0.799064976925380   0.754109918131999
0.632073799676095   0.259496981165620   0.493884156441202
0.371944087211535   0.652574796241732   0.686711242769984
0.789364018847514   0.984760878799098   0.051897318425450
0.262098388105694   0.845407145177627   0.346178257153026
0.529165787337207   0.022454094056495   0.273814126923193
0.309224222445803   0.251546080356096   0.352196311131637
0.597002938724254   0.123489202810430   0.339001611586453
0.516482013250844   0.552965344362025   0.260258303705415
0.007981861033521   0.230290137773989   0.734259140912045
0.798781818621708   0.070028971542076   0.582654242176163
0.415873627099644   0.047669298787441   0.929887405617973
0.797197244963100   0.916095318409463   0.101150521469181
0.346271836099721   0.126191816481781   0.855572016149760
0.772348657209731   0.037528296193887   0.108671484749301
0.587806669490171   0.098557465571929   0.460017549944923
0.416254513245594   0.965318859281485   0.321598318014687
0.281673315311762   0.413743201382908   0.765199197530072
0.379114947524684   0.463581830060187   0.270586801224911
0.747836323300033   0.266609752588453   0.203544413783642
0.594960589262386   0.950232993178007   0.712937108703108
0.012432290559302   0.076107126569077   0.826407596762908
0.647196180180853   0.112327469762772   0.972495135690099
0.121701663645320   0.354942820424762   0.964798424874494
0.771684766546296   0.253539499101713   0.000164496875449
0.456341846519511   0.227174228596362   0.871084265921912
0.593788384331973   0.521142955874061   0.159641414073197
0.490486417074552   0.545381059235906   0.331945225289132
0.501167020794591   0.329464729285643   0.332993247119810
0.768899209725803   0.275962193150982   0.521055308577576
0.457465060340998   0.436003584802382   0.719348372865471
0.008700692038373   0.167180364910111   0.187495321404792
0.622553895388994   0.254042395449308   0.990105376136071
0.742815019581733   0.042684073620007   0.863536091606619
0.534731456391181   0.429026848093507   0.689898707678291
0.496944850498798   0.140156046163901   0.981211565152219
0.261770225688766   0.357682394319624   0.300214863812470
0.360681856413171   0.664525706730249   0.081799465442572
0.175504658784888   0.451995536406863   0.617969515456715
0.670825569451352   0.013643646960234   0.605395639055528
0.413424918848359   0.156265255072453   0.687195554175352
0.560594031685052   0.615399835447650   0.816988198345055
0.933615615637565   0.539429613705983   0.961198808783335
0.008081833245685   0.260157338977432   0.804680171771291
0.365816143595960   0.169584184880810   0.978626784286760
0.577746984050832   0.114266473492515   0.085869261209086
0.808691932400300   0.315014201390389   0.045198340587388
0.809232417464895   0.040546474685027   0.296411713945123
0.245279786173529   0.400232258240620   0.629623905158754
0.964299687514746   0.328297519555244   0.552371138071325
0.237472322691079   0.518696915336993   0.961152294464916
0.560903308061270   0.393856250225036   0.840246512203028
0.349293940701771   0.280452558629773   0.620464885230254
0.788068801358850   0.211994856409981   0.166048851476841
0.669063201244844   0.828476965635424   0.758261609713001
0.083071928817989   0.409670783921877   0.012547831243010
0.699650577495817   0.408707382518893   0.980322443584875
0.600019380963596   0.377856015628075   0.395866832998954
0.714705517503582   0.284987351349920   0.467014770050401
0.582527112820725   0.467320331350381   0.940690295160517
0.417906646384849   0.877779142887108   0.932463245903895
0.688121227010887   0.717383768372404   0.031695425049846
0.981543758591747   0.859444464886252   0.044545308528919
0.489806353743083   0.672999987345305   0.712551932858871
0.642006603229724   0.422637659993178   0.086040844595500
0.814006199730825   0.438968038923229   0.882632364421259
0.738187759131420   0.239987288980252   0.405947876674942
0.531128299562700   0.354875161355629   0.398146972620836
0.637778501420942   0.774395735062912   0.595014842323673
0.720015162751542   0.643354880869845   0.655317382885292
0.551225986745302   0.071763107383063   0.636805192623375
0.526471968815509   0.904031485286516   0.840068765219216
0.093672418775552   0.706472903935426   0.744573879049124
0.481432958683918   0.313824159233376   0.072285160760246
0.445202974064957   0.468443817217245   0.872134598638166
0.719368152003305   0.462911100225639   0.212762305415702
0.883461606354896   0.766425577462454   0.252228812655175
0.319339071017851   0.130182426095604   0.511381674611216
0.417037243505673   0.773900104810454   0.683645603850969
0.899658194655941   0.967644462174433   0.346984259932058
0.357403808197869   0.894863996382118   0.565876264813337
0.446552314699732   0.825699772135636   0.628948462383028
0.359499486773069   0.704224897302721   0.349682634885911
0.691270837090363   0.633642681074455   0.932603593935035
0.089633448422049   0.022969117411633   0.047870188237948
0.658624867322867   0.760646877004815   0.093580827793343
0.719547478475531   0.572438599159201   0.261226139448546
0.784906148572372   0.358695482450279   0.327477525004955
0.591805824613238   0.737256872826833   0.215598232350969
0.350652977025694   0.315941566326354   0.553901672068706
0.683568237550698   0.701263934773437   0.454971885155075
0.481304770452089   0.138384588613995   0.711433094540882
0.683893575985999   0.147315635900680   0.863650454754343
0.236219231045247   0.908661411550921   0.015837331574591
0.492433043244159   0.699528935330146   0.310586450370299
0.599405006573444   0.714950765758191   0.434725215047854
0.742277875257608   0.981919730603092   0.488762911974957
0.460348299818479   0.733769937700369   0.126465869884074
0.931454413783032   0.710109125773921   0.578507328084938
0.230922412779990   0.700047515388950   0.372166145303572
0.729172206556743   0.002107332996031   0.663690357442162
0.953842753298802   0.470456623098371   0.001312560613212
0.820142142202583   0.640873198408687   0.983763793409956
0.786991938100595   0.933267996027419   0.382619207659326
0.761780444568672   0.401564859271680   0.511321912027633
0.904778206547880   0.078900711770585   0.930362977712775
0.638031098190227   0.641107576246772   0.145243975650656
0.819328794046625   0.956147272451617   0.174735141969922
0.696185087813509   0.177365569028529   0.406782238781589
0.033376480163922   0.673491246706041   0.509139197180633
0.903478349838070   0.832853100393204   0.293544413944234
0.001775106687326   0.783902662267389   0.647594517696611
0.706084898565058   0.373181320807745   0.645172097331815
0.927526019528939   0.151536104338647   0.080224662864759
0.750606865580609   0.052638824722608   0.245831049933154
0.757510025834896   0.794288591609077   0.282532068021213
0.840013578073047   0.903278445017256   0.443666134093589
0.671802181478065   0.147411136394990   0.323950132165280
0.969234858419599   0.988339588216386   0.619310517642399
0.660202484055089   0.920257939029953   0.117907240591469
0.591029136434874   0.891784417318027   0.156650833120220
0.017849043631299   0.505379724912086   0.423852407842849
0.506511494281546   0.073946568909438   0.221581802069397
0.623026985588562   0.579427927394507   0.849800093465658
0.493254591439734   0.212621392320232   0.335014749758590
0.943167546303134   0.991001228132853   0.476349633381975
0.568455899417909   0.039529581367754   0.116030287738418
0.661872321641236   0.851235492235124   0.492322912506491
0.130299699749824   0.343851004590341   0.584237169664526
0.636452458229984   0.369964707160789   0.257764539316744
0.614142016185707   0.985186899884943   0.776092483323181
0.802098843319545   0.865480102760040   0.700118378006066
0.545117444698308   0.849704402635353   0.893480364695980
0.806455701429309   0.309222942465303   0.890250103648658
0.582672475133125   0.652253528490948   0.628222538171541
0.823572058162061   0.249733208454647   0.936481024764264
0.205106986189491   0.536728053603654   0.487373496127356
0.793715726055867   0.060015336340657   0.372223647318821
0.625814119465003   0.501820877103967   0.634438243046192
0.712062158453299   0.364734434686651   0.454354345343574
0.918882654479350   0.067893116009053   0.481688102151652
0.807333516595017   0.207621404743577   0.816951419088951
0.639953057223083   0.516193868034568   0.956767416891801
0.655992308671911   0.217883706248833   0.757352790269296
0.529380465082344   0.266926411236514   0.698909990885809
0.931081248763216   0.376349250655593   0.418327142400856
0.469149799718172   0.536922544612427   0.562241818597158
0.082047219619291   0.723464886356889   0.202229972746217
0.811861282115366   0.739518852692612   0.869157544548981
0.623750330079878   0.122817135360454   0.532851331783891
0.923492994858331   0.443829749608116   0.618213734166348
0.649653792275063   0.351708717243694   0.342213502602965
0.567301855232996   0.216236911959222   0.656402153781729
0.545170987991574   0.264749174147009   0.309601524243287
0.571939362211729   0.612653640473960   0.253422478009542
0.665018503306211   0.296550880596212   0.146618692507540
0.860970289094312   0.171792312581368   0.531193415714319
0.830958970679935   0.630686620365927   0.314556063447379
0.887497503320943   0.673248294802421   0.335976422433979
0.148422543669449   0.474189630471833   0.738927966630281
0.916560094685119   0.529662220927978   0.878221178875065
0.692945345431471   0.792847294680907   0.830943193015701
0.271889873705788   0.709648918683075   0.443636026374206
0.494245452343575   0.509900307070557   0.831400979289363
0.553954952547333   0.616382255954217   0.969716765854221
0.378014814829133   0.272465081574315   0.312647010841792
0.793910857256779   0.644388667808041   0.485483826253294
0.618213019476371   0.464514631083635   0.445136020983227
0.622797445568259   0.221244116995597   0.420038111911771
0.873290891877913   0.252787183829615   0.713455858288659
0.484439628488577   0.126431938112983   0.792245456973628
0.224421238622469   0.471861038777836   0.760063697924156
0.728440761268013   0.881681362711639   0.736530180528179
0.237244605396164   0.645534624143195   0.098174345548293
0.574542340965956   0.390806226766987   0.076132131649394
0.750173727774731   0.531258843213742   0.019926060077585
0.350021696840179   0.685831121229846   0.427640753847753
0.980890341366490   0.358908942043775   0.230213401956954
0.939669788647031   0.795144899071761   0.825941420751102
0.119581984337022   0.668412973131598   0.318978384993856
0.851765098787888   0.748439937800948   0.737517674953187
0.861455220121496   0.917437047776733   0.694846253844965
0.363364565996928   0.406023926498028   0.016192299170891
0.754761377066442   0.007657699974132   0.180010308470410
0.765753475444271   0.751974258094574   0.352893436931361
0.077545128617194   0.570977688889443   0.079965685313373
0.504732968780285   0.994044057168147   0.012364407467882
0.624546467715590   0.298140578291189   0.215164702166197
0.491031727770890   0.007522409520324   0.433780460618411
0.497552462763081   0.751230040777605   0.699556699867703
0.687790701528181   0.620578821684337   0.437924315950939
0.844281598310863   0.094714049958341   0.518430858127664
0.840834817225991   0.049620543268545   0.745861687964496
0.630629985436217   0.034813195766002   0.423458842790124
0.921036357644961   0.871940007562562   0.807950220516172
0.901720755257409   0.566779993351930   0.426103451916408
0.629529272734072   0.626150999299828   0.313859484251808
0.590361338492552   0.251033584770545   0.066394051888298
0.544153806876357   0.609837603983561   0.486879064600352
0.204101757599584   0.055023426082474   0.707667606335178
0.580493424489448   0.836227666875785   0.483944125513613
0.833864648956033   0.547679442382558   0.729386572733477
0.623598778732511   0.584716269437966   0.934565182508850
0.685368991121981   0.611756504939301   0.098145351164110
0.523553552479295   0.890683535289639   0.489465338034125
0.441857652556658   0.842426486686902   0.243565289390258
0.854847668121513   0.795002856474262   0.115476174135420
0.029721477734431   0.361938259965335   0.669842779115211
0.798162473588979   0.213364342070371   0.544131075186787
0.491120556845234   0.953230214239671   0.290850500276011
0.199125895801352   0.871067814132225   0.371711197452051
0.690488324168242   0.947459642773931   0.980533034486759
0.969797606991081   0.872408933374974   0.406116430433693
0.058192208046987   0.009852052248109   0.826265675655865
0.414171859758685   0.319314708644458   0.115295476442568
0.076892795585361   0.764968922429237   0.629806042984056
0.687012846872677   0.171046199363474   0.091300642091461
0.684542842330876   0.252356611151681   0.241663028023463
0.676408034404522   0.187819098161791   0.690685637574082
0.678712140192396   0.912913681156586   0.251357137929652
0.431921158002825   0.851863019590736   0.787529009957634
0.637833856248950   0.188753973279206   0.824913910876805
0.374522446404734   0.924351693211552   0.979271030372041
0.859371897248187   0.414923634636201   0.215214750873671
0.883161498595726   0.284064755170217   0.226286112036808
0.620516212114356   0.064180061419391   0.915319880614574
0.069816052542966   0.309982011000470   0.098576262203989
0.439103853811146   0.814783145393311   0.315002627386964
0.605233887882320   0.055785925685790   0.583659421787826
0.883486660566183   0.083199126931195   0.276496727156646
0.857090830877899   0.982926396531993   0.854652036871290
0.748167505629667   0.610758085018343   0.988828780020983
0.557472391381361   0.132329632107922   0.216604078268855
0.875361236269242   0.119230277849753   0.142794484609314
0.470729228865290   0.482905984072869   0.363083699214252
0.870998784207271   0.624374983388900   0.043336878877350
0.666917607787402   0.320140449353814   0.834760709250309
0.730023367758572   0.137081707842317   0.462419086535396
0.257068830219543   0.951185565417825   0.758853165700396
0.807106928369219   0.286269252207796   0.813437962006871
0.933000753685461   0.017991392899819   0.677524315309742
0.154130111666732   0.139446095081605   0.319054413817850
0.857642118917825   0.119905419526913   0.706605774804839
0.642579423755538   0.122995644289197   0.047619372620010
0.706327974055360   0.394178079305845   0.055424456024291
0.202771311267114   0.612506199322346   0.036890170189952
0.189970616036789   0.212109610180986   0.191652019816265
0.655147550573853   0.237817677485052   0.103034775089312
0.906397178998628   0.066553840982608   0.199647273955294
0.659931922021318   0.313712864685815   0.629056713309907
0.777485463492363   0.591645665569969   0.657330946522492
0.795980573608430   0.338691712611424   0.546617371966993
0.032603479409458   0.996253419801799   0.754299905447156
0.674879969320904   0.590255228664401   0.517546073906637
0.959579551713978   0.664302107775346   0.225211689543391
0.040615350305375   0.660190638873577   0.331223399549473
0.002609382137610   0.549869307811065   0.250216282375243
0.789096000491105   0.386864859065878   0.652965560260216
0.905913932852397   0.498822112310405   0.464916337114500
0.827032751124814   0.500406392775095   0.035797889524498
0.726620078361815   0.127653345657176   0.688034480320736
0.495749871359947   0.648160873391180   0.634165380584110
0.336233472870633   0.727385479612008   0.113348132415321
0.793879603714819   0.464496028630149   0.624199203228272
0.044537366584332   0.715721575089416   0.971170483960001
0.388385761576652   0.531424248399379   0.956546672500004
0.081142892890009   0.935732828088316   0.213665569306163
0.631149967105945   0.288725888018276   0.772348048911114
0.641473078515714   0.231250378582404   0.627725880503791
0.032933691295900   0.594395437376744   0.719595107437237
0.763259548907265   0.425871691753249   0.766903442538749
0.657424547647231   0.705288867936864   0.956617190791445
0.702775671195519   0.636487681311202   0.295401682162303
0.035719288932343   0.732502335418232   0.050296067251106
0.664960683888413   0.220361591490672   0.302380374399725
0.699970638775987   0.392949196305731   0.212058676509607
0.713414289969756   0.487213811083254   0.961660360905368
0.826402235183617   0.943769210560979   0.577565977219719
0.080049510107834   0.882789450056742   0.577403860360441
0.470745729404071   0.594182120937148   0.504598849391168
0.667237019304917   0.435599475601186   0.606916724004394
0.952279869212761   0.254521246652755   0.684988798809122
0.745650195129560   0.727569977440133   0.815684706339631
0.392605125648274   0.017291917947923   0.070407077623030
0.106008816053082   0.799491461119265   0.355704565940482
0.382335312001477   0.859304900992539   0.494813256381972
0.285097246547682   0.943204681820392   0.181548418655568
0.724714525416430   0.039463202695819   0.546675570478812
0.626414606253482   0.699549898069446   0.586667137615719
0.633437809471268   0.099167261986886   0.210688766273535
0.132206619380700   0.759695985472058   0.690297707522878
0.900333433670216   0.612063147888509   0.197712135302149
0.626173176042662   0.593969544349915   0.387289378172079
0.601048664869066   0.806976593822701   0.326316560032106
0.787378727879495   0.776668667555838   0.153397658130248
0.754882770050544   0.463122280182733   0.401983820740071
0.826687493375645   0.958112123418805   0.311905666249225
0.904007848099135   0.802440342532819   0.179800998274764
0.701475170390399   0.761278649788100   0.398287198831283
0.749918438989084   0.868368023603091   0.256731884371972
0.464029089912693   0.703990528441164   0.918592016200887
0.992507342350865   0.278690504666414   0.110931684442402
0.591834286929978   0.793980828205656   0.058080668306731
0.194244065564463   0.860408727548260   0.916646841641282
0.871162315332676   0.558796456162163   0.004629031161642
0.165734494579729   0.914009005106449   0.969533076139224
0.929969011543939   0.710055833053343   0.284252197918567
0.855688199775862   0.250538766979477   0.162861986667860
0.608540276251058   0.807380978070176   0.717713639803382
0.860619334868118   0.453026181297457   0.342703588309169
0.017210300498402   0.269373234350214   0.576909946306553
0.647096641856763   0.493835380653711   0.753074579954056
0.387025751469020   0.033603756975734   0.795712473889015
0.928792814416371   0.053636103953173   0.338571572888665
0.976695033472317   0.783313399234620   0.151750069277489
0.131436100771794   0.440825097597824   0.478730940322280
0.829795733731401   0.307929720364186   0.360276707341787
0.904274225206011   0.354130674154203   0.227992650982094
0.127873484731537   0.415911443902144   0.557485234311183
0.764494415474496   0.167149443348346   0.100386700958803
0.076215420219750   0.242058044483757   0.913922496634358
0.797287603941827   0.743363422455325   0.625572853359611
0.901679665289659   0.025962203440214   0.793022667696759
0.096891699685898   0.031299569022882   0.970923113802013
0.382758229977338   0.170007604136781   0.184261266967029
0.926562870965171   0.907110410536015   0.740960333026578
0.414346108958197   0.424670004401575   0.590444495394138
0.980113535995554   0.093803006832730   0.195051933656850
0.722995808661525   0.481851217973180   0.734042400713453
0.403651878697114   0.986112445654926   0.734626642162731
0.153203855467678   0.215590037232042   0.610522838964682
0.926974739250162   0.320995446366057   0.991914710030168
0.770122723312577   0.364868587296547   0.099245312571277
0.423976208586230   0.309055536252717   0.195129396787087
0.940515853738061   0.537318446736119   0.198729152707215
0.004909630556043   0.525942685100639   0.559183155236940
0.198525267334941   0.157631550942912   0.138993048706147
0.695548625545987   0.104733196087848   0.257369588686052
0.426901881967715   0.304685362895643   0.440763646980085
0.832395287361627   0.610000678629833   0.603948716425782
0.327817021931578   0.051294203232161   0.529004143736118
0.848965854186996   0.172419691197472   0.195241067697501
0.471853805909094   0.139665909379094   0.584379074881913
0.120205765815185   0.502863677103993   0.181627490878260
0.987821478026522   0.334611553697101   0.813082600453044
0.908437682718050   0.473728757302992   0.231284409233732
0.117720305977445   0.234285432131148   0.211977883437216
0.358957686460491   0.319041851637050   0.246936246981833
0.865871713152333   0.489183924791758   0.592470527114412
0.801429185951327   0.504279666781473   0.356710067052843
0.509762792522574   0.188633413877841   0.836053120869245
0.917074636624679   0.437300584643200   0.785101970999619
0.086960770511079   0.304336847157151   0.179348280271575
0.675243318584608   0.647433769577289   0.723679061416523
0.990709523936344   0.352785227379393   0.955078420655925
0.961637192674730   0.797906350045753   0.903061318538614
0.726862988375695   0.386647859595732   0.374427649537395
0.138874101527638   0.357362115199317   0.365487067882013
0.959234648853895   0.338742938720641   0.480214643797096
0.956649903342775   0.338529818942522   0.685339049190406
0.129833168046764   0.842180557390012   0.072320907188738
0.524629767738272   0.546201928468226   0.705855401709974
0.235215700068594   0.776155097017630   0.045654352198384
0.442921631446378   0.376789383190957   0.772508645660008
0.817797522974127   0.568484811487227   0.803517191990114
0.969684620230705   0.560313179558067   0.383342565691438
0.601557591046288   0.802469092102548   0.251765499959304
0.777607233356612   0.980663435962762   0.827389889973991
0.906136769602874   0.568956774276638   0.698087484051186
0.701242668389497   0.886657556935581   0.933672856527631
0.081125743163185   0.542571646021333   0.551875931658784
0.757070049673886   0.406671257875234   0.836442157899787
0.079379667820907   0.557247057619834   0.422273191118719
0.995801044114510   0.661599829703854   0.576329836167724
0.628587450923958   0.033544479332816   0.172628568763470
0.998180150096312   0.670528510793305   0.095388224208770
0.830942394545955   0.768374660150227   0.400326599578103
0.807327276686342   0.200990116124678   0.615533414098470
0.186887740413882   0.859644774242597   0.247652272997207
0.094726583979593   0.483752209375934   0.313206089432502
0.900865731639683   0.819651346693107   0.951870172078126
0.744022260088799   0.912960472763403   0.808221361598901
0.648801628812105   0.772552925002793   0.904865541260167
0.816754347188165   0.484917810912247   0.113756632684977
0.970670833335944   0.857074041527101   0.327160084114157
0.726161862504499   0.877793968800910   0.113281119381900
0.914620813701568   0.658775218048573   0.816153429992880
0.878677718204543   0.822754628973683   0.596876061239773
0.113731750517677   0.158877294057856   0.379024268953113
0.804641262227873   0.003745643404349   0.625166517790700
0.469179767073906   0.507946610380491   0.751522017597496
0.233845932937501   0.603735366497173   0.962308070935564
0.952041436683483   0.785709642023042   0.584361871681477
0.848323262206428   0.861336595718798   0.073294660769260
0.851274954976917   0.857646367512833   0.906308470289812
0.806292166641264   0.446985696993789   0.465563825748829
0.060921105802968   0.965730934474835   0.441850850582790
0.921935765438750   0.674571546086596   0.072606464426314
0.018547028082055   0.043450546334328   0.150991531018280
0.844384573256852   0.505453635720390   0.515317569839166
0.833884013703575   0.800878591724923   0.667233374580163
0.223191501647824   0.252422485131437   0.631840761049378
0.992129155783064   0.772967807796327   0.771966268156618
