Generated using phonoLAMMPS
1.0
       43.4718042418         0.0000000000         0.0000000000
       -0.1806357046        43.5920250646         0.0000000000
       -0.6801229027         0.3300556295        43.4009529292
C 
3821
Direct
0.711345427867318   0.805383955655106   0.248817808623149
0.551974142891965   0.411813673738324   0.529517138425274
0.422446990361817   0.550120538844045   0.396633689773625
0.623586168707207   0.833579584606013   0.748389763537819
0.776711384411742   0.484361834785433   0.639767478038916
0.695933711301304   0.790188000806982   0.724956467000319
0.537169379168057   0.095703981531933   0.081868496892137
0.010251226538752   0.662736658889950   0.034909431653991
0.768733941860794   0.489837888883159   0.167646497344641
0.174507606741952   0.621539683146847   0.219378938419440
0.127568835140789   0.001496688650502   0.705027019796453
0.359235071149487   0.501738848139578   0.953511250490481
0.788574662230051   0.955630412207692   0.997386165013817
0.016940433768758   0.708357586703247   0.066828509381613
0.187792714202912   0.229180379158921   0.026877643030164
0.553629906984707   0.584363276936722   0.383616498632185
0.027620893465032   0.133266985064210   0.355329999900172
0.665445373331090   0.801465999091306   0.727979642556258
0.056169091561415   0.992356201024741   0.655020525617847
0.311908887318081   0.553956566919627   0.271584672788825
0.400244472022283   0.222078040052572   0.273070518044463
0.823872636794516   0.532230212972649   0.078972796187016
0.172550458422902   0.749819626796128   0.073411972432900
0.465858183082764   0.137195908900151   0.508163095772988
0.806374058749254   0.835190547724273   0.159525865279835
0.202590209158330   0.073691779629310   0.229858510394322
0.305473887642482   0.987363537385907   0.586962054532694
0.880303782810627   0.028559053141751   0.147334010624865
0.359216912439126   0.808004600046495   0.261756245733414
0.221217191480197   0.445639322418365   0.030138214525699
0.778228780424393   0.946629320489109   0.126030373778266
0.285689265889942   0.641782782237496   0.169357119462111
0.730392369970270   0.827348214018395   0.985049756159537
0.637464254308303   0.685901434636436   0.330045179500256
0.968027982702112   0.467206356098387   0.182832859751825
0.064647618239339   0.732921190475981   0.074557111574915
0.480726686545272   0.508282820453979   0.483457746520654
0.674210394927071   0.107198872196229   0.168816197468111
0.072172684299139   0.057220957294157   0.289813009878349
0.513162584064568   0.036620570310643   0.765159229433816
0.769272377698586   0.711542554459820   0.208666434692657
0.777628114362991   0.213793858362693   0.361341685874570
0.649803461308303   0.651229055759012   0.759702171834497
0.178171364460106   0.065317912917121   0.691002917583930
0.244037543070639   0.103335277576493   0.692826630997069
0.967304207980286   0.935034400690726   0.360297047521261
0.039312161216482   0.954417428277857   0.448189732878258
0.929746698442351   0.026802973228994   0.195162219452128
0.770150115319584   0.609155677198717   0.675925605777724
0.854292295298155   0.093635577039645   0.480251432128732
0.258396779113623   0.035904220676580   0.531634962892169
0.834682835357831   0.869272332420255   0.195146791680275
0.797890211337484   0.513359717431648   0.934281990677651
0.701545518870111   0.377017408787346   0.874756981993755
0.240092790573613   0.691842460950473   0.684916666426475
0.340417344197843   0.287370492995911   0.540642396453310
0.384857395900804   0.555349955220105   0.211680777954046
0.660952689155560   0.666343557025251   0.645691942426126
0.760374162474995   0.602730788235878   0.156993450146478
0.199513476179912   0.516081054640018   0.348659197061527
0.818058567660757   0.011061745328229   0.206500714733620
0.185378144157386   0.553091830647073   0.166547546819803
0.180081540001104   0.900034403712459   0.676726873898651
0.104145913208102   0.053448075634093   0.127585029735016
0.177214265768226   0.177022687097105   0.138920542363104
0.336165267389909   0.449421574760228   0.354479481708550
0.859078999853862   0.881470240864069   0.866959206204083
0.128473084420376   0.722606306279687   0.077963478025928
0.215815175174207   0.938845720749417   0.218602268375928
0.372139560798760   0.081355194957734   0.903576959795635
0.376337005627710   0.429599442903327   0.878198980150885
0.335877822639047   0.176948870994589   0.778327371177900
0.258910296617406   0.644267038150330   0.086946932850895
0.277589127176104   0.049785174730527   0.359699864781005
0.551531317568836   0.079300176727558   0.294027339003757
0.797678656915448   0.840350501714602   0.301248811779050
0.266348904347587   0.166478214379245   0.357076521459817
0.614340456083498   0.606468391863458   0.385489443683245
0.774257585845344   0.021827177989903   0.469333609638222
0.934463597897752   0.717944991472783   0.006912279356847
0.653281488344058   0.064609233967136   0.438907203974867
0.286841496071513   0.077866697975661   0.433151800391737
0.440297619250378   0.524271089874492   0.119011481808384
0.369803804515657   0.234210242463555   0.271940946072162
0.217155004093277   0.050229498273136   0.212589866749040
0.766982704475595   0.649780994481997   0.609621785105991
0.590454751061983   0.886901788709946   0.672784757690301
0.953611312538284   0.578184904397954   0.151774279950618
0.079838257775594   0.321826833908532   0.612220400859520
0.627916179111297   0.638388428967660   0.609688444932671
0.550050740336940   0.530584207284347   0.982412079051692
0.921609696243850   0.832206311766478   0.919301388729564
0.792089723695352   0.472040337884031   0.251711081501393
0.849695078965425   0.876465445637403   0.931409429326213
0.643334150075645   0.756461165367538   0.700727084255764
0.664208785091080   0.898701676284699   0.100404897954860
0.716684198190322   0.011031596794730   0.667888796065988
0.992436319765928   0.096713295075490   0.576451755352303
0.984101555929571   0.679077827232370   0.219718217145049
0.763861179529706   0.031315455967278   0.696569359878275
0.486864746706186   0.256637291267261   0.868098105160533
0.608257682753942   0.408658855156748   0.626617529443755
0.139305452698397   0.931164343703136   0.804080483138905
0.948658857437806   0.452639521242927   0.409281444326283
0.979821192846311   0.811952097755636   0.445292824135146
0.753584547059411   0.874425457293793   0.820480017065293
0.492017294580518   0.399902265502384   0.516736584945150
0.764145451357390   0.853627682624340   0.759688188270565
0.750159444194713   0.557400450323722   0.783608202231860
0.646124142905764   0.510924912713386   0.607150373932716
0.127763881152700   0.818902081754061   0.821421913434865
0.428589958476384   0.011432828966119   0.610851944731451
0.440583362636574   0.492054112096722   0.985262735354143
0.073667753684887   0.358426238346914   0.937566296444681
0.552235498253050   0.141394929049627   0.724182645281364
0.227724740650933   0.034842328652103   0.641322423159824
0.272591562991874   0.275076482035908   0.010875137667368
0.536009846409494   0.602847808719216   0.154527623873618
0.324372109760844   0.466686644259793   0.328332548901540
0.941730976471125   0.708965328570904   0.037215929397562
0.698485483355372   0.867389828144475   0.811871535573896
0.000237867331827   0.759818524273102   0.397924269731428
0.122471488370312   0.110157068376452   0.612936627068901
0.994286085159054   0.933784538035818   0.652740004262441
0.688087840867919   0.925741961375052   0.965724526103685
0.617434747626981   0.847672628619408   0.190688238654592
0.822278029524137   0.245744508834327   0.372921715023236
0.464445523324415   0.221556392957874   0.529131241368421
0.719167176859273   0.473657235389611   0.818517239885286
0.996051958894039   0.945797676727513   0.562382681776980
0.171240094159843   0.028718198099628   0.738117901518401
0.203457434446450   0.923564904037424   0.936951309947875
0.788126694773850   0.477612234545744   0.193011101246214
0.136491558780935   0.550519789778616   0.044835549191152
0.439459753817616   0.803847183619448   0.649463921817155
0.294335692977395   0.684819603607804   0.286553436287171
0.740538429988570   0.782123521371380   0.153696674837571
0.166939696121318   0.511331370288643   0.347959797671621
0.575748527367746   0.637553580798497   0.578297440633238
0.273733065589398   0.730136056052808   0.256566276739704
0.267221775192219   0.074525812199863   0.030455492121481
0.918480436297754   0.350301633504958   0.392842298366426
0.375232373670730   0.906401435445167   0.035640075288746
0.782026732678237   0.942757042112343   0.049369830277584
0.827549861458302   0.404964851770399   0.055522856466562
0.550984569146246   0.795690955011590   0.236009746530439
0.308005891972347   0.307478022324819   0.768404842502031
0.414925579378803   0.870355777408689   0.055025984887840
0.120098750248829   0.544849882537835   0.097905507672417
0.653121899692166   0.210643364901337   0.050269821346068
0.134504586446674   0.225936590165900   0.193334919251384
0.299413517544194   0.134168835363159   0.292735973348919
0.157660363931026   0.985149024488799   0.621773767134136
0.723678959007699   0.557521816552889   0.700691877655520
0.224109859789185   0.646978110834290   0.040620050275760
0.090514850952943   0.578396723104408   0.063679111251508
0.878151358511631   0.868689589541172   0.739550298638838
0.407384411259778   0.264921510102335   0.643540883665911
0.689747708934987   0.869864464236347   0.948210677934499
0.292638741209556   0.352775200502534   0.812019228183560
0.682743064421370   0.847886725021023   0.614760400388559
0.557057511809323   0.942843741732673   0.617945461790909
0.691804802654403   0.881077566139240   0.841024446157773
0.688289374687158   0.106474460680087   0.045150029152508
0.650827478363738   0.157647212867143   0.440731841330853
0.452794411170855   0.056495588685043   0.682778482959596
0.173892519428898   0.711632887936437   0.114218055720727
0.582790861164995   0.000134258522997   0.980656695935467
0.157054247311193   0.697647060896544   0.137661142826666
0.338255735270895   0.448804824811777   0.470944634172961
0.445031021613419   0.021686982586310   0.638198784371958
0.183597053698810   0.493978298990232   0.163284017094291
0.734653204669404   0.950393099444666   0.803716901260282
0.661833226630423   0.360927309527751   0.579600405111743
0.796202752098352   0.850952163136884   0.713298773658301
0.603484760582625   0.798869070403521   0.672802218136417
0.873606222641473   0.484913153659222   0.302841832100811
0.922457963340730   0.842288957847244   0.989747208317617
0.800036147131120   0.691714446519183   0.626481693716608
0.351931853668801   0.572323474162042   0.501236017455366
0.179567994215116   0.839947407027829   0.947118158144038
0.202214201837145   0.145931637816713   0.796058037167085
0.451791608224126   0.837379276416395   0.874184434657282
0.296510586980412   0.782344486678904   0.888407290570307
0.586009627990381   0.822185639603431   0.866239097591468
0.000610282005707   0.401591482670054   0.068129187043970
0.463992398458376   0.531965490408002   0.306628336518539
0.005280513190176   0.379799006977051   0.955765756288075
0.604201411115017   0.744704940931839   0.652413502214822
0.813148191333475   0.865730537196546   0.170285910359071
0.416244215134410   0.136404674090553   0.139191287800863
0.760730954638085   0.528898216492069   0.243800992509568
0.141775427123523   0.139880744337173   0.114958762728991
0.495844142746799   0.055372683625649   0.003110649856473
0.688557093735087   0.424747756944199   0.917686311288422
0.917036643305040   0.522400308113839   0.049668217965548
0.143211566590513   0.702846855990835   0.905622599211544
0.467120869437542   0.199656799379201   0.690295746475266
0.337147741953678   0.948789137423087   0.029366081248933
0.608484718200836   0.333923048824328   0.491216848044285
0.365974114331138   0.460273289145820   0.721109175898845
0.692403787804385   0.037759475813280   0.476768550076659
0.524682978596934   0.882126415864186   0.086578040028976
0.881296285605923   0.013001132808341   0.298078093379745
0.299729307705189   0.570039811107316   0.217748948863326
0.153052371096134   0.020787265069690   0.584128561447863
0.985174271515960   0.972257318913361   0.543609527156870
0.462690803772191   0.684755766126632   0.327341727338932
0.622519136543415   0.934990663777114   0.804678744196498
0.808966168534736   0.090775329911693   0.410523230424573
0.412292822474614   0.534833306110748   0.167310022013700
0.306097454708095   0.954197905558696   0.037710565080677
0.427835170949385   0.954265210773524   0.755275448755088
0.299574043413946   0.943664276937602   0.659347902952311
0.723611817062532   0.786816768848998   0.312421852168073
0.396983625499295   0.737297295869586   0.327036683345506
0.656620709203773   0.000445056328208   0.629028278354514
0.156004709196163   0.122442812045590   0.300312097323349
0.894698804819441   0.917956271314666   0.659091053753212
0.711982560228887   0.017653927895609   0.583677230343867
0.580404755719531   0.286810347093243   0.870543735793877
0.042305993752236   0.181081728867579   0.636224101923399
0.294842733922817   0.842698968323668   0.808783511211421
0.320055823115089   0.965203123977960   0.712714482340058
0.978869653570116   0.881415672628350   0.678165395308580
0.968274353753289   0.868242489343258   0.061023477855900
0.176120603194153   0.473634501662579   0.833461718202572
0.583587666436921   0.820819877582651   0.584952976525992
0.415714145838252   0.857284400000050   0.224739229019039
0.791770103098282   0.091601213097557   0.851877615689981
0.836225787885817   0.813167146992317   0.649853622937949
0.121154116092175   0.184121162303640   0.142994555214583
0.742429459787130   0.534140774716401   0.221757043346500
0.444666799348040   0.403903905392940   0.046099296788802
0.912177349707582   0.770075260234655   0.225962678883990
0.673508072757131   0.170030401653940   0.633024165271627
0.698914772129506   0.120609225054346   0.534316256553850
0.430343120081495   0.665399433834581   0.324919476376574
0.619091529687080   0.459398615770468   0.611670908316375
0.678041548914645   0.407356864475103   0.745325125758621
0.430922313864826   0.196688078761658   0.022856724865425
0.601260729723784   0.463916740945657   0.541385405484762
0.045486881409129   0.814515123779073   0.831502583799724
0.785752978897450   0.677702486636537   0.126340569501893
0.339956947602391   0.201558481569852   0.798982825482380
0.342596258104619   0.193478398967314   0.013011118048979
0.862206959656208   0.927914564025689   0.253044213520277
0.238908853704633   0.035785619350268   0.584662151114379
0.316319590030345   0.042661841672214   0.520788143450947
0.605940246777174   0.087948461798395   0.624879203556693
0.944645586889051   0.701568646958395   0.186045174703237
0.765422199332503   0.743416667456561   0.217529387094359
0.237875017899502   0.175919456532226   0.454330204043367
0.159459884698546   0.072425049225369   0.267163686910635
0.010708650371471   0.882469535030661   0.725761322600080
0.732206628629307   0.975711822152855   0.100498794510695
0.453779204328404   0.420772454816949   0.018099685605555
0.954858264038110   0.850906273747217   0.036873745205794
0.381678599260339   0.322225396875124   0.452101432703765
0.342489503294330   0.142027431951212   0.395014218419743
0.106495128340206   0.917727592328000   0.811904627013210
0.241576218411062   0.682812629301287   0.964805689135634
0.796588889521260   0.624821591917986   0.810256757665348
0.054035696357705   0.634591518828871   0.198490798440604
0.329399718721400   0.917419820519496   0.624563166717078
0.881717640403800   0.811166574545368   0.683992426351252
0.355028753479053   0.845342411563003   0.544549739231628
0.567142009438087   0.942054333776107   0.805322333751907
0.275727270019866   0.196768211371803   0.870317614030699
0.246528118559218   0.732777569772373   0.157448039243454
0.337769321500020   0.171363370814134   0.911863690287168
0.460142406633593   0.562804841444719   0.154264435182378
0.314162254162368   0.332502812951426   0.503399211893819
0.464772181669234   0.578929774756914   0.438420481942877
0.098755337692756   0.949137313157539   0.658306769130349
0.226818080270450   0.320910529449963   0.056078900248351
0.758206767308895   0.475792420738227   0.064033961985434
0.861544352364614   0.284122776866077   0.383058727468970
0.391521237452469   0.879717441663616   0.824252365111823
0.655786861093250   0.850855275331753   0.910594107564183
0.412852911522446   0.423585725068867   0.810574739162725
0.948678675236584   0.038068929807797   0.217671026380714
0.261309465238722   0.250556285164119   0.274576855937703
0.928288442633277   0.795890817774008   0.274021149245287
0.225322885083850   0.820120529761765   0.134868508982941
0.498918221843986   0.456871341748035   0.004245403189662
0.375260433423827   0.488786973766423   0.721007512232446
0.488998702501327   0.226775930628255   0.858452402203666
0.998913260848548   0.922743001571067   0.540370566016332
0.223050736190472   0.030224896147665   0.487430981861392
0.226583453775804   0.168882503370943   0.313223986629424
0.210390363781208   0.768427242857045   0.820773363158886
0.059891770844875   0.380576303928651   0.172532491676284
0.327762225872711   0.778832467008684   0.898432720212596
0.931233311310839   0.842720072730124   0.889914126148472
0.684426592408740   0.427392981435438   0.884221672796053
0.379416492154583   0.105755090260512   0.629127656356814
0.414337776893411   0.145945580328224   0.776948463666407
0.428095960375699   0.251387002342371   0.705051125257955
0.306526058547661   0.168369321274382   0.767120764705608
0.759463677749624   0.521504704649905   0.169070116086395
0.136383165024055   0.637579619659472   0.980948392295698
0.196988648218436   0.435316942267638   0.770303909099358
0.281097239809456   0.822658913102774   0.999569499563051
0.414729663309587   0.335264717239741   0.138143205974775
0.049218655423153   0.021864043820986   0.195303754823713
0.221354306170753   0.845420159143687   0.837503159418993
0.326625699206060   0.283231306402092   0.217322735410590
0.750207072399662   0.315680854693468   0.938104798445735
0.377137849968478   0.722224608192000   0.944714010470824
0.512560261427671   0.558054513767490   0.410774840107379
0.233891533759492   0.553148838536271   0.197378442449741
0.547129331828993   0.182164665271422   0.173058964909194
0.985419190685944   0.119227399043431   0.552802334527963
0.659453129396130   0.426212488288158   0.566405208662157
0.578838073623913   0.024899747201286   0.643880597405010
0.934702703918522   0.472395549778027   0.425410267606775
0.424323339973096   0.462802668599806   0.119772447127599
0.737211925751147   0.898556735358888   0.970962291282962
0.975204690342513   0.836439762212756   0.851622561382347
0.972852931302836   0.057447281657675   0.127994447934404
0.243706345830129   0.238184334337828   0.223520282511429
0.394792164910114   0.156024417525952   0.011310791834474
0.860431899470371   0.621254135438684   0.100286901697765
0.490872489884126   0.906077414196003   0.045966038885238
0.626857684747351   0.318044447098791   0.569852999318830
0.147845930166347   0.604969917455487   0.209899146566225
0.254441965264310   0.029370138671037   0.969428182110091
0.555898741411913   0.782161954246650   0.649132954429793
0.016475964086920   0.978161915425827   0.334727408490286
0.274377403353810   0.762899016025276   0.251274828407345
0.906814687024661   0.330971506677942   0.509419231786613
0.258212262448569   0.664910596261738   0.849339920257817
0.419061991342818   0.282482157818706   0.014696298536129
0.601883450658952   0.432493630961177   0.550152406537036
0.558483944623270   0.293417618033179   0.806437207890245
0.459771132848460   0.549846152274233   0.124184666838820
0.090413837159031   0.152946528600626   0.010934252820996
0.930927208545041   0.354196787923055   0.422514057005015
0.626810433899443   0.928666902811306   0.996309308473911
0.574940619391168   0.663782864056761   0.331460344280168
0.868018476703911   0.493875300400965   0.271873339261666
0.389704259343919   0.578541885977152   0.273557841445737
0.408839844988169   0.088628596922488   0.437273200681997
0.405430273219435   0.827839911548609   0.178579672723856
0.662812676229133   0.882758639964583   0.566740040019978
0.569201704283381   0.176135584657417   0.200006038212120
0.453786852640365   0.294841757445943   0.788777697020742
0.140258772134828   0.182750358810207   0.319063208648660
0.261193376149489   0.626427926143343   0.889951014739435
0.012266378439030   0.298353977835090   0.545375094381281
0.989976777743435   0.930849106136825   0.509385142673353
0.389065866286058   0.954866479567172   0.007051809311636
0.696885280022419   0.606391527280452   0.703316723247870
0.286465519015567   0.923133122537358   0.680733380398258
0.786555374550530   0.455760374018716   0.653892656373135
0.952157953167493   0.820004510374222   0.774128988706961
0.290727167776059   0.276011990565275   0.811408942044377
0.172725116970507   0.687152214250702   0.165298356736616
0.959545977858915   0.333031552605832   0.485457290174489
0.441638440975387   0.510825215603838   0.037212508044112
0.716674294049812   0.297203960086803   0.011909273002443
0.225365719428825   0.704937083964011   0.092475522750555
0.065838768048482   0.436038312987105   0.516346687976122
0.003925677897511   0.720942279145230   0.322827692812556
0.158415021574624   0.074924983206828   0.981647077415572
0.258581354656677   0.701514128124372   0.096595969835939
0.273163360988220   0.674568357289072   0.084395958678033
0.341572540182476   0.511704394872559   0.926587113550303
0.207099744794456   0.158971738338172   0.011042404593784
0.823149657177041   0.805375137893624   0.526320980492376
0.276000355463930   0.370502543092167   0.224660476600732
0.302720917293095   0.041690194194956   0.951423068229878
0.350484764296816   0.399796846395360   0.377678912413275
0.456412914504724   0.467821359995454   0.970371721300735
0.147692400617120   0.569490482805561   0.209221395779325
0.054590292747413   0.676197608939486   0.418319126071195
0.630760349607229   0.823563967672701   0.627171180881759
0.628013295955409   0.340706133149106   0.824413158816316
0.288105582929834   0.621086080102209   0.305833077482261
0.919851483348123   0.935351973908161   0.734544081370880
0.397850813528435   0.968524128620601   0.800895018519602
0.852192988681151   0.027159492337708   0.148918681821190
0.433919333826414   0.568310140262301   0.444665711176488
0.281254927389571   0.447044375444988   0.040371923465790
0.528548951798286   0.588346721686273   0.090987878686487
0.969997064585696   0.968931493128110   0.258257269564671
0.977911351168804   0.986411121007562   0.489014198250951
0.687272417511068   0.803307107959111   0.270678356283191
0.215541281500124   0.019240104443095   0.165690928992525
0.446448012697139   0.076207597270568   0.623599936714543
0.526579019511195   0.776457557998312   0.226375990776687
0.549755330515766   0.131242679041851   0.691466635512723
0.933530237787888   0.798576177929004   0.822841398396417
0.201930466865094   0.379819797895845   0.779305750617385
0.089148977315704   0.556937721774791   0.212534090323948
0.207533880300655   0.284786119376496   0.823988509154128
0.890770899690952   0.803443062638686   0.714115301812828
0.174735438250777   0.967080718861793   0.090161055366305
0.303171665404071   0.817591490869726   0.164604183499242
0.839947211448050   0.502056785269063   0.258009938589761
0.975091190620684   0.254446137129150   0.393119829139072
0.314109679630996   0.045356862673880   0.015706035605070
0.157289489232013   0.098047357759702   0.042890809172708
0.418743877294819   0.514712593740007   0.141710694924904
0.415931764720493   0.122267288912260   0.572933530758269
0.306183737714063   0.711293215930808   0.664055944739627
0.171370536351348   0.526999176415799   0.238767303494574
0.272246864348459   0.645732675588636   0.995319247263271
0.197082951587664   0.638875929871031   0.023168675850052
0.601007244387995   0.941629782347118   0.949730282817543
0.663607481916288   0.015298933977235   0.099573346627891
0.403305343055243   0.255205536350752   0.831324292783565
0.206048044606200   0.739542278234358   0.806635751917932
0.119382777332916   0.288446376061164   0.890234308058364
0.665086857482344   0.607856345860325   0.412506933412395
0.203588356700389   0.853723731383755   0.705788304924314
0.397170094407203   0.310305274856838   0.850750769464282
0.322856859014143   0.086059716416763   0.345675045994354
0.702420431845558   0.774572191043072   0.083548745252558
0.164058222242287   0.409825000240695   0.929488819423108
0.999657630051829   0.969071828021151   0.242911728624903
0.711162826774883   0.441429154615574   0.934414384084067
0.420666475776980   0.231653064311464   0.149435155273664
0.670750777823306   0.740398489199219   0.708177895313474
0.208864303931714   0.489563139438908   0.775032849045327
0.695043378320338   0.986531947280749   0.670286483051565
0.295573246961472   0.553219864764375   0.395234552291573
0.362890220452162   0.103498977353606   0.829506272793803
0.890780040042136   0.787633416413550   0.606050471815869
0.308707969632467   0.877583685144173   0.246390285887142
0.595665299825099   0.582471277107782   0.765215516216366
0.637282358995701   0.863498695796008   0.855663968037315
0.508383681925515   0.225595274857393   0.713803986067710
0.400110819926258   0.347502953631458   0.442278883399481
0.482227707582360   0.053236752404276   0.511678910281690
0.537592091898484   0.220551347912580   0.470018626855436
0.132599179929151   0.882069975270326   0.744302800279446
0.089200180981117   0.796400258419079   0.126730071548717
0.383352012967177   0.509911175522214   0.393660172113528
0.343477182652820   0.296078286262701   0.165373104634555
0.042205087938284   0.695180152658154   0.357074233491621
0.181512024782963   0.138357273115605   0.820964068649005
0.503160146575548   0.041231879012532   0.536019509478287
0.924540990924679   0.274660199882073   0.400959931188330
0.424229596060857   0.394321442343159   0.464855279397016
0.698042954037421   0.821030468820864   0.981138012556189
0.748376888244987   0.371585314673053   0.834045004934578
0.422379923721282   0.748892016700153   0.613615158253413
0.151628562141188   0.559026826464212   0.175991450520918
0.552507950257763   0.647674589502133   0.678668808218330
0.873324778174303   0.557923477570209   0.013228926400225
0.114850853509983   0.747288622008803   0.093548348042570
0.962529642747542   0.958277557784998   0.411170633260308
0.507105196458160   0.544833203617947   0.018536062752179
0.876649167696236   0.593696298305325   0.969744960868899
0.366470992148240   0.050965084976434   0.616284226377078
0.284011799140910   0.040096593169497   0.510746009106317
0.230306642045385   0.588529194489211   0.099966186389446
0.555061003316067   0.605686986607889   0.100870566992887
0.894507820494396   0.666947035002578   0.104446736627991
0.719329829132512   0.811889582655273   0.734584541311998
0.441904778505960   0.297166106237359   0.033401486192361
0.082700207933551   0.437490003038381   0.042234462293724
0.843714616633102   0.493731245436108   0.203032361164389
0.825792407374409   0.906978033985530   0.031089030284683
0.560908917412994   0.610035693939928   0.364620169188799
0.397702091121672   0.409517659524594   0.895578487951796
0.828664887441066   0.353848029783432   0.986263185737590
0.718126408465950   0.864175235150523   0.573654475758049
0.681990452786474   0.540486191455560   0.532383269042335
0.008222822199910   0.894128838373130   0.799218504639395
0.383232307606670   0.077532562079543   0.455038354393202
0.573638380762331   0.622763426083621   0.233890938214179
0.115853641203056   0.629246824755962   0.260953111294019
0.416548806449492   0.069032176037054   0.602806630598151
0.868205305605180   0.152785139816562   0.292882705150186
0.413107517979960   0.900596139705281   0.638119716983608
0.717180553487076   0.435616345018871   0.966803292739901
0.753283021279085   0.210603223560708   0.260767101553330
0.136701852672341   0.996292844817729   0.110609345095052
0.647780312007346   0.748269784103152   0.620136116455913
0.026809199318081   0.078439700803838   0.207560212207673
0.253797025906905   0.160652078640719   0.779733227406437
0.720895036203803   0.723261571869651   0.674275821725360
0.483883209868925   0.179926035425193   0.032863926566930
0.375181845821277   0.856547288269953   0.743424801124401
0.864530878522644   0.566344069969529   0.982699816973492
0.393985151618219   0.232877023150463   0.159699048113222
0.777164082611635   0.917068538230448   0.107240090271580
0.171026264468458   0.065833224956788   0.235816361375655
0.454602008001097   0.221804760128606   0.259220414315621
0.181050377285004   0.828047925824356   0.179127872668654
0.890067683122435   0.383581647119693   0.519846986696471
0.910167574929907   0.482925259980333   0.478205334197545
0.054917654418950   0.584798553539355   0.182150495241343
0.824322820007637   0.884179750153135   0.911379000468622
0.231894545195297   0.910279763973756   0.890862893334925
0.074432990408636   0.045043042295348   0.654903422198290
0.355627355379587   0.747440106853528   0.063015824893558
0.803519072710397   0.457607827972979   0.135362918403743
0.931885062091529   0.850205825912959   0.310944633451134
0.430053603769721   0.026078861076254   0.977385705544275
0.881396058026064   0.835193663571654   0.635716421826238
0.293833189619420   0.041822292779702   0.577592223398724
0.167131956191362   0.745120942398191   0.761677063955871
0.141634440334845   0.125509536190849   0.331189965424221
0.536644550729349   0.933677557233913   0.757954115746333
0.885635411039095   0.841693117553069   0.669552351705372
0.388272618778598   0.952519723270610   0.082217499828195
0.805239486897314   0.988409671242602   0.952859787836052
0.098153028971382   0.921710675884817   0.675237125502907
0.798313123099686   0.065200208192041   0.761303028389728
0.930125246908434   0.905995785887349   0.308329518059885
0.946996168935366   0.100133750624425   0.275329565216997
0.820582448357226   0.981680855271473   0.194224081755787
0.366531750411370   0.144668882222160   0.023473164556131
0.883647331002614   0.872170271348034   0.886526829555243
0.666715347308498   0.883525383766529   0.129108919316608
0.147486839318941   0.157710748741604   0.001591028457662
0.329095414541175   0.063601085600214   0.468152755381782
0.748171047647545   0.445210444345527   0.015022167855705
0.275939011392461   0.377558203990385   0.170809412919880
0.179068934891249   0.206527095638912   0.004870422576777
0.169492299205506   0.449875945466109   0.855962401576807
0.477623086598424   0.550020859095743   0.973676542746338
0.116762683272706   0.097022612338127   0.216866233221979
0.993484759045086   0.424150598809645   0.381742210292648
0.073665856696652   0.665532385048777   0.023972594143204
0.152887638396934   0.192481367572537   0.152927433432793
0.950782761048331   0.825370809032140   0.869099871183296
0.718662752287938   0.029019783526668   0.528202289415090
0.506439172212029   0.916898053448449   0.712239548067679
0.235394795460998   0.911122965539442   0.115740638418572
0.097296844953227   0.421342078609920   0.562317475835429
0.436776217983448   0.357279957049401   0.078984737399479
0.282121977505170   0.670456574675600   0.016375397152209
0.706973333981304   0.990174072990538   0.007490833842528
0.260747403583581   0.539089149587761   0.355821772512511
0.356749019268827   0.777101968759950   0.271155502488570
0.295675639921852   0.963017739288722   0.769642292290003
0.310451058823295   0.524466707696656   0.868153447263365
0.297113405168055   0.524877780125112   0.837568058915661
0.216425041753570   0.883902221688897   0.225469862746177
0.496239084300717   0.111203430093540   0.704755887500828
0.223904360177851   0.768821047042639   0.925494128332274
0.061105231177937   0.507284942920121   0.409008789022624
0.412931798777064   0.566474442154996   0.224497970952261
0.545454064384661   0.033575826235346   0.687125687047667
0.880759985551924   0.413406547425730   0.530143730658038
0.040929623969956   0.466922915059526   0.438821733501303
0.933079446812301   0.818422709283081   0.634285934802110
0.118852159493054   0.554093508868383   0.225364958597933
0.004100618555406   0.424994971496691   0.171864513485868
0.058653967719526   0.074645445900725   0.207847360280674
0.625100644218094   0.475897224330249   0.667559796377357
0.554703254937839   0.154696392029904   0.638900877251110
0.025645083903756   0.697627833247132   0.328670071444510
0.798155209543836   0.818598499527663   0.221127544034709
0.284311428958903   0.408586068737328   0.170138441938033
0.262381394011718   0.811527698826228   0.774468875253324
0.904920674356829   0.603461098291651   0.018900685829138
0.435211802681868   0.744559077710288   0.384550697014100
0.990941300741839   0.867557478874608   0.450378429060919
0.275061827332132   0.303525610828566   0.226079358580131
0.301326280686556   0.680070829902158   0.068911829306581
0.331921731761655   0.147771471221851   0.933666312951782
0.601204997678001   0.132343676974040   0.463435319791508
0.512918245881858   0.411301982716090   0.428107408846760
0.376722898502656   0.874837399562441   0.797616908469067
0.459362743568730   0.871321022141712   0.828420239036045
0.901774209384078   0.287909281198284   0.345134539429020
0.196255323069085   0.609701280483927   0.241016035225400
0.000249969428146   0.021329456785862   0.679000008319476
0.756991920317311   0.709819945938704   0.258689195564788
0.695104522985559   0.175009983883072   0.308151950530145
0.153803974032325   0.371557350950263   0.868421316957815
0.370381384781288   0.331916852134045   0.838886350246575
0.106078599894826   0.662404781686401   0.022330338151353
0.099201783140765   0.465448010211708   0.040125274042735
0.455709890815148   0.961229864648547   0.804773267466683
0.372967390604722   0.346507459905647   0.046484354002344
0.441429547096872   0.474119692098704   0.094315914138511
0.408821711789191   0.135874816925564   0.990430962889744
0.099635210613012   0.083353242944522   0.733894782263416
0.325649933033905   0.383772848813317   0.108259493925508
0.213681892441839   0.110631731143525   0.701953405255832
0.780144418196773   0.047024941085639   0.448125395581228
0.716951660615050   0.889932519437108   0.861200602230393
0.654193927582780   0.358591221721471   0.730416188135626
0.222052749224704   0.157925130667330   0.857946874132986
0.481737096183310   0.940881913745528   0.757854164023911
0.658279338544222   0.829184323483589   0.935963697992213
0.005648787195496   0.063071080100329   0.124829942993140
0.594336524820715   0.266640403485431   0.701116197831855
0.376140606587473   0.968258912445736   0.717644537685825
0.586507521243050   0.644968839296467   0.684649711458483
0.783611205425686   0.539857704536184   0.627150983168556
0.336718966648220   0.829573910798064   0.877317220709740
0.207947371798136   0.218989055120209   0.956188145631229
0.181967571721918   0.155259269993256   0.698872463687149
0.788476775089811   0.867611739500086   0.776420343925871
0.239307487167911   0.715060732535466   0.211851028593751
0.187275949659239   0.301614155754670   0.750004970008386
0.685680147355283   0.429881565918851   0.768731028888378
0.756278415130270   0.011255042936692   0.051644125041595
0.952080738290474   0.949319433319182   0.278415697915938
0.569806797280615   0.093737337947708   0.086525004096707
0.333304330582317   0.950218471838126   0.892560927479941
0.328449636995545   0.305753305363946   0.657974988396790
0.017697800212934   0.138562814491871   0.606401284389613
0.724014931337367   0.309371721639713   0.918643794873352
0.031287686258932   0.009172559701425   0.216850616053362
0.157355802075036   0.550613002681609   0.939909998440486
0.220906271187955   0.069705670727616   0.992748782965356
0.484998400054271   0.962175490979311   0.822006220881787
0.586233943962587   0.840123647844641   0.558947247991846
0.999136611482498   0.335715162661713   0.297927094391066
0.351694870068454   0.406545303398168   0.177439616649955
0.184316400480608   0.087332499678633   0.029610387405466
0.950444798815348   0.994006806013260   0.601880653233885
0.520887080820355   0.042158093174276   0.735398926656432
0.429578967004480   0.916910965039153   0.026076907155616
0.370298462611191   0.409945720523085   0.206174564982413
0.899163391352450   0.420230836095852   0.481145739681456
0.278966723817277   0.454480939291967   0.931768391490601
0.750164810670272   0.871832788958243   0.574282922788798
0.952009508814434   0.019010384588633   0.372005336526550
0.978485929209355   0.868916013999860   0.841991512481604
0.652272183369991   0.936022777732313   0.819088625956934
0.631594568821067   0.873120928209012   0.563013008950779
0.700466691502335   0.651742781086354   0.402124488567576
0.093494690817108   0.189462355273303   0.352029081594675
0.682687925629409   0.610816652663892   0.585265785325885
0.210461108836760   0.692545511436514   0.065292651168805
0.402302025302860   0.460556938882260   0.769162692221452
0.069869140446438   0.509966217366844   0.321843534698109
0.484183195723380   0.798190727753682   0.156802625995370
0.416386595495140   0.574413296557258   0.256463673001780
0.694465501136481   0.160987237188945   0.407730241058700
0.635335125461760   0.846284977223794   0.884559858918924
0.897796344303727   0.889668116008813   0.790466104649015
0.765886895359536   0.820453594837730   0.615097611878451
0.379695729471747   0.239944039459301   0.018865358540299
0.719413758054808   0.760565564815397   0.105708044878280
0.067219437107420   0.508296328180995   0.381511510288979
0.060015440507122   0.690263419754959   0.038961931613771
0.224191594470637   0.968227796161633   0.233386843291754
0.292851311054225   0.833108920099296   0.060919650181716
0.160991571596797   0.464545765114808   0.602117781667834
0.694604467981895   0.988392973354616   0.503753358495739
0.805590023176086   0.507084752913984   0.031801127322055
0.897268015908667   0.495648334823049   0.254757857921619
0.262432456443766   0.459532766857030   0.902121286688571
0.139203771907732   0.775446746777023   0.718565469077936
0.073634498977796   0.061463325374579   0.070108907861164
0.860839508588723   0.713770279749994   0.851456995893227
0.481102006865492   0.559974098746429   0.413276550154555
0.413841093187110   0.255403498447340   0.613883163889579
0.547372167721414   0.296090952655765   0.516248641741816
0.259930205387634   0.521647939258168   0.891173580061597
0.009743921302491   0.074542639975595   0.180114515521171
0.587770310325827   0.846737740759394   0.175784554142061
0.222412479033099   0.963910571691333   0.134401582138430
0.177990230796181   0.107929843051258   0.950775167709218
0.706516960093287   0.071218952321213   0.561865209268102
0.692848802204025   0.953726666426856   0.624496702738632
0.009661409890110   0.106470745153736   0.603620513649466
0.925969032595926   0.677064046030675   0.104719423036958
0.345883931024041   0.215950449240861   0.287758988158010
0.162531240820692   0.177641706982924   0.302803005764377
0.260283925740233   0.292459725842027   0.859759311296021
0.737061502601772   0.012556881128669   0.692956570540313
0.963490520790795   0.132554483923429   0.500951717246102
0.983671290341436   0.732198725942923   0.476650819942753
0.954065278420587   0.504326859527343   0.257594148180056
0.579077227273862   0.615571761194972   0.080923500590629
0.561156188103376   0.338597860483924   0.867716691876198
0.663097102439001   0.155818639100894   0.412302129153500
0.578926547255940   0.725148204425204   0.724942027225206
0.939479569339897   0.844017668849421   0.652312838526466
0.594455929315702   0.724162418107877   0.700920082322274
0.194184414929265   0.607292785415080   0.011351348985440
0.540996201718434   0.814095476088834   0.806678564341959
0.442230947843071   0.052496749073606   0.650770625844888
0.339861176955398   0.172282606412432   0.104924806545807
0.231017050730446   0.887327348492677   0.030752949184717
0.548970206960562   0.588762555326190   0.041239506029274
0.217711520206366   0.938973348392942   0.113322599345301
0.355520466729460   0.966376157326283   0.666518939047019
0.242847739782604   0.772076774178723   0.899606556189956
0.157676259882216   0.975231698018921   0.116978693031973
0.108009864417357   0.100688044671259   0.790242945954417
0.717599087354249   0.332745313344219   0.793969977023617
0.387821244377602   0.847565757852089   0.871057828192641
0.031537911597288   0.326459381666732   0.413449550964289
0.631751176590584   0.805784264422874   0.277676974504673
0.398927273170785   0.835716279606792   0.621655182180289
0.359232885253005   0.917964135575045   0.638242389405310
0.928139365280731   0.607731865323435   0.097974678734280
0.929077254142174   0.342304999713323   0.487479559135799
0.245245351122521   0.828609261854156   0.081452597959470
0.805091875985988   0.653672124797362   0.798335275184444
0.410986543028685   0.591162473628311   0.451758488620849
0.593679512055153   0.608171786247235   0.022311542872795
0.878307203095182   0.380121036130785   0.989540659857388
0.428066326333224   0.154553324313709   0.163673053483136
0.634268676927466   0.621442196437361   0.753122426904337
0.905283822207481   0.035610324117892   0.392440991509675
0.720916743639131   0.370712567435483   0.849025265876327
0.461461180599977   0.702718375382518   0.357768983214033
0.770360978252905   0.363080286989369   0.035230512852893
0.337137098642930   0.858688914464083   0.252919842979179
0.146700878203134   0.930941831155227   0.772511782280307
0.086182314669361   0.262601470644712   0.845318439432621
0.459027674099899   0.756241246240902   0.513213300554380
0.526229008847446   0.140269166694205   0.743767982529295
0.593976362498862   0.688533385699715   0.649354756011333
0.246140297905734   0.575590275230481   0.907931477087186
0.403062155430397   0.803750449514246   0.162029228746928
0.488333615870908   0.330027258646218   0.026619964356190
0.329885387650689   0.221768318011522   0.867391636801416
0.434693574331131   0.228660627299826   0.034429358093533
0.863986449718826   0.883144400267686   0.834642233756772
0.523498522194683   0.529143362750524   0.457716380845515
0.827067368511380   0.634596585807543   0.856800491469887
0.656980718830893   0.929903948709478   0.043890662334245
0.980495625483799   0.769809644799993   0.337990505045586
0.482336949629225   0.817597072509449   0.128769269861813
0.360283855922436   0.657700199178154   0.391099926485252
0.689871043070971   0.681605802325244   0.651472241775987
0.068522011809627   0.779311050734258   0.106793643622549
0.314778473213558   0.735582958630232   0.930586249244009
0.980717822448525   0.278358789829352   0.370881287474457
0.879034045352319   0.035356600348108   0.440630179968551
0.760064131869315   0.619635774463505   0.767834467928911
0.388097263387520   0.151122788913108   0.826615435345956
0.641181589079178   0.501174571164711   0.540657138065114
0.887212415965337   0.436343701603882   0.506853414852094
0.903682488608053   0.903963085682911   0.286823501785942
0.013696974814578   0.716324617173384   0.435529107640458
0.442305346999557   0.738695257607400   0.915336653202197
0.470221513796114   0.883458892284148   0.639084460777789
0.264167001534802   0.279334881804762   0.829390279948941
0.442861844405782   0.285167582010456   0.758899394530117
0.969445886854239   0.921393730510814   0.759008127165728
0.272109538029879   0.508405057808002   0.202072835919219
0.112240819084386   0.666692272977932   0.159588327733238
0.528910477552379   0.148298383955258   0.534829597817033
0.149351586732512   0.684041247037159   0.960790198962312
0.007039108390877   0.051339505563371   0.068934611755658
0.455591505770500   0.634578553862367   0.410728866462439
0.255371974009897   0.895161003449124   0.800605041015639
0.828386940393411   0.262515472707877   0.949795749122042
0.290285825989687   0.558756568145162   0.246924364022197
0.848404088520541   0.981161061181605   0.263005750556233
0.197629785721326   0.137610149800852   0.104651542499754
0.333187310919294   0.669881029685809   0.998508536683386
0.720583842354443   0.675699230964786   0.403182905420195
0.036940421889440   0.787609792921550   0.096317296231243
0.204705404910421   0.853474868005278   0.232128935427633
0.940602188741416   0.685860320140538   0.132492312539323
0.093603870010291   0.046461633137823   0.522463634312141
0.952320082804850   0.159320688953440   0.388229111639245
0.190915730220168   0.542813938556109   0.031690673065260
0.777026664767996   0.479212866085741   0.138081966305583
0.513761031185115   0.972758510451367   0.635060007667625
0.292422141823216   0.232602874161344   0.139926652760524
0.239847221273549   0.491960222066051   0.263083435486458
0.336194296424719   0.321542760407739   0.842888301546662
0.456345419326884   0.614979908022111   0.315842924517387
0.404495040468860   0.730869064886403   0.470434044001447
0.601717941296656   0.032415825856145   0.621975080686266
0.456647392594821   0.439171964083754   0.478379157569863
0.552682659126516   0.196976584134645   0.558678085699049
0.029401968706254   0.242018813857525   0.401349616180445
0.739277290227184   0.905374991548210   0.912091019397110
0.947821490390225   0.253384200563271   0.410405901203523
0.977476275229635   0.402614196160781   0.044681466629626
0.623375344379825   0.862889442369967   0.799339495070378
0.021058847800554   0.641745800177499   0.196699246302871
0.006987172262627   0.058768470314168   0.637476353229693
0.565323202738352   0.935315927604794   0.773428227595802
0.231682837892563   0.844724580124000   0.983900898896395
0.093995382792498   0.731758773738958   0.875804161765916
0.873802043500140   0.871766452782134   0.982485711075515
0.781884977014821   0.360853751963723   0.954428804076573
0.271113319594127   0.742389374326206   0.136138525336958
0.704486375236392   0.915849963921705   0.025827819767658
0.059823809918949   0.434012778262779   0.187056926451445
0.138678954008485   0.755396606947397   0.881509812985233
0.974375569541895   0.783687523752415   0.461197774451008
0.981742166701564   0.663763804962366   0.164898496622293
0.598900754676884   0.930149371425252   0.013332561590156
0.411239174416656   0.250411865264027   0.022205932219327
0.270225811788167   0.310299393412559   0.581587004349337
0.330193829017059   0.526332589381821   0.194981286788902
0.958568861877380   0.481238174209751   0.318630674366967
0.399164816844165   0.619333916520400   0.312497283691554
0.949882282543242   0.745974002016900   0.260292807819882
0.171953023928405   0.412188997595931   0.813106826423096
0.313942121058623   0.220780636722445   0.118610127256828
0.769766334775465   0.629040512889076   0.913830483508028
0.910744791991780   0.287487693371873   0.313184674128549
0.042740190470424   0.447002266038477   0.465197382484573
0.373200432642779   0.207423811912426   0.018245385263586
0.717014939738666   0.477892925956335   0.784157791547074
0.455191949109468   0.786600956282851   0.169560803929925
0.003051174191957   0.359868425908825   0.461448144529696
0.216881717828653   0.091317976428302   0.076675294789693
0.467553648283165   0.054819001979003   0.921808248433255
0.690529541848174   0.870648473157124   0.552238227098342
0.235570458813569   0.385103228817035   0.933386282234027
0.381147618885757   0.173741452356629   0.280056832388635
0.738987261189987   0.991255011034415   0.999512155200036
0.813328010647506   0.685559064541909   0.719449553352827
0.828513773043470   0.523654837420778   0.015500423253320
0.242645351178891   0.550051867444564   0.331111478668284
0.439200051632649   0.204275166453600   0.674624802542088
0.887953219000530   0.761500441543128   0.531816002695899
0.214193739722891   0.700978340264541   0.851778295290103
0.615584569510497   0.111356092983503   0.604616330494098
0.598862066285412   0.202573174688839   0.593326682066348
0.691005897056897   0.557182349654731   0.625354121700394
0.541482097468305   0.843537978607239   0.642389872072191
0.492780876636116   0.274983541797116   0.520719352334658
0.268230194980853   0.874189445768968   0.205388615649558
0.591728470583835   0.920950173514229   0.725994746046254
0.750737760966504   0.398892420113902   0.937055443606124
0.122328899860500   0.048374860514301   0.509833927750302
0.722518103812799   0.396230845964279   0.007054360384654
0.302921425772074   0.864976562480552   0.785010722128124
0.497713922812554   0.586673140690134   0.489440663541476
0.558492870518712   0.182929461196083   0.143279611858850
0.699112512767504   0.456613366712095   0.837016395913259
0.158418473462963   0.211337092653286   0.179199276400389
0.778183700543944   0.502056985903791   0.112989397214380
0.000355727177561   0.330074202232073   0.358836185588035
0.236523740631689   0.790724251675653   0.990261254634443
0.428880510183704   0.352003380759056   0.023776001455160
0.322388122936621   0.978465676661135   0.902341519180138
0.915270515056513   0.776354939204851   0.906336097370226
0.707054442734168   0.193060104476421   0.287763541053434
0.428806073819977   0.065110028191968   0.526697603559309
0.149109834644294   0.889942631581268   0.688842054891514
0.097766227539348   0.180138521413122   0.703944543564268
0.177625205677155   0.693626228622309   0.061893676721386
0.542972379598972   0.287255091211310   0.833826601895929
0.197082047096651   0.736314675702655   0.774159197721084
0.182098727987973   0.798295027614392   0.746774559371349
0.311530194604645   0.843843792389358   0.034300737645749
0.872548036943941   0.983580954935378   0.285543559843409
0.832516989139207   0.008737665884195   0.260462255712236
0.995497264356952   0.972184244931688   0.059588220199193
0.702279471640333   0.014608936545402   0.027953063426489
0.358791854733166   0.115176011852898   0.032776094394069
0.946827027875789   0.822769741570372   0.320808656499161
0.624552715307167   0.192921725085320   0.608361702174420
0.484410310503921   0.226509635566655   0.263668761344198
0.333759694038669   0.570204738161902   0.335460910818033
0.205436650262415   0.912029647129372   0.233451139115041
0.171998731776708   0.152563990217285   0.118097984124020
0.630896021533870   0.446320490308599   0.121165937037801
0.549761122342354   0.644072538206279   0.566152958440420
0.486047803302383   0.294221558890282   0.798279158905063
0.127939042815995   0.555430994865586   0.153474886158975
0.917840894702461   0.464352601619444   0.451798842573511
0.809445859263200   0.902741001776086   0.002450264932511
0.636810440648672   0.067911432272436   0.090608308218833
0.691536766340510   0.904405460853389   0.082109739982285
0.079079949462238   0.429316569264389   0.073134798564860
0.668160505444652   0.923907330245231   0.667258434330737
0.737443591338183   0.202594793762159   0.287367897666801
0.303731693458657   0.509421968050448   0.784554411870782
0.848397552243482   0.733035409275298   0.136441137816951
0.863723726920371   0.674873286613870   0.892536130789376
0.626945555773807   0.422814276292093   0.570581603136622
0.813596414903885   0.685865800444575   0.655296309885061
0.152992511507699   0.041869388123023   0.155261473889583
0.285847720949474   0.887147424855064   0.879174580849539
0.717049467963249   0.108574000709100   0.595422474758928
0.197909443529008   0.789646013930152   0.929254771566680
0.738436503858073   0.640250636664250   0.596363707548600
0.766031644060173   0.867626141468536   0.598387898126704
0.929130922215882   0.496325270929996   0.209013400346258
0.030080715916248   0.967171274634624   0.609277456260853
0.622357078714096   0.834608553405016   0.220384124182785
0.333812001476199   0.431927759459848   0.167544433687024
0.753211115894491   0.926437043272784   0.055042808711989
0.634674217844525   0.086295145253624   0.115375869238830
0.768543256466024   0.894298580796602   0.902421664885825
0.149029425112338   0.834268563557684   0.770603934769791
0.248606141273420   0.147863823807251   0.749959777452287
0.182860313719405   0.476251140316218   0.186060314693391
0.982882775563344   0.506424016082039   0.273673555494878
0.342027669912179   0.965635511608425   0.795737297665749
0.669969118331969   0.941601457301876   0.695103951961916
0.708779189153380   0.329901242465163   0.905057035592698
0.622773092221631   0.170781322751794   0.107561952789732
0.311000100556164   0.852563652609145   0.084359979974926
0.632507460296359   0.148390676061600   0.496637945603682
0.711067352270327   0.834483512647834   0.756550648866254
0.881291692731445   0.225036250268393   0.264710339856857
0.813706085053638   0.575300090916310   0.877417596385986
0.506415917707883   0.365663510081878   0.183340618649100
0.374530219698386   0.970967105011786   0.749599762315626
0.413625685432377   0.769192402235887   0.266248518064808
0.005986424710187   0.160899648880749   0.584903500653803
0.706667977037367   0.819820044059718   0.220172250954678
0.311686907283260   0.722268717031138   0.101787337646861
0.388424765130756   0.818373258366838   0.252463226276953
0.942904792556416   0.009747484500604   0.429009250796264
0.271820916168937   0.883524832507019   0.078155177042619
0.933284621547888   0.868780144191481   0.720930223606884
0.079873719470086   0.659908575857811   0.332325253860869
0.496811390899090   0.230339158925679   0.619271093974466
0.171356932355330   0.118286941438898   0.755230608725811
0.621482548910060   0.089680564449285   0.403848911534097
0.261244409591105   0.540606085195819   0.009729523697068
0.846330709811594   0.729384306810950   0.755293330850932
0.898768419080143   0.431610797728013   0.120863526396693
0.457118470278767   0.117704889518270   0.400671626458699
0.053043205773201   0.832603413697414   0.782722359931054
0.317322944810133   0.401918442861867   0.330991672543094
0.385691669818933   0.077286479270536   0.615668239902228
0.863967274920318   0.257729170458000   0.301618068648275
0.079310170325271   0.538123171551279   0.466475660869163
0.431525984762482   0.213548338583588   0.861425306973995
0.564242242365255   0.080170255334834   0.663769287439261
0.429549653137405   0.133836820131201   0.545861231172665
0.238631639085489   0.173356470130859   0.055794227697033
0.299525685832415   0.479172588870652   0.940897739425573
0.902472516808089   0.891274813641616   0.059598390482798
0.828035499594648   0.216449899843153   0.291225545683726
0.887097636501295   0.336069144127515   0.386990659569133
0.347758800601814   0.337895907889369   0.130369580806905
0.974606032658222   0.311548953111090   0.505353074523018
0.337060481039303   0.869445358124174   0.555444718905723
0.298237523483851   0.259462785427289   0.158082303888401
0.989382840478157   0.051153147474678   0.999979528149959
0.724950691854492   0.966236000507881   0.610306959001793
0.400885521649594   0.131516309525258   0.626192527254746
0.117477253419419   0.118002473362877   0.193608615546011
0.787324110221910   0.641226635259439   0.934190227715522
0.437959621911654   0.324319139020897   0.086180208211132
0.235625268719397   0.596601874676217   0.068570336343877
0.699308522868941   0.505371236842088   0.498168375133844
0.384969145547658   0.283346545130769   0.657763368619340
0.228665970849264   0.994627577307312   0.214218191595163
0.262571847302872   0.851396325080156   0.061651901615270
0.211587180198328   0.821145455430432   0.189931392138950
0.083819816206205   0.234236100741380   0.690091624229046
0.082890491527524   0.391795652704019   0.562268813309437
0.097502406077127   0.438428280614952   0.917140249545523
0.244819109575343   0.304145916336896   0.969291728884982
0.975978369028476   0.025442921078519   0.529619133881623
0.242736594831521   0.096041741921425   0.401939361295991
0.286018951147495   0.287571843299064   0.780396321141890
0.483455501604977   0.568046595677720   0.468992041101140
0.838428657337419   0.883551750859049   0.813986512177054
0.536894375034057   0.626681736304751   0.349665732564820
0.961122630510519   0.187835558728954   0.401035807402509
0.608101953059364   0.612738864409693   0.768998138230860
0.704043461806568   0.406231224793401   0.536999981037734
0.549627425703099   0.478708581498350   0.000267884189524
0.214564945871347   0.407975132532862   0.769766591404098
0.758181613703325   0.073642570353654   0.622650423000703
0.842753457425382   0.432350766228316   0.103715431026205
0.816945028593117   0.885691195606835   0.975492228685966
0.273252358543992   0.140461575370003   0.729643806477217
0.582990638007854   0.589137076350943   0.001818788018981
0.994317735712910   0.979942512295462   0.028372011600960
0.079578307746640   0.301795443067242   0.964552496538275
0.405193960899092   0.621022268778901   0.436579112235388
0.229274746123942   0.800693652114596   0.715679500186784
0.417666783608838   0.714291287869878   0.110420403391091
0.510551870367922   0.944567404668988   0.007916606268081
0.522964548366907   0.036377465496583   0.323463600508985
0.530814528249456   0.127930611888049   0.127871777586389
0.552784834496252   0.881056317277543   0.103225731870643
0.190541458478982   0.746497641742704   0.870810750668387
0.997514607861246   0.355807936696144   0.379090959750115
0.201841901305397   0.041988957423467   0.185045035142458
0.519603326384469   0.220000657979579   0.849330925063619
0.170856874892485   0.816659827232137   0.149600969144427
0.365889669517806   0.911997443146140   0.865590445935226
0.291981024292410   0.768046463028840   0.139951052916016
0.155569993626721   0.106691367858738   0.974476783240058
0.730254080457646   0.469371547272587   0.667845135734311
0.329774621282916   0.866463058595075   0.059397963316736
0.332223444967944   0.652274677296970   0.027145782303949
0.298933480422215   0.753260095086819   0.701954561912463
0.152031661313080   0.126411516526203   0.816087862351295
0.490569629825001   0.464124626561628   0.973190629452351
0.462860377677703   0.207166069773375   0.852059588652945
0.857720920115601   0.899484460060101   0.237785587722814
0.924986498761069   0.378912774483140   0.442010147364605
0.172727683846132   0.850804109167404   0.227648133812119
0.749194643852008   0.982380537619774   0.970576631548087
0.908349489942514   0.784514409574981   0.807315405197621
0.305051750365637   0.235657739233891   0.025486384407375
0.306533219081657   0.205240400548103   0.881298875220458
0.455908131775949   0.245407355455954   0.720890627702093
0.811212786401430   0.843647601689787   0.274408594655240
0.702123553072579   0.029051238202521   0.613902075916726
0.314831673189445   0.194539930951592   0.911617306296074
0.766170150518208   0.692297323417659   0.231726771446845
0.333166778877688   0.319595634754144   0.718334299038504
0.955521002343115   0.878144332378418   0.355429940102109
0.772174762208677   0.574377564705197   0.559894109690183
0.299523981703227   0.322538428928068   0.530426104642314
0.364043869675594   0.761405991644604   0.576223251152955
0.614231202126201   0.124581286462579   0.181168211048884
0.950989290787539   0.060305936406833   0.072493926691715
0.609264626556113   0.177846178625473   0.052709307644277
0.081222008633429   0.126312341310807   0.337282511374338
0.991900738111516   0.338169462630055   0.919680447226893
0.227388500910388   0.036117036785212   0.982028658898979
0.596990224565585   0.821529561504306   0.235741664859076
0.712327482767702   0.904215420018785   0.891031451845885
0.409780883471669   0.689839470851678   0.975802765646340
0.964612745457265   0.770689467618535   0.309309102542036
0.188597438614133   0.992254326290435   0.938842759200934
0.033443107913984   0.837238119713993   0.124278747952814
0.851904976503730   0.816638597478129   0.186491562367389
0.971432922897046   0.676394307935716   0.135788245700822
0.800376966435854   0.040991927784582   0.739801581139887
0.989154986492539   0.091009166868060   0.351287438892670
0.696654558627247   0.348159641012655   0.995946662058619
0.382593566752086   0.900672807089926   0.625287678458820
0.838792898406061   0.897832335643381   0.210495488080713
0.968400735875426   0.105673027993602   0.252526264063346
0.876413149629453   0.881085743325337   0.013644345066939
0.224320594412997   0.187304237130565   0.420577859886554
0.575460009478042   0.512860080076770   0.470479582172077
0.277939675408609   0.291637756349657   0.888044890693381
0.255663221494635   0.072351958227898   0.861022864197485
0.720344855989570   0.095266421173612   0.047594705198517
0.462989995214544   0.805963319732239   0.666354836659414
0.603736452436023   0.820834660110048   0.725856495625583
0.366762361818406   0.838712422503534   0.628762662066808
0.813548833753999   0.773005781056510   0.754174129618663
0.851784690202243   0.684954600633779   0.863771605686977
0.800550610612029   0.850339575900142   0.679856890426666
0.208355983710588   0.029477794009417   0.573315973973907
0.323990056286947   0.335710336552206   0.078611277166326
0.211454663955211   0.766708572121431   0.853524623305611
0.368729837768241   0.126891469313632   0.110591475902151
0.049903307344598   0.887172060334428   0.502052667727027
0.884892248808506   0.728445964807382   0.526277476839286
0.578919093771217   0.247920493959336   0.565455628129508
0.205597314322588   0.879739423891868   0.686252144015977
0.737355126171072   0.918557244982855   0.941664754842362
0.456099231112312   0.815920285860686   0.108854522796006
0.936881524630445   0.325495487603351   0.907583507768986
0.985967693559813   0.789432528620751   0.390912967456651
0.204396535628695   0.008019137983958   0.915385071493920
0.289028936417794   0.370218391078147   0.839763639739783
0.596351240447899   0.500955510420734   0.983560662127306
0.923016607154062   0.404551423230954   0.029372377654462
0.097331067744933   0.083136599521980   0.765574579761018
0.803870830032214   0.182596766118287   0.250176052993870
0.249002736847892   0.595852373312450   0.999648175254932
0.357534122041495   0.562550949046707   0.227253597083215
0.980109848363516   0.173325639181585   0.535283348222747
0.217511281116123   0.460174249312410   0.764539572532644
0.208074563894370   0.568032543135726   0.143442310590639
0.422474028388993   0.717107317708621   0.497570766135665
0.985913551982502   0.399993978444955   0.013322499437817
0.043037008677553   0.083211393305208   0.335233480327829
0.337228982653431   0.269238541154566   0.380468182966792
0.783646299123920   0.538292815621965   0.154956270222244
0.619879708812354   0.058955310171793   0.622028782272123
0.616406478358579   0.427976082419138   0.601086212151998
0.727436385967020   0.620677208388172   0.771278694147719
0.206695607727314   0.668458253548578   0.217038433127639
0.905435664099866   0.877368064930517   0.029427835192547
0.990594859035604   0.200664671411987   0.393075265601419
0.867352261693013   0.351627981765251   0.367908299756641
0.385878049113521   0.964365442554354   0.535626545756319
0.939655348054594   0.748830271077930   0.997362034207250
0.026612310291966   0.299109142569530   0.395821638479325
0.320446768561477   0.281907835302287   0.274051309873376
0.871140222484823   0.684861651124371   0.117620288621946
0.051043231697758   0.005848654115473   0.301666477723611
0.489063980872320   0.589347564083859   0.195795826277417
0.484959650545119   0.929434653956095   0.022900287595559
0.728509370571572   0.506729434296744   0.512232739135154
0.371708393512048   0.300844181556020   0.428461702910880
0.745630139496539   0.764973763148953   0.267854068065373
0.471200399834894   0.667217763142932   0.917485776521036
0.523375825114278   0.081009205560950   0.056006288248215
0.083891133775155   0.079018267116565   0.795230336446813
0.121427231859608   0.511412752835024   0.952763812984836
0.983712046011749   0.065148397921304   0.569937089638367
0.356774397601761   0.484055516498186   0.009418388524022
0.548978978947246   0.257973817140085   0.731775420963906
0.094355930772245   0.286103057802928   0.987239132050776
0.512826331188525   0.798426136523681   0.174244700855682
0.340453898384234   0.783952500581285   0.023477391421847
0.216647293116805   0.020187524833702   0.134025832324213
0.285172612233070   0.455066685169948   0.209756622276261
0.433358686362861   0.317502055091499   0.118548974452088
0.870390461988319   0.105196510884466   0.424011646242423
0.230362975058918   0.801736368785766   0.773218796710383
0.829084322930147   0.885494300005914   0.879080232690717
0.375085741796457   0.468975189595462   0.753831955104103
0.533395802386435   0.060207730084192   0.452749257189229
0.250490604000056   0.103355073973249   0.078520050828359
0.289101809022695   0.777111807938881   0.055124314526061
0.570909252845432   0.191316498937001   0.091384937479830
0.796284948174686   0.662672263122407   0.703321730050379
0.312223802947043   0.844743916926441   0.683688384639967
0.635358320420035   0.315066823428304   0.685063110215632
0.517978445873434   0.249163549208313   0.733424599038792
0.012532201674582   0.967468815270969   0.449221410686647
0.481658058628084   0.532021993977237   0.000407821027084
0.718999856189823   0.145496952030683   0.353997568326738
0.666400870609556   0.621491613241901   0.707991917830141
0.067392697787064   0.508471296731690   0.466990029759551
0.393515059059025   0.694763991582463   0.109121498731279
0.503191016982762   0.927454800857694   0.605077013927308
0.300245969253656   0.852167223391890   0.839531018119321
0.991987389598432   0.698493745427689   0.272142432431557
0.148644166388444   0.002548060729262   0.975085546371206
0.161068926063344   0.019714048973423   0.026407230317492
0.232499664321473   0.571457890231882   0.048506446239424
0.923713517942080   0.143780828931247   0.395101642767457
0.949837027423665   0.034196737875493   0.702052032122550
0.179887568815567   0.938195627228132   0.643419119058378
0.869708579730563   0.053685265967996   0.356341991504864
0.509984601689982   0.942179371888006   0.774175570633475
0.780272787561830   0.544339307941177   0.566713692672217
0.782929275971270   0.488646912480378   0.982830512260512
0.400116684915374   0.187699327617851   0.016366895126906
0.753533314017882   0.521053437618785   0.672942581413923
0.037891844593190   0.864353882513005   0.141959368727473
0.705788723633512   0.641155298293775   0.775051668908599
0.920023802564991   0.149794115380390   0.271667924417099
0.828455741081235   0.812037786331956   0.164057086064798
0.297248264470973   0.204211511569036   0.936969291119884
0.936919059243176   0.477771167566886   0.183799283693448
0.526284124529517   0.271481926667987   0.522351484700865
0.299950364663174   0.185161758403367   0.963073155748114
0.977557473461458   0.060352731111894   0.023844018855719
0.776304871443811   0.642838727773942   0.751039958803983
0.378739141924256   0.736066990901611   0.300044824389989
0.358565469838959   0.043957494559472   0.560049394299049
0.103239278395784   0.629110269899595   0.230423417575968
0.855320659408884   0.047904009700286   0.384377138612922
0.629074867195935   0.933407661612143   0.964338102628187
0.919400131722712   0.369868943672633   0.472521668670606
0.729036710602931   0.863650199795727   0.802044018636750
0.916148197669048   0.082564936209813   0.449795513288511
0.424603309477348   0.928516331167557   0.577369394189979
0.591720232916769   0.133661055732538   0.603253574701697
0.666169976988948   0.545266112687922   0.473939344916110
0.778095894908654   0.496525483437989   0.080294890890642
0.275933626720066   0.613353519216892   0.001520400780316
0.141829338293871   0.102391641024800   0.279100399471880
0.307452784249641   0.956577061147585   0.796242968590436
0.302325770608186   0.353642870549273   0.305639153168808
0.065547340689411   0.448362767814203   0.914224937980673
0.535565471953974   0.551932904300520   0.002826498537950
0.779760819996506   0.570643018506466   0.636227094945239
0.567387508477988   0.249179129618860   0.706642502758644
0.723878610111043   0.453170833678584   0.527731825090647
0.670588021830833   0.376615131417526   0.634768908068485
0.588570677860416   0.306208388090859   0.805140247888196
0.238102273869679   0.617994924968842   0.278773130160002
0.824682946445635   0.782768262147643   0.150008641760023
0.298836768856041   0.295760894115713   0.579925241297321
0.957537787280383   0.925338841600513   0.460430030939607
0.405754776455472   0.984874041229407   0.956961739244594
0.441650966276882   0.165693705993693   0.822126335755958
0.807517142085132   0.916511624919632   0.087611517337025
0.096744868235030   0.262302429894213   0.688995675942436
0.610632906360142   0.960608816222069   0.620204255512787
0.837123479386577   0.036044903357607   0.277989499900651
0.537034749778381   0.058486793891329   0.309959581347099
0.206598583259224   0.712848523264831   0.117755926887991
0.251460447166267   0.100185997228982   0.869658209154343
0.686516909235000   0.862578609213143   0.522170905716510
0.611965700667321   0.562204480213869   0.743738282720581
0.258604469644441   0.027396178121202   0.249169895362464
0.021955652357631   0.300816087418201   0.978406512623609
0.387000862375036   0.586255689115510   0.308081113375832
0.395159271439892   0.461052097752583   0.418377650131810
0.551027344197448   0.195995399130447   0.806085443724493
0.639263339644392   0.458019260606756   0.069754639833338
0.603968222455815   0.623799648050518   0.243774684331453
0.184146287867259   0.816403780633913   0.813651420456286
0.630105131173250   0.005900900017788   0.416061567345241
0.647241956810007   0.490794298248824   0.509022219766436
0.286428297616492   0.806065824848914   0.720020621459106
0.405796002605446   0.190017112947127   0.421291374173913
0.813749678574706   0.537014446011145   0.227034180702761
0.012641033304656   0.398346718465074   0.155298863852026
0.302668702555622   0.674146090474533   0.988643421493439
0.057409589098817   0.974842543835841   0.596580629052959
0.967959017109714   0.011856968727516   0.581788986089560
0.348024914475503   0.686574038687597   0.305745722257454
0.560236395924281   0.277470669544481   0.754604970389153
0.433750155909904   0.123641998706054   0.116400297206403
0.463203123815166   0.167166127049215   0.520984295826078
0.815023661846599   0.691180904204111   0.120981120128064
0.735124877969601   0.599388572531510   0.747747957353392
0.808470962972245   0.922536582244406   0.056548297084712
0.330224045114759   0.061374888717520   0.953065315581366
0.158592369353623   0.984764364246999   0.066781018258472
0.900867402343282   0.106968664822081   0.305238217271655
0.133920357175565   0.395322410916275   0.918668635341757
0.099909618467879   0.093138933230306   0.244654206494533
0.729474296259823   0.505945296863714   0.772687435105544
0.232611901949182   0.911208244503596   0.781406052427548
0.919697948292602   0.043970267466950   0.111131928090799
0.213065671443700   0.086019176869238   0.043577792936605
0.470147137155986   0.148271496980640   0.776789287437921
0.232391790354234   0.587971275720427   0.290208991967222
0.247055635412120   0.079565851277318   0.670623183031951
0.346197128438487   0.160053105174820   0.311717323858524
0.858182760928539   0.760956369169934   0.675188550532597
0.367212354413530   0.968148633796657   0.850324806466876
0.727120345609238   0.970023317949235   0.951633853924260
0.899055298266463   0.572030681188352   0.026601903232019
0.422706693744671   0.843334317263027   0.072140275470622
0.403503769487792   0.722588555782150   0.610262473803434
0.239382629623542   0.891978463513781   0.611500133264221
0.612817546660558   0.477816750173748   0.720698357730196
0.853520553685916   0.720699913269664   0.820270258998118
0.190546533290699   0.870380402513051   0.955001065705034
0.096695696567775   0.449882458396144   0.092184452413445
0.378691848995511   0.463360370921451   0.819932982993513
0.019126688463722   0.766285404784511   0.078101464397097
0.232018314626947   0.388970349890375   0.988771070764391
0.261117083766544   0.385372473435532   0.851147666279615
0.256269999071932   0.792958036567658   0.175558268327185
0.254954258802935   0.187853257453042   0.431766556613839
0.027983229476955   0.572817532215122   0.195770568537068
0.777343234287593   0.024363176967207   0.725094461666238
0.050237758813146   0.024385945722392   0.654342975978603
0.043452401611881   0.355608128483052   0.540113647694327
0.298846988194387   0.115967638162819   0.685733374300558
0.249907274328559   0.888002755041445   0.557596139409146
0.768882814500940   0.576474199967105   0.802848678388276
0.104181103636162   0.112844877462101   0.719259882402204
0.323880256713449   0.368745710094606   0.077782230623069
0.234053243912606   0.202276344447076   0.267027328153498
0.857228530722020   0.113971413111497   0.395103253331172
0.948029282449888   0.199313141443417   0.429697208041090
0.234866454408549   0.138690165507956   0.909901035224295
0.358353781730177   0.596255138666820   0.478305583148463
0.627115199234477   0.568042579897126   0.426759936128928
0.009626008366360   0.519207676726343   0.259865109837529
0.285218288546258   0.059703628649436   0.006468829116678
0.091013203164359   0.758656362843271   0.862840351940868
0.616609727407875   0.456496366789702   0.643862482595381
0.072677029609361   0.096655277118610   0.325727142974521
0.428956379444849   0.633218589146374   0.317729440699038
0.146839102329924   0.027045320051099   0.713579073955390
0.252128749386463   0.769817883413396   0.199827620470633
0.117368227411294   0.343399583250464   0.899702756842665
0.772957240308602   0.299436516223740   0.020825518197134
0.337763992008512   0.099096884374182   0.014917311194898
0.440011459954939   0.110429160407123   0.702007240479307
0.120979601047274   0.134376910212623   0.169652346159574
0.362377042856829   0.483199498724182   0.175538107018712
0.478635140123984   0.764124141986604   0.610989881794948
0.062251623320406   0.546336837898419   0.230361677917755
0.426292924874265   0.493282224941604   0.893980771880605
0.769426728085283   0.271745438848431   0.972390681578933
0.234795601841382   0.586554699348529   0.153262782751591
0.570192517980854   0.619702429966806   0.199176849045267
0.873114290003153   0.880919141006033   0.769616702990113
0.669391478332848   0.561390959567263   0.678470837910765
0.667118259581817   0.407835163447738   0.937760501857953
0.644034802150192   0.359658484409965   0.847342411121522
0.571306827403091   0.658218800867914   0.794066548635923
0.798385431932181   0.778263524528691   0.726790002778435
0.703096287705642   0.893850564556915   0.966371597149471
0.152937987658365   0.518246297546348   0.318395138063959
0.582919833219685   0.108841048954266   0.113186452795486
0.443575746118234   0.421808747293700   0.073379798254552
0.194424364519432   0.720458196631578   0.014638545771942
0.412684275819835   0.769521966839728   0.384328344753408
0.508552000682882   0.762131205361670   0.625996877172733
0.655602392094022   0.683105594323903   0.716281406325634
0.388881706744396   0.216926033258891   0.424038127227803
0.592227493738749   0.928481897224447   0.757542189307087
0.736586295971730   0.070237153577750   0.846828309506371
0.281991085822330   0.876347256506016   0.848956672912370
0.601416319786506   0.000849631390514   0.568171497068890
0.064672500541689   0.897334855825015   0.773237450678680
0.973625224572692   0.565055686394411   0.175379089542500
0.344232132613454   0.012245729231154   0.690061553460735
0.898945773763455   0.347111729690406   0.938821978551222
0.119714578929949   0.044039822530736   0.155456043810980
0.169844452320997   0.051760806627166   0.288339272651788
0.706987918173335   0.583875694177323   0.460845358225840
0.125390759530163   0.914279524928497   0.751660359928446
0.384201279261689   0.760249517026964   0.278482747134990
0.784248161687024   0.626260022756693   0.625588757101525
0.678706384394733   0.481230506304527   0.505753250068203
0.980123839710233   0.076646976237359   0.240115737020802
0.625543474744832   0.326569943159355   0.539250164349592
0.773480873240117   0.123963513363547   0.365192039120791
0.207197686640782   0.063050937748758   0.420763528620905
0.002180966581079   0.314943500662882   0.901060604908724
0.901309896681812   0.051115571158522   0.364472349853807
0.673413805235443   0.850771281765547   0.185118372702700
0.626635375789609   0.468763816445966   0.040320366994123
0.294194658503607   0.284502069577612   0.208531974280935
0.201052950520026   0.554697893327860   0.196562109452219
0.983979477128513   0.964215112359519   0.511908112622391
0.261888350563946   0.478592225337502   0.203188224562390
0.103592389351318   0.049233060277232   0.183832351170154
0.937927194416982   0.407759396793065   0.084309589606687
0.003701788999953   0.946301067235877   0.595573112004397
0.053353878144689   0.623255202384475   0.142904382770526
0.023908377006987   0.067267338850351   0.152345617866642
0.275727202866243   0.090627207277364   0.061042463844557
0.538427726388435   0.457125004949353   0.048120453562550
0.317493342576578   0.637064030367679   0.306925594968625
0.051294740452141   0.924075311913862   0.459099097029142
0.216287861354447   0.694711643361267   0.200723223617030
0.017385685633652   0.399912644166644   0.122689898968035
0.317129319643655   0.895833142754052   0.887502169890950
0.835519992632575   0.700200017882160   0.802317690047131
0.123132390335691   0.163441891437921   0.715925379580663
0.002947960838630   0.319159964861625   0.521191874217609
0.170659508306997   0.829305221978723   0.747212455286469
0.898883859928041   0.854494021761134   0.969345338306964
0.286405616990199   0.171207945269515   0.115660195253978
0.454317771174228   0.355768100825017   0.509679631598995
0.573836503801267   0.066138001888426   0.036125346430934
0.022180718212711   0.085533717363194   0.626914375460500
0.169281193364658   0.044986665246178   0.183894427456921
0.628527930239525   0.988144434386920   0.617434549045832
0.214485660869028   0.149877878276132   0.375628750055201
0.342342175150217   0.490947122019129   0.979541697375897
0.383473621384550   0.143002935272767   0.351266607552827
0.134618247467911   0.769888938201522   0.107063797137821
0.830887720180114   0.954351300068995   0.212085784038329
0.209999666415014   0.102441941726638   0.240579924985358
0.190414290715779   0.836389563771643   0.838813059229090
0.957736803111051   0.730893810724282   0.055984148411757
0.570288021677056   0.225208047878208   0.655541408190100
0.255577281283792   0.219491529873091   0.285144835879255
0.119169473986767   0.776875641693061   0.863921805154040
0.632964009597662   0.148980259107371   0.462625743097252
0.809481201112880   0.562566153126233   0.204164832842608
0.639255503545311   0.996205022723692   0.441195868008628
0.694655830776753   0.087471822513368   0.588213328901914
0.329244421537839   0.555320459974230   0.211174976847886
0.058338719404036   0.659232149762346   0.307188531591667
0.469958969946108   0.583180619551290   0.387907685517041
0.126979760332077   0.857655275479585   0.930735630756681
0.082693363256402   0.231113429241917   0.383978603584711
0.498000742755649   0.480896803315835   0.488694274399909
0.675489393882622   0.862090420842373   0.788908424565117
0.651038009306000   0.057019977937501   0.611746125558847
0.654258635844680   0.924269004242663   0.010901497503334
0.371107652939935   0.113974681743426   0.340920065145508
0.406919169539223   0.298201623113707   0.987394068741014
0.880576236855957   0.307241957849131   0.065430705050013
0.535747497409196   0.631137395236836   0.282719757790032
0.219404915390407   0.716007385891588   0.148531894000486
0.972925737658750   0.994951636454925   0.365225782619519
0.307404317726805   0.420756554059764   0.149996076137308
0.126162811499108   0.682572977457557   0.038536407546820
0.219562997914288   0.662008437282403   0.892086917150408
0.172112135556293   0.304126468522834   0.721963329955335
0.285379368587594   0.935440214661186   0.048527322739566
0.831376807699083   0.294176029012023   0.949897053349329
0.855701105713848   0.896124387880091   0.035037192212822
0.574251390629062   0.954630727678450   0.902077907456712
0.760395669497979   0.873353546071078   0.967091910826707
0.681980386004487   0.392028467181419   0.965049840456856
0.293959834051332   0.402226424689314   0.279626235852414
0.269433714596467   0.395852579508173   0.936311047508354
0.818060050539491   0.869574100347544   0.762586060126170
0.247026639066515   0.414666166512020   0.768554005125501
0.065994800263741   0.422698201234891   0.019027753039136
0.475869767599820   0.800779846292769   0.904244140998942
0.501271173248917   0.068779643582697   0.458667477473908
0.364283848098035   0.192767598987734   0.097512996014256
0.628007166167681   0.301298678550572   0.631246778030249
0.823705723335193   0.187686957191044   0.274965732191816
0.464113933135117   0.734934344485358   0.860768637060629
0.659772881699240   0.129286345106191   0.152656125564986
0.645032545054164   0.109761043619377   0.591271464519731
0.707788532634441   0.173172818424630   0.336747138336840
0.638903234573682   0.681274000974100   0.745835100736270
0.213730074181089   0.871429604654752   0.979218964830765
0.635768484135163   0.573435491319987   0.724382401264006
0.756188547932524   0.347512674341940   0.937946401001992
0.919796931024493   0.054154117362707   0.296118774649147
0.647791566913828   0.137361244453443   0.387479586621832
0.463560223705992   0.733043992940459   0.893490248088771
0.038040140956312   0.520410761638530   0.276596811585751
0.077174338718092   0.391235656129922   0.941273664351153
0.978250241689491   0.067017742858035   0.182998555883238
0.703706897496304   0.046646877786299   0.023376951230889
0.013970942857985   0.427744675151410   0.408001523120621
0.459936653672325   0.011167648530451   0.978671198056179
0.305444524859830   0.459661920050713   0.022107969854147
0.559176188719351   0.821906828131737   0.758558330590250
0.326412668171549   0.432632428706901   0.849460512080041
0.313426625173444   0.477023456315233   0.970397736858547
0.512980757720947   0.457006699687012   0.067149263859579
0.467967103056050   0.605936737734453   0.416307824611008
0.013037943173169   0.374061540544813   0.432617219963564
0.200383407481999   0.152686794358275   0.269342696670035
0.987232417237359   0.721387502354654   0.294684008917123
0.783153514252777   0.922363032595583   0.996456763761596
0.449019005685560   0.407245179926000   0.482228130662056
0.634543976751748   0.639193096091432   0.149696686397613
0.078814821571630   0.709322408825277   0.057299660771431
0.399192465518679   0.757261668192137   0.450091034449553
0.674502432814959   0.963618950488779   0.511887822745313
0.532650108585927   0.841335837128904   0.140695979647297
0.643171629689926   0.787582315597365   0.708946120381121
0.529257493525390   0.219792890779966   0.499740865952451
0.240228533154066   0.340122612613711   0.879169509532318
0.535283163681634   0.921867812225702   0.727237476824263
0.436767436977248   0.457799025477923   0.458066135838793
0.347692643340930   0.420565858995051   0.479163568918055
0.302880254745281   0.149846715136554   0.740522887882877
0.374555961342379   0.669376661324521   0.314711801887889
0.020314785715938   0.867353617747881   0.752278807178758
0.786382703021357   0.742422961666132   0.616997646196466
0.288142757874544   0.727698462104203   0.683094243307585
0.599675773836440   0.181923433926562   0.085289557029739
0.306318520568579   0.377613928338730   0.893787727732158
0.859291180095952   0.459897760891336   0.150350049010324
0.203820414604139   0.492621829322331   0.832531077346232
0.084747379463312   0.498425484158671   0.521838097355745
0.980985704634844   0.915773993865708   0.676827134370053
0.397541769042172   0.807230707032662   0.560813601021747
0.478362199389110   0.214966567534540   0.163337465459901
0.642666210922130   0.903262923284590   0.766202075199757
0.939760668130919   0.356130240939150   0.369332015040055
0.468344843176605   0.750728268373669   0.251953007065035
0.028024572429487   0.395594571591344   0.974786039122570
0.409411285335370   0.400848120038196   0.826991512341929
0.886930303116528   0.638446301196629   0.089684990012770
0.474571527898112   0.898317376786055   0.667974957768614
0.311936498173766   0.853818805781953   0.651140288235162
0.781043690663794   0.596245157702459   0.614426244131123
0.098886041789870   0.915942940282920   0.505642305499593
0.267760645987921   0.824940852554208   0.803385111310336
0.134344758041621   0.370912982613763   0.895300484839291
0.377596664632775   0.023395423584868   0.027685934960003
0.685526659054817   0.960915940857480   0.570215758634869
0.022600348155195   0.969335059318892   0.267266152402747
0.223220768789768   0.815724778856212   0.973170173680298
0.169673839368751   0.049533474686822   0.127481085473530
0.072112393940170   0.078646176665903   0.237728305570414
0.495627544817623   0.604397113364448   0.259815551017853
0.176726958588381   0.088490093193092   0.740130534746581
0.464909397401684   0.265211829197007   0.744771402893614
0.050191086564707   0.982382625702036   0.326490287508560
0.883146574568101   0.414171148399537   0.068813605656816
0.713482199565168   0.626565695359764   0.169639594826650
0.929679296567660   0.506478215762685   0.471669954652706
0.767257805676703   0.584793693758603   0.527319119866658
0.490816402889173   0.197587794728751   0.054137236660055
0.870441258062159   0.280878526837472   0.352197349789429
0.196158685143892   0.545506205499667   0.298110403730218
0.194142649376079   0.141155739924947   0.851671058013365
0.822024593417090   0.364529907225891   0.015960483451366
0.902962376422332   0.251720845159783   0.266318767674419
0.953951749702890   0.801289811222333   0.011220427274821
0.252580748619397   0.194824892722854   0.034607903021167
0.998493928340127   0.232120419457690   0.398205166789608
0.540736450263049   0.673907772033069   0.661324306561235
0.420045523707459   0.578608766833149   0.994766349264945
0.184041679114620   0.874855940147620   0.879022210923220
0.572148644359800   0.951688349004685   0.869673506053493
0.409590117396706   0.973621216310048   0.896412024949451
0.215708321195171   0.800580315046708   0.805882452789838
0.208832849209211   0.786254491318067   0.074702580731095
0.484581552622937   0.450683143516035   0.492408543076520
0.478766741275863   0.723970308077007   0.527128061849717
0.243623876067652   0.046518774079646   0.877022351608113
0.358925433043972   0.514814700305928   0.183722303816866
0.668665842422299   0.029410227233991   0.618078829830303
0.356707573143878   0.989082249435450   0.644366805623397
0.140672232595232   0.127894269378315   0.760692080974743
0.962554372571788   0.821925604694105   0.349704803135523
0.114610330830738   0.503962254313561   0.351894250453766
0.756525004399179   0.433334133599304   0.091931735381681
0.162111350142030   0.499521192994528   0.916549234872600
0.292242882396370   0.120626820081462   0.396703688236676
0.106380802637024   0.005828522509847   0.680513751580072
0.705636345899891   0.957668795015655   0.820389837017717
0.178878947332060   0.393610289977189   0.866541116305697
0.363656833472256   0.847556717421249   0.718252346920867
0.688818420303378   0.926771618972043   0.644103410485077
0.784598972827923   0.146965653435881   0.299332091191470
0.134278924331261   0.538505248905156   0.126684378542777
0.353674270980074   0.111446048909442   0.400510461794609
0.639525157394797   0.659544192294796   0.669492408321081
0.077357286725725   0.475778301521905   0.955822372556479
0.228895963258099   0.831923344331735   0.703271210422306
0.752380240074103   0.139890440941306   0.345397872356724
0.131746530604881   0.121897195514342   0.792318550150181
0.037357002502479   0.149125083288782   0.631188147981177
0.158858323028677   0.236392650480272   0.755390100615570
0.397531816235953   0.439904358535034   0.172589926129488
0.676007703367027   0.875956957043068   0.918015467655641
0.723125481304866   0.173106726422944   0.409449834638171
0.113646255253325   0.253130481082473   0.934936709020963
0.194188949015701   0.810763202245150   0.126586437375288
0.400939503652051   0.468633867419351   0.933241483570038
0.409481778250667   0.364781771344040   0.471377145413685
0.538269031934568   0.241109770278515   0.525611549064678
0.344601770879630   0.369493825268883   0.131689944903368
0.259380306638211   0.302671152112391   0.914947129496863
0.632492265218846   0.787047236861223   0.305075310710328
0.738877424611321   0.539541304136716   0.190016594415638
0.218286268850721   0.389674449698332   0.294752196360030
0.262508172275941   0.001428487514100   0.850686455208221
0.676378842264090   0.569628280763709   0.454970295979719
0.016389817908286   0.943551402608519   0.289844193525450
0.929250328739068   0.791554694802890   0.960212690905268
0.776730457527643   0.393175259153465   0.953160679846909
0.767099790148524   0.595073198705738   0.583981576195940
0.498309525301019   0.590522554797431   0.369429814735995
0.449507013881975   0.050502046995443   0.762363005115931
0.936507325759170   0.812895275015841   0.985322980575124
0.070313351596978   0.039201617466031   0.969378978121334
0.769515996868195   0.502068936673094   0.885736531239536
0.665162146526350   0.898456110739794   0.595776540717458
0.240122010386169   0.168611862352217   0.833545061994721
0.705205956887063   0.090537992379439   0.407899532272466
0.596015814667711   0.913391203852703   0.590189442194631
0.318548892225231   0.797736243712552   0.761876322253588
0.253452454589062   0.720081553993459   0.684364178557392
0.033766120934831   0.702575708510484   0.413282467075329
0.293101697742455   0.518535078281779   0.895175674215689
0.627720486056075   0.485277380782310   0.593647361661165
0.958253056568996   0.811555215342268   0.805821769790451
0.568642439171488   0.097227878908420   0.278549909254788
0.593313059680779   0.625754371968599   0.177128725089071
0.476862204238551   0.009250621085616   0.893771108281401
0.385675280581274   0.132714006816325   0.728406598619417
0.536733339612798   0.501332339117617   0.980720759044969
0.028168728834139   0.689406302416681   0.044235831944333
0.388965501671807   0.976035547934255   0.565061807283503
0.337954333582172   0.053821855549101   0.498370635669789
0.746156749393957   0.413154876872328   0.024071856710250
0.036071483759193   0.050916376880945   0.330997271498499
0.002999564353611   0.952472177392950   0.320345300313577
0.836667268689234   0.640284425396229   0.111391766625183
0.096834224382800   0.479815643377743   0.009973917109750
0.530894528828775   0.484909831525471   0.491147114552374
0.114659562170642   0.831048688554485   0.159650476829466
0.565193791949798   0.548984508811468   0.426897223437106
0.406772185906268   0.491556145956426   0.983977959416367
0.915534515378282   0.855635437793858   0.671679952455305
0.294116918652252   0.433300029963704   0.863311841588420
0.110756054321677   0.242545835312966   0.843032637087179
0.579770275961575   0.098278126721923   0.641478034950446
0.745047400117401   0.097946628709581   0.603617476849785
0.760639263705141   0.156598538007288   0.318807942364114
0.051948917059774   0.222149556934599   0.389629124678109
0.663959921983517   0.395122513492952   0.808971168381375
0.767244644814363   0.772276277341570   0.202572703975928
0.562716289717987   0.914198965007648   0.711411296668253
0.366775929949089   0.533269428471558   0.299656176241468
0.656455338192635   0.651462778742156   0.617194503625240
0.232487066898863   0.746076450675741   0.946568499705918
0.364858586468562   0.135662325416359   0.879496315720725
0.382570754292612   0.559304032664578   0.495430693309349
0.275770612158181   0.047357640556824   0.479152790352876
0.604441622256702   0.084919220914073   0.430875557744227
0.544334450136254   0.238029313310043   0.867517419753899
0.632624934565434   0.523592289283010   0.694832874964616
0.339629318855111   0.807616736637890   0.999278134992771
0.656848115741041   0.581437364819984   0.430934989619011
0.541395985827555   0.608905043844153   0.186715696616604
0.891248667159459   0.166753506470900   0.274081422115431
0.529233859011128   0.209805378751695   0.693489915972561
0.675107105053598   0.392353187803905   0.689804029161252
0.802055394775681   0.584882837062007   0.848689681078829
0.478561570142394   0.046785521167590   0.556707997619659
0.901860368601558   0.106868798676502   0.431974390760124
0.958422904224398   0.337949930713867   0.430976590088083
0.586160223236996   0.534366383872735   0.447550919715671
0.298405151872817   0.169170939068539   0.366741855322055
0.053108747071124   0.405824209766099   0.515066736817201
0.429843843744383   0.305389390861461   0.807987791355769
0.611672275005104   0.823469411785300   0.888457688081246
0.947767641552713   0.394895905104389   0.136588813376298
0.367994795927531   0.968313753281424   0.816234817649959
0.336049231488739   0.067610762658429   0.029641244331630
0.635754192614119   0.409000742764781   0.933203201000466
0.342952406344619   0.521671070755080   0.871269514788901
0.829969066068107   0.044380677864357   0.750509841411457
0.719719781808373   0.761730272033372   0.139428886961804
0.673567560500285   0.423583900856610   0.798445332675758
0.719491702758457   0.364200305942809   0.011998385884510
0.471904018040168   0.251139594054012   0.524093534008477
0.568982739050221   0.181649345020853   0.586103467393818
0.616839735356334   0.509930367802561   0.719902962752203
0.347362931631935   0.367469264792378   0.378154733762951
0.726648698485199   0.572769560881867   0.483555896439319
0.246673537157689   0.652972369142571   0.976545433671455
0.266054933209650   0.677904334931693   0.819131431468671
0.962965111203854   0.395181359922659   0.990490159746646
0.425598600797100   0.123205135515062   0.393575061079076
0.544768586098066   0.097663527129998   0.684093580812242
0.749408793633009   0.914563195275748   0.084884079757645
0.419605541498020   0.915483516728993   0.666030429035854
0.039084640058103   0.407458320337649   0.028214901456141
0.129394459005806   0.860322853729564   0.768744641492714
0.469303695821606   0.149354781523400   0.673080536910194
0.851248920659765   0.831896889952075   0.625866380038045
0.069569108027012   0.410974117852401   0.165360165978556
0.481342564163167   0.042849656742617   0.690526289800347
0.590306584315804   0.289359679560183   0.752166828070651
0.160685432444913   0.450615859050636   0.887859353292552
0.466420969383166   0.759261706927323   0.220057876737870
0.977981584304376   0.061773788528920   0.056011836974309
0.762367653435127   0.726662295662663   0.122910777297957
0.330501842162780   0.315764973822063   0.790018176696103
0.800772423025336   0.779349928033004   0.671638303600199
0.677970394163834   0.834393242157297   0.213065822427564
0.000460748652204   0.828860057926896   0.080584536143835
0.850440595147048   0.734790993783393   0.657063423158475
0.871715530351225   0.845619140759173   0.231292285595100
0.751090869069597   0.811663170013748   0.726436174141883
0.379612998992668   0.095670733235156   0.389885605221708
0.230151355419411   0.091657394083012   0.968455742632349
0.289029627091497   0.734435124931412   0.008515611963703
0.937023261754737   0.922335481133380   0.759043525006013
0.173417467076383   0.660978899755395   0.015688975518827
0.982283957499923   0.755182875296622   0.451191127806441
0.117723739006162   0.043998215672415   0.543222183127180
0.320564227084163   0.281817981222527   0.146896445808466
0.682664645673641   0.799781005312368   0.998778208181592
0.673023835918387   0.707634351039998   0.701783918193831
0.961416689904135   0.026676806597856   0.246486412808752
0.508752695873824   0.281508537552399   0.778454757781807
0.313123567161420   0.828320262336356   0.007199582449485
0.589927566666636   0.717853613863334   0.754898415558912
0.467040470334577   0.983198456249284   0.874958115826328
0.290668913864117   0.449492276382133   0.247617111484425
0.932185008483896   0.998940231514515   0.282788055829590
0.702975177587850   0.450136011207384   0.868925997120846
0.703868851525242   0.449800595268971   0.083297706524958
0.045506444448705   0.315024231069321   0.963452808702437
0.339435563368667   0.848301681873087   0.634323134446151
0.763974123023436   0.080628784355121   0.849548489411005
0.541892546094465   0.284684403827261   0.780248266789017
0.955997177369076   0.038522223768497   0.478996604842132
0.750827777152797   0.912838454996573   0.998910972547605
0.059791605300884   0.384353718790923   0.539375610903931
0.637202495359552   0.804659901106344   0.935374812304802
0.474283752341733   0.089498582596747   0.618671266130998
0.605873582028804   0.267673219946836   0.670741436195848
0.782704626100572   0.086515657070770   0.775569042341312
0.462643275912071   0.965570615718093   0.611526966776423
0.007424651637754   0.037047384546078   0.342855398227642
0.793962349096980   0.887490588125790   0.923275080281483
0.265543348555202   0.510414331087974   0.264538090182704
0.609310368051076   0.292565702619901   0.578209069301709
0.646868118225954   0.604161579656095   0.728790710001192
0.282794421928273   0.931967740995706   0.907129430181516
0.032214615720706   0.973324536728524   0.642463815149092
0.479759518855143   0.468522464945600   0.903487588486062
0.557041158315994   0.228445667144097   0.549662044031984
0.901165410236735   0.286878853526340   0.420519494808623
0.875887767226837   0.037078194461374   0.407829243493209
0.594716919605293   0.165864841102350   0.028687162054507
0.287773808751892   0.191363926956371   0.993672642864594
0.147404287519122   0.520182049509517   0.936389905223888
0.503652826704648   0.428688731477430   0.508376641775425
0.766132090732830   0.706952378140086   0.317805252398504
0.355388483462239   0.262244101940878   0.014124998130803
0.750178270277746   0.703638533685083   0.289329720950702
0.393517299700747   0.904476076225249   0.847582315992205
0.072589787294335   0.477029666155150   0.217211069890068
0.406532314203088   0.992260638970348   0.064171168419811
0.170077680429412   0.990581075716838   0.037858523583120
0.138544710104779   0.572888776979825   0.955348270063071
0.889881778774132   0.653905157627919   0.948518221873033
0.752792647051830   0.961742703809533   0.623667743981467
0.097960517322807   0.569836748564410   0.153177432321474
0.711271230528922   0.653790843296522   0.607310568572022
0.693700889479910   0.377767958729170   0.536494634990707
0.903962741448165   0.788995727873646   0.775380062619752
0.470247936447252   0.610909948634940   0.003586688989385
0.525872770247544   0.577972348831564   0.060260699442855
0.233001336396288   0.813732226139129   0.167048513469901
0.822313625568065   0.861137733532580   0.730872659679749
0.787632462442434   0.051955857508748   0.100998420406821
0.448679483514944   0.725443787005355   0.514176516732333
0.237589767144983   0.336034406675010   0.964508080462822
0.249718647038069   0.513159380663517   0.371858574772024
0.217074885506211   0.895296701827464   0.001548628890929
0.304355243820745   0.602941446885980   0.013904731354274
0.456348322550893   0.330132166489794   0.561839905676225
0.575488660023869   0.028929515727672   0.993247640675584
0.850943313311290   0.417419405214171   0.075822749914460
0.902111683017135   0.389659218561634   0.489398341890082
0.105069347259899   0.509873802597932   0.004121479067333
0.350526933430851   0.546580900623766   0.351042884354494
0.173011952555134   0.011182533186887   0.452470085899609
0.966991761228328   0.403729237293700   0.387579114390428
0.838466136212469   0.389041963805383   0.028835328847308
0.565044784158753   0.046638857509356   0.664140995867560
0.745280992245577   0.195889502431636   0.403797990993168
0.654617479192333   0.989792734862499   0.468487973827878
0.737312249145145   0.567381193728607   0.754840273978378
0.088781816294509   0.083450020591742   0.300286351344872
0.254903733584568   0.242970301822608   0.192901157577286
0.826675810524158   0.023886939653856   0.461315258046548
0.162066405385458   0.659372365479105   0.982458677106884
0.871761890065589   0.001092009940225   0.486000946440251
0.860219915137000   0.314257229432006   0.089873873423081
0.900003099712289   0.719698045824819   0.155350016415510
0.121562481868583   0.900421127273001   0.673935031973021
0.566500599104857   0.992771870405305   0.642826611330680
0.966075172769344   0.929193044021242   0.703949317652993
0.197743701415445   0.200712126922792   0.404258980871262
0.334813268326636   0.081317907655078   0.062036788556053
0.054292756991660   0.640733771131815   0.015198616953781
0.468114200857624   0.182670307072822   0.831402560650299
0.976590203729649   0.042074594461229   0.592202211364527
0.779624283663000   0.863992714244640   0.656563699107822
0.498393577713957   0.838575713841350   0.611349256392677
0.869817490265665   0.340468683324191   0.950637391932503
0.108360082520772   0.930676650507620   0.476390371744336
0.350457323306204   0.459625367645171   0.803836776508378
0.653907426886134   0.040670271301531   0.090627371164325
0.417203028719062   0.961111077732287   0.579892274279239
0.367630664154225   0.937012775494613   0.662883723934176
0.277247664225342   0.776514517016182   0.708168533767872
0.153930511885180   0.814877384976112   0.904396964832346
0.821568733087267   0.030505053857649   0.139071973139537
0.765803518650958   0.029457378912086   0.110490465447216
0.945422993611638   0.420183743814788   0.407118060951886
0.893705428462279   0.760014559899402   0.855569880241440
0.374977620420261   0.250769481280150   0.893520546962673
0.728983314309056   0.546043303266575   0.732080946513578
0.207073716841505   0.140638888193083   0.711439102509336
0.584626702215559   0.862777009323234   0.146996991066242
0.494198238296404   0.534121885924249   0.469484981890594
0.739764986802120   0.031854741633701   0.091861466878476
0.380444147394842   0.462344856354158   0.877771222262013
0.684386336383059   0.534939284598885   0.499174935982203
0.462935097022738   0.097577757682008   0.426513923097430
0.192892021221005   0.141074999793267   0.352686585591109
0.400204298654680   0.965185211717318   0.768772401251859
0.019371891324746   0.469883580091473   0.202896400555192
0.396163191696888   0.933959917488726   0.678148916407733
0.406508829180769   0.016006663783905   0.042741789172835
0.201022561456217   0.206206764884286   0.219277449633994
0.473397202579154   0.789229005356913   0.591078289037762
0.887860904251038   0.714208100223253   0.498752267843327
0.909639745659962   0.821466526694702   0.266440474679530
0.906869002058719   0.416823873027426   0.092531006094525
0.695307239240067   0.426802590083389   0.648733050768040
0.386150125778794   0.089835446295513   0.357783697176675
0.759111385033883   0.001585852557077   0.740195726863552
0.581182193449136   0.881972590370798   0.544504678009050
0.247073220456381   0.832997496844695   0.113599149494317
0.390488806272262   0.470400043776688   0.163974483270204
0.027548125164338   0.440793783401515   0.188932228593607
0.549849021859003   0.132390713223472   0.523720565239187
0.503472548268613   0.710686067599311   0.535399527699456
0.555676065570468   0.810827877171409   0.700640542377154
0.312238517812945   0.305425188395593   0.331795074257726
0.430450563985986   0.802895704172358   0.220698673036637
0.327565239148918   0.757610671776580   0.718891560996311
0.252493176257062   0.709159087977291   0.241727015006198
0.292030317758808   0.591927632792719   0.867857322428941
0.946105153712190   0.405875605988862   0.052568746214441
0.721908190031985   0.031236210495319   0.640944072020235
0.077017387567079   0.897469932860653   0.514955591792163
0.629059893920962   0.148455116450074   0.551077413876517
0.354357886841392   0.107329169368212   0.650426866111678
0.508235290525096   0.459113132633559   0.916276796154047
0.381746996955824   0.287676091408690   0.205561447108172
0.330592745373199   0.321573741703503   0.107863609530342
0.511415429524111   0.142225382258587   0.150414073641409
0.022004678652118   0.059211419892646   0.097057062707163
0.219035890853919   0.763745299325663   0.997614763681137
0.166824021470165   0.531709719262352   0.293238418537982
0.195132703862914   0.022843010431736   0.472670158497788
0.084684889872354   0.979461214998611   0.671762715615042
0.714972708344889   0.982684395444542   0.580188265476044
0.069589087978504   0.487972825268296   0.493641845490117
0.003001936023661   0.881368983906245   0.827361020357713
0.437414725810748   0.119667693893984   0.994632840675642
0.813561607905610   0.054951872731963   0.118528705542291
0.327444427168096   0.867161904625334   0.763925217358381
0.324079833361300   0.732927248808155   0.283572195294350
0.276428523018214   0.830382228926792   0.243909681367338
0.531871590902548   0.891949294941715   0.668902326807392
0.551104317827333   0.174348186521594   0.781446429421179
0.650161134996549   0.919720279281127   0.848431016251392
0.003504493572259   0.971582552186541   0.184157842871293
0.375902160518235   0.030111314437320   0.589383118885162
0.900764442724449   0.643859258197048   0.977895390205717
0.669318155493548   0.877221984122937   0.620756510668085
0.528481170367308   0.982529228516421   0.969362480787711
0.540553970606462   0.319015444487850   0.495502373763119
0.487841555957136   0.175519972031000   0.681961371868559
0.497051455852286   0.264776537245571   0.753015945371373
0.081470915186514   0.505776337771500   0.353611016906372
0.483093972729109   0.126088749724870   0.382511280963849
0.850412894108873   0.715939201763537   0.572883038779359
0.236335639600686   0.314598527653461   0.859865343530094
0.995649509520137   0.615699468926876   0.185968099897865
0.989008432728523   0.859166643020897   0.079248043138840
0.277724117734592   0.259796400018172   0.944222097308576
0.807079294521417   0.498576463963942   0.263547349263486
0.427290123584369   0.377150365060465   0.103850472761568
0.778656533361412   0.892024865669154   0.131186362642498
0.728634759506149   0.202199655443015   0.343690310771131
0.220031503688912   0.606063478252118   0.989273128865178
0.466153303016737   0.125902782521405   0.120643779608747
0.427528344929912   0.051695256360124   0.364423413140287
0.761924194117640   0.993692405896414   0.025675779788012
0.746049108006704   0.565180184982502   0.506217120067391
0.054503926553377   0.127566604367414   0.649079718271505
0.226801700861956   0.054612668774532   0.666721135068252
0.894109177517751   0.959333651317677   0.287391330332016
0.055414840646593   0.768560816646796   0.764226374340380
0.865172998675515   0.715359599496450   0.548812055782643
0.470351786682005   0.119379612667196   0.685794248539985
0.712236543975044   0.792655269154910   0.603503232814451
0.267925057139198   0.185902531509111   0.839736462917147
0.542206979813814   0.155929024858045   0.669832810985145
0.058459526873460   0.244168441554399   0.640594969086373
0.490462274850225   0.215986825887829   0.104998034200628
0.310514355789228   0.944509767662315   0.629435209511736
0.448403459040463   0.914595075375315   0.596331141443374
0.931886974377638   0.018769486547572   0.398525597541962
0.259284176291756   0.345358571155752   0.014658771042144
0.445250800421973   0.961805239976846   0.995466649556728
0.162797130798885   0.524096335948360   0.122017270649306
0.799547151403156   0.314780969623056   0.031751563663775
0.448179234350290   0.507086372552310   0.484800813805261
0.867948899106030   0.745847952008330   0.805695943060127
0.766318553601528   0.888580539332197   0.670872537003917
0.168160509817939   0.328831651184146   0.794671249644281
0.247275694550504   0.145786118417558   0.373542793552179
0.802746078829899   0.511323407752399   0.064034942148244
0.107352534189878   0.863311506181533   0.792228826313786
0.755578470336353   0.621997632167693   0.702306846804109
0.701505360889175   0.969565260494499   0.148598170655855
0.836654897833565   0.868063515178272   0.581870968160456
0.100255112239496   0.060010074524220   0.714903143961266
0.800358583418305   0.113429586681999   0.081843337536724
0.775018732409686   0.496329311371080   0.917805034488081
0.990561592434214   0.800288952211161   0.542424428753987
0.211090050778346   0.311449658174923   0.840330143430154
0.032124945329631   0.676877867485793   0.304831749237905
0.525422178829473   0.700190746123431   0.304815721940045
0.359630694376115   0.508743731916836   0.846821450209975
0.413450731407686   0.292699979699750   0.742342582951067
0.594087756633345   0.246801921794759   0.647994822737603
0.421110048879682   0.832608194544004   0.206165592598774
0.478653456666570   0.062682168784983   0.028879971645892
0.707387954259347   0.446449199321560   0.673192011421085
0.611689178932282   0.691769948608441   0.759176450658807
0.332233471310233   0.826660178786801   0.258402095877822
0.007480500203189   0.530865158345536   0.229668894281205
0.072752339044773   0.076860737602096   0.654556809993150
0.625796317546922   0.931378040866960   0.868113955042933
0.406618854115417   0.146164121218379   0.377587149451146
0.059171722566141   0.405569768242632   0.966380115395616
0.755990017869123   0.120930324385672   0.491696471153804
0.238878548275205   0.908186361440214   0.752187954334894
0.371694262346310   0.414209856537402   0.398109106686808
0.578981530880245   0.836480464672319   0.780020684228419
0.479942222261038   0.243573634801491   0.179546722919008
0.533558398069744   0.545141083854986   0.431617267265041
0.570089555372653   0.572655228956502   0.781467979639247
0.488452830923485   0.662514869288081   0.331501124490752
0.421464746227447   0.177426960205274   0.592261776876930
0.468959005955409   0.333983016611227   0.531426078077709
0.377787776171974   0.347463350796210   0.675819416865063
0.489827238257110   0.732847327237465   0.173210930005692
0.910239362679561   0.122767827413712   0.372417887376049
0.269483765522336   0.792734798860437   0.993483368218634
0.891057656051300   0.274949850036612   0.450404817882424
0.443852933346308   0.792016037893281   0.902839697181789
0.161168062400764   0.406798501441056   0.621063271213682
0.834278598616121   0.556639663096397   0.935990865598462
0.582852485659600   0.152130280994891   0.578580277740986
0.274400482806007   0.765487999961206   0.903992213350768
0.085207990576281   0.822577966079721   0.147602345516474
0.798293548991821   0.347633608386788   0.031990758411801
0.640198712799812   0.874171565670255   0.145886311997083
0.890058864395112   0.945809415583480   0.741891449999402
0.683813638304603   0.413794137152739   0.713485790289324
0.481435412818961   0.148767956606911   0.360617199477894
0.570131532915175   0.818781372929299   0.727751467842764
0.244716903226989   0.109298064639355   0.899849389567767
0.208002975004527   0.128596473586113   0.251442916882543
0.433834636651239   0.218896443436360   0.545343618113877
0.661396895325938   0.523645557628161   0.552639345019149
0.221934863377671   0.401695590176594   0.905571782354974
0.341003884866824   0.116929632906509   0.929950542004009
0.511617636530272   0.952571048894012   0.805699818551071
0.008331883383754   0.982977903565816   0.212948313947778
0.954695862068528   0.289677678321683   0.356003883721288
0.205226529440804   0.017786700281927   0.995645297707902
0.975988739769460   0.342641878745569   0.459618076417376
0.209256824061556   0.550391191711988   0.056193786435485
0.601287196051388   0.317057071477975   0.519036119707965
0.646346659906517   0.877031644460798   0.643994991206641
0.310418595205314   0.451132031931124   0.302011078452180
0.455349617252397   0.170821498334085   0.019150599120620
0.321279490903086   0.710841243982699   0.950790252631456
0.865183559756705   0.603804639117505   0.940527019454833
0.963049356966162   0.281113593071001   0.503899615653050
0.470460599286346   0.217515808339922   0.130383720358195
0.846187455458376   0.955030753521890   0.242216607942893
0.605944917545025   0.425233659925776   0.651024915192359
0.862086157307725   0.259848782388740   0.451470757611339
0.572934353100070   0.129065212912948   0.629724795319230
0.151928007928618   0.874997623529432   0.718588148303473
0.246573899728526   0.082123463360836   0.919559491357363
0.643381550125742   0.328674480598442   0.622439932230722
0.035156615257195   0.281149593468936   0.866891666212397
0.399906517042983   0.493004118088032   0.416153869466039
0.341638027971777   0.160708584714200   0.009559985530199
0.316389168536969   0.522852820008761   0.811581567286321
0.236536851662148   0.275922162966770   0.812216887438047
0.627135995436271   0.310774378522809   0.716271685340919
0.026040632275421   0.456237292689711   0.412683164565948
0.517895977307482   0.090252482230544   0.411424348887658
0.888269553103628   0.469498167717639   0.503920824864781
0.260196414754979   0.121533866658222   0.391194958960846
0.933736911885853   0.679388289270190   0.048253579441363
0.498654413356549   0.717268795146482   0.291309389464897
0.279693080371095   0.425527074058497   0.949197935059242
0.614238422830541   0.823962814690168   0.595778748042264
0.297572671163949   0.061595314149536   0.459502090484804
0.190175335835610   0.241740027618480   0.757431882973311
0.720709326577081   0.358926105538926   0.817372548429293
0.285085736665968   0.829686409775924   0.695894294055463
0.915181284539567   0.737348936862020   0.948051888794287
0.222575137890068   0.936193605793479   0.185677399368303
0.945398564336526   0.066928947813248   0.282205849719018
0.774712970893625   0.098685610318561   0.069577820904673
0.261115492421315   0.871694219101658   0.671502414878825
0.732975117413766   0.817580640687240   0.605553733874765
0.066621386982813   0.223037898234176   0.664576878002012
0.244117012175076   0.603468355571936   0.125191981357266
0.326485418381081   0.276495684753086   0.916738431179266
0.922053402925415   0.575915095151887   0.104380698216239
0.708330131485393   0.960349522786004   0.755312164538786
0.194181621070961   0.588880987156254   0.926992362716806
0.366913280484964   0.869417571915010   0.251089834773378
0.334100672835312   0.238230769735593   0.099313908315134
0.648531208201506   0.182895019849519   0.620405599018176
0.949742336643322   0.881425280494759   0.830831398076048
0.179889464434445   0.146904714485337   0.296382867928820
0.596529080409144   0.669456961651231   0.777381523282187
0.059823341374765   0.209092326264590   0.730579184556731
0.471687689904424   0.218902084955050   0.229421161702210
0.279708440188809   0.271816686185441   0.289479088638794
0.739931573686323   0.481685811967840   0.529528951529950
0.933214267815507   0.037819492289291   0.165087243860479
0.774455877504200   0.536240590354454   0.841425868219367
0.319382754690761   0.333605413748107   0.814658555024767
0.288021386033086   0.617751278888737   0.194413793488924
0.968081562038517   0.373097728774186   0.377603787334678
0.469282924333455   0.710294009476581   0.302998121295914
0.305007849362554   0.664986466047304   0.040976742213498
0.175091743117418   0.108423613245966   0.897418426815126
0.753708525929920   0.763511941074445   0.695910952675866
0.375614165443377   0.154691357456952   0.164834602403092
0.123455497999445   0.353982347709385   0.630710727588270
0.374123676660646   0.367893824182186   0.479400079854042
0.333701978902569   0.417072523956180   0.355140683780468
0.754697030350104   0.517388349393304   0.823153071276551
0.443140029454215   0.234431850317744   0.126743194993285
0.534713375696858   0.809645383115332   0.777702129145904
0.679078307506783   0.945269757913083   0.802849570073766
0.114476533882547   0.020631965324754   0.056818159592549
0.159362769702922   0.678858002032146   0.038936042781288
0.248568224571360   0.227066076047666   0.031160630786291
0.053916767011928   0.467362480957093   0.933046699828451
0.360410197946226   0.158247625070239   0.770584255478385
0.156382728698277   0.951990494741198   0.722204594243174
0.397761636962460   0.925404794665764   0.021516360862476
0.783952438527731   0.527503288375678   0.871610134038070
0.215147068798266   0.208093631078404   0.167607013188549
0.236077623467742   0.369936145708302   0.867114626754664
0.419394652267554   0.133020776912199   0.652426377508157
0.068265047616851   0.049587860559300   0.184829356467954
0.448495356174428   0.053311695030343   0.023603427133757
0.304307846789332   0.288512483630619   0.006432497840668
0.426244705885019   0.967519172226651   0.817694866236988
0.121768294820728   0.062781709306479   0.207551085910363
0.898620655297396   0.479833624393454   0.316215538455758
0.299528710118427   0.067686166237795   0.351492519643190
0.607256248197830   0.894343107981060   0.104819362086847
0.286073268234496   0.440147261369855   0.070853965695557
0.391225351366615   0.244994988059027   0.441911080415384
0.296436111726371   0.716418864342887   0.276807606496520
0.300568821872842   0.780118874373295   0.261868204104649
0.278536239870279   0.317536994043182   0.722773300650157
0.025659160062842   0.658894071230540   0.251373176478342
0.937353793763771   0.339991832869633   0.343283342748360
0.734707678246297   0.850755989459938   0.772814522176858
0.808571996893310   0.719114514471219   0.611408328828349
0.382103499003187   0.552214758045595   0.355855545964499
0.894600114645804   0.684852872072566   0.938788820293099
0.260070089420950   0.729922185332609   0.942366601183148
0.521535182008685   0.821574135966706   0.628792403349265
0.990382198047730   0.829760762652892   0.497442619179789
0.676728083327943   0.398781140201302   0.868168016067903
0.096639772485075   0.475111072773772   0.543504764480175
0.912949480631484   0.431655776395345   0.453816153118347
0.684820142322501   0.687216036651499   0.357597007727408
0.729389015574107   0.975856948174778   0.546940695950234
0.391022410257072   0.490530901638767   0.954978835778387
0.199037140610900   0.813965519905441   0.950985308256474
0.179179023882406   0.125024580848242   0.874652852943700
0.976879275434800   0.056712371711941   0.538725793374670
0.436270172256297   0.490238565690046   0.458744051829440
0.890284447195309   0.352463091214090   0.526728460024654
0.741442318273193   0.795914771601744   0.256657422203871
0.173471259043628   0.437093503662530   0.792057184921208
0.116258137172741   0.043100775885513   0.003806138064975
0.654628489507558   0.594664030571624   0.584446853998317
0.864358050044856   0.749620814344881   0.773505583040174
0.068939587375719   0.917693701559390   0.747193921131209
0.459601084266032   0.161307012416780   0.165232575231665
0.072268850213546   0.418740969562351   0.133462832704369
0.967641733883398   0.720642802654523   0.084078202521330
0.598995532955040   0.647638739982532   0.347909575272045
0.043668109934716   0.928905878355797   0.728777353151610
0.248962439830058   0.260102950091947   0.245787294518665
0.152176681263603   0.836054962451550   0.929069508353379
0.233335097442744   0.379902192285986   0.318235480279225
0.682506167423639   0.639851172050570   0.600874981766920
0.136112372359020   0.120952586715717   0.089126303662275
0.998935382450759   0.003470575407629   0.346137713254973
0.073636696918576   0.342478505612646   0.587514897232696
0.622241391924353   0.066153590020946   0.449736627484686
0.036165344262911   0.272531238707251   0.412740760075523
0.755408454854513   0.193753208641988   0.316730584750628
0.497802442620427   0.128457028941996   0.731984923276328
0.589459788861370   0.837352622178415   0.836166032096128
0.868543820023058   0.299579664450216   0.520193092000299
0.310130167276156   0.769915066524451   0.028239852982016
0.019680464986003   0.036634902126867   0.658897769978690
0.577836521035520   0.897428397040191   0.090390891333646
0.556589614333154   0.705931210378504   0.300145716183935
0.124263594189287   0.629400095362923   0.950854762735752
0.394520639802542   0.167557528975333   0.401497066859937
0.534932211616082   0.991113895847434   0.651895896068324
0.488763646767966   0.341197732569362   0.179605449970559
0.876212668315181   0.120866550725409   0.369546556412342
0.853096815706446   0.860583254094303   0.718450455474245
0.827192639706418   0.245563920409282   0.340398758619430
0.201336343288311   0.032605754917223   0.540939067358693
0.788796858881399   0.769547759387119   0.598889601396573
0.680366947981080   0.661839815866224   0.377273243901141
0.352294155853951   0.705990628116369   0.959560193711342
0.820637825768442   0.052105614553435   0.253602959316471
0.532278052962776   0.627261435214420   0.692018174093893
0.923897897273034   0.799982189643227   0.928524801419442
0.401415875967517   0.379226109196329   0.848147153820535
0.405604658959276   0.073228881143181   0.546925977379399
0.576678598820096   0.178789756569795   0.762000577589843
0.143718115637901   0.603716846595111   0.944365626415187
0.036993937728321   0.899442128634821   0.473738577434940
0.817849646992637   0.778547276063249   0.700345357614254
0.620404126574498   0.121618579585062   0.395649789718028
0.015594375698163   0.676832826547203   0.276522356999345
0.228971686739339   0.056472831698812   0.904138267747553
0.409933435216078   0.483347909876554   0.141235881387201
0.298355143903684   0.058461732217116   0.606128440150010
0.403971677978586   0.191540847213467   0.285205640995776
0.743325864120280   0.813813620317582   0.322438570020079
0.770479708824600   0.793558223383955   0.143199302792695
0.328259587593507   0.126019277242576   0.696912057422826
0.360775924844825   0.866974125996650   0.770469419290153
0.524467535032768   0.225485973194259   0.625889960165460
0.357760907925738   0.684197774029524   0.984493692332105
0.226283626811603   0.905464318409284   0.058053658501697
0.266292230772736   0.213995981482103   0.145963489795586
0.713866340701098   0.676858741002790   0.630276469842115
0.443098725037200   0.928632940949006   0.874553064812156
0.346028129233512   0.885111277916712   0.582841711822899
0.449341343336330   0.687370398629023   0.927948281819958
0.952953922375253   0.295740600629368   0.275739652986937
0.395091024252428   0.974702974364047   0.865375365404271
0.563303245945692   0.828092874584872   0.188034833320662
0.409325830525062   0.384328097540673   0.879968747743898
0.098016492676429   0.930540889997693   0.741839792147473
0.978455515437581   0.803660874751964   0.512405150096088
0.414891009673228   0.290612001721786   0.895877271714013
0.116858304620458   0.466167412584828   0.919344314054338
0.807931575262202   0.595925283379704   0.130797679010884
0.091417841230582   0.039388397201057   0.942175149165641
0.969500813670273   0.758645678841226   0.044668084665387
0.512763103524843   0.291155954661093   0.163791863777656
0.741386969116606   0.490966535151541   0.836373838593251
0.442448055202504   0.338401134981863   0.880478973868106
0.774485084748156   0.273523770067583   0.000955170649539
0.895311567698062   0.613278300348599   0.988505968290287
0.349914031966716   0.718559696084124   0.297942859021883
0.221386981145401   0.175900334498315   0.280906251526047
0.070390438729114   0.645010206994386   0.281503120909129
0.709115384804119   0.463572448813474   0.727974833906081
0.388173019309530   0.531485157286680   0.900191287590702
0.175266887668178   0.173334040954288   0.006409259479942
0.378965605617331   0.981288236352925   0.078840059009347
0.298438488170423   0.215242701113288   0.321616899121327
0.640529038271244   0.344500971278460   0.794414340538664
0.619868803426297   0.919871680507213   0.709542653366059
0.192335869435629   0.988581339918924   0.701963036380768
0.353032061521885   0.804332482258976   0.971822154891507
0.153059990284467   0.066692249419812   0.107476432778085
0.712267857073127   0.091221833199443   0.535527665438945
0.878217847870766   0.867309505573481   0.918410919802233
0.302556368659195   0.574059309645245   0.339360021058217
0.888734554284768   0.195759039468465   0.261394071657982
0.570458152486460   0.937942106719488   0.998626126267382
0.686510204660988   0.914626994349616   0.052077698470978
0.314008493700780   0.925244888186897   0.900641639453526
0.767291311850905   0.741528511503783   0.645439196823560
0.941692255485407   0.091644129648042   0.468460161074504
0.738603552644140   0.611767704252918   0.581699220779422
0.279775406508491   0.721982606146752   0.111754605432563
0.229030701989752   0.994618953591770   0.899443665757307
0.861988023622698   0.792328023330195   0.665842142847454
0.317717017699757   0.772195401521416   0.120106729188724
0.330144278695682   0.238193123952422   0.565577295964973
0.152177493932206   0.041379864793176   0.503625879727957
0.682652343911048   0.943926245236893   0.769180210269990
0.239573597816090   0.886317470084502   0.201048317170229
0.446017593176010   0.266612272946030   0.079017634833835
0.123399337829171   0.317476482855672   0.879329349340705
0.648641672192629   0.478800098345340   0.020147246108315
0.336861624829403   0.462481650341663   0.179770320774471
0.576785511944781   0.413717484216938   0.543783357441480
0.227787752275291   0.971199743817174   0.264843611124183
0.369170887951055   0.829300357361741   0.075728251758932
0.252778768939434   0.191065921128139   0.893331822995866
0.935458175554537   0.030914294708999   0.453741753830265
0.999388158311523   0.744132991479448   0.344845455914644
0.891627296669586   0.794375828337638   0.219841971801053
0.434537932327019   0.186069721966713   0.647696015934417
0.210894592988246   0.085509814495243   0.401312358933983
0.774558984033524   0.852127434356449   0.625033190959018
0.236627874420094   0.350132261787219   0.934983198783603
0.256427567187108   0.076472711335424   0.424349922225071
0.220339483464170   0.497756183541270   0.860526061741668
0.328246958616171   0.352758242565910   0.356152532531154
0.765244818339239   0.523652311261791   0.547500803467681
0.407156679567455   0.418699533532736   0.150167836190875
0.418042419801424   0.313790432480797   0.505044869308680
0.804241311093840   0.546533391364240   0.889021664177345
0.373338731290897   0.446724886800893   0.398608070385492
0.254250856220720   0.316549051226317   0.745298073357216
0.437379931412523   0.891116575144985   0.044926126004209
0.400077939505350   0.822151300118513   0.079731160411269
0.570672768141700   0.806914166879925   0.669746529469481
0.920102466848664   0.696298575700720   0.987288524975477
0.082489821793091   0.455496556538254   0.196782556455205
0.055072773612067   0.058985112871085   0.153649223805716
0.410482968276486   0.288088086682972   0.829883752984773
0.326396564267515   0.092084085336262   0.642428260630220
0.657577205236691   0.814069153243234   0.260855624955253
0.169265532826211   0.588369682669420   0.014148965830353
0.121848480116383   0.427812130467620   0.583125899131416
0.022724947619482   0.824240701299035   0.784047192592995
0.094417327474171   0.530016126866469   0.272770420947027
0.876154497101034   0.127148940284151   0.312737365977696
0.420132350618425   0.961524617885601   0.848961301842991
0.206215337241351   0.930986504451546   0.056133455962920
0.950219212819469   0.053898356745417   0.104615854804082
0.232646379805194   0.172199170243338   0.128249970204113
0.032291827185570   0.864226550059088   0.515532392491467
0.319957680380637   0.669723202261174   0.300848014127709
0.568070403375990   0.483376252038314   0.937956446864365
0.235592941239648   0.056645290798740   0.438920111525559
0.215869120327180   0.300096376222286   0.227884753962298
0.233392408553237   0.749480136291549   0.683236076598897
0.967805424815050   0.028192203057186   0.677526446204277
0.104905187214391   0.486440311669516   0.941591397006067
0.223577866754545   0.963328568867949   0.166859388359828
0.253242479594001   0.180893286413894   0.329007612420256
0.595767479430876   0.939739544197276   0.821024733215617
0.421019564426902   0.960237114028528   0.071476609397507
0.895633682538009   0.875088102806012   0.273879857416741
0.865021949017177   0.948075749233230   0.755592554695653
0.220567410883193   0.498949690024429   0.805007649417158
0.679146669950605   0.796048122566641   0.610034704610990
0.643557350881796   0.858674688473393   0.174501061586244
0.183821828627973   0.279526834552579   0.801069572290630
0.150191987623718   0.350554724084910   0.843230220306469
0.669836354312029   0.445988895178209   0.823742662017605
0.541703784667460   0.480734127582037   0.955904195644690
0.340304363118895   0.515243330161011   0.300142243909945
0.591825552269354   0.620826017192125   0.365332953077449
0.110773117406654   0.281623254028979   0.920530433172137
0.552509058305056   0.035234771146327   0.720321672452648
0.162962810575471   0.129789358140730   0.353819224316351
0.055490902148916   0.782367894308929   0.522452659898727
0.347990063491553   0.442045884840564   0.049557731681806
0.676249226933620   0.986778763225915   0.097333047430806
0.233946700160386   0.907690580657135   0.175929606717526
0.966442839946073   0.746527681501103   0.498844685168969
0.736196264233779   0.079795302992450   0.452190626597879
0.106789046320222   0.645327940319231   0.320159516374382
0.168812299324006   0.037067680821057   0.533046471070340
0.820255966873966   0.480219583870884   0.184472125141137
0.601338347104658   0.173664730174500   0.193269417924613
0.165143185350825   0.466155234057528   0.803439266803277
0.093532738899439   0.088272552541496   0.062376021660543
0.831926132473466   0.704686159142897   0.770042578431838
0.139999316289744   0.877570568043595   0.913310287556643
0.585130355511613   0.514376178006802   0.763918058529392
0.525624215043291   0.156376517750021   0.772582273820089
0.991900870105558   0.776993781397479   0.061075480861541
0.280349892561518   0.893680435067694   0.692651948196616
0.472055698057674   0.935692454582479   0.602504091158028
0.091766839419008   0.892585599641102   0.793966970177195
0.252174886357648   0.576979703026559   0.314047738127653
0.543730718936424   0.655019902256859   0.334969299492475
0.189522185316376   0.328917057748165   0.769914074340946
0.042169322443337   0.285527543514891   0.592351558315747
0.847998958284873   0.243421118018819   0.050546697524792
0.162140439119794   0.842815305825322   0.201018730492672
0.989024689331345   0.329739562172281   0.326598098505421
0.063934026141408   0.293759981178359   0.615356380390247
0.739625403491790   0.536294982674388   0.525438313237063
0.529668448783363   0.333138127519653   0.864181276415383
0.036002131122322   0.033356759942889   0.023210767552577
0.908313060328923   0.050150597505831   0.450902857638262
0.312102238385414   0.206766084834511   0.013663961410419
0.971394812734460   0.468186795710509   0.345866442713535
0.185874882552584   0.558117525291949   0.926212193210961
0.390342928794204   0.492710846213047   0.012384404067736
0.455994476344623   0.742437004575090   0.618585079083305
0.657976087089664   0.930331347455767   0.949063901135851
0.959533235938671   0.217901761610436   0.490022989465084
0.132214916508202   0.055392200814469   0.978656822795778
0.407843379180723   0.779381916109721   0.610278874364988
0.578554760256049   0.966140938324156   0.627176397357083
0.587697674850124   0.278624171236447   0.556991390014753
0.522020881879660   0.310812139780454   0.840840111495512
0.777346397223809   0.094148237624668   0.607462523760903
0.317368850566860   0.195494982842832   0.359298546403770
0.309554881520803   0.504422562463569   0.921336546808791
0.504349808136746   0.901875021114334   0.682819968223823
0.833515477683578   0.664545266601023   0.846003087994335
0.762319759891642   0.070954984703758   0.435109252803867
0.744993392220846   0.526773941388994   0.793065229607954
0.550097782128614   0.726732243048933   0.645624939289012
0.448896435023001   0.781727686078504   0.203855679953225
0.912227847128022   0.848766637382299   0.284034450121628
0.043389566507073   0.192864012101245   0.376849292380306
0.858140239777823   0.644363421800451   0.902521694947540
0.080422001311095   0.125092139119291   0.018124387505574
0.739723985824570   0.950514406270237   0.534374395830287
0.196444013512548   0.136813726232462   0.765472466795728
0.221945462684521   0.505426893749551   0.370194198874153
0.962781464842234   0.905140187969704   0.373974954570178
0.441283332616273   0.075343075049452   0.707252908710864
0.480213131137075   0.545586842895392   0.070665268225864
0.391490112201685   0.295893859694051   0.515730793665147
0.790200446526863   0.746591767057564   0.545879122484896
0.217705684692714   0.143044498186474   0.742346525260819
0.487653274439413   0.646840447225548   0.362458025418521
0.803685082770386   0.311262881022339   0.956014564189082
0.273676513837275   0.639591726081049   0.863024654345773
0.776208853355434   0.606325776897870   0.793301530871125
0.900827477598751   0.851526440637033   0.936683179890478
0.192475136418225   0.657123610107103   0.962838955821293
0.991916224259319   0.449259767961898   0.361129833383336
0.699347206474908   0.857020859249486   0.166790134120067
0.486059962823827   0.655291080839542   0.659702365215504
0.455824899359974   0.482412869735848   0.898128268372067
0.075630901603982   0.966821293228816   0.704748629595673
0.480992959383533   0.194067224845793   0.519844429148940
0.428292781782621   0.189102266978052   0.561006907837238
0.351820928130914   0.183639300644835   0.289879962325332
0.390514666462458   0.396391894858688   0.418163399075729
0.006644565054873   0.797683648069510   0.566003434073741
0.907870629146772   0.281028748659809   0.479618374600138
0.161543635280962   0.009067901263892   0.947309743799163
0.556196799240141   0.862239630429585   0.130677724501856
0.361475190982991   0.858182905805105   0.063065611588415
0.267997602325326   0.666804255316889   0.277541968252401
0.324911001035705   0.453993579978574   0.823236624741515
0.012039643423498   0.071922207042093   0.235307690516837
0.408898225651630   0.189751846885206   0.861705964406099
0.359082458484470   0.270029062203949   0.915674284037720
0.228372439769607   0.145253084833816   0.110886050540197
0.288306925019991   0.885626230669419   0.724487127075152
0.693909457001799   0.316005890625528   0.996022082061616
0.586213123983520   0.622738497934877   0.144644978193010
0.482270411472293   0.980361350406826   0.632915248308266
0.038300394369474   0.760875605296683   0.534104033103019
0.125320384256839   0.726334698839367   0.888855322207578
0.258189631099828   0.333725870702741   0.562828999166177
0.803537938681745   0.887772543512124   0.858589601956163
0.250549428147298   0.577041945434448   0.181345039885166
0.943899569520937   0.669789655667455   0.078754124490672
0.327570500709343   0.035134124223355   0.552119188237411
0.984856051206630   0.494359336816840   0.303564277067657
0.385323431604353   0.534956362618385   0.186026920265339
0.850993893768969   0.543540249599996   0.064205285182234
0.777102441465039   0.824791860095693   0.150698722230119
0.759409479097290   0.985373840584522   0.767119905277474
0.188776721454543   0.090286333268943   0.708690948564547
0.594766942634398   0.234404857364526   0.590963356077462
0.464507606665426   0.265363267131386   0.650603682505837
0.370333766654027   0.995180774851139   0.588052138892759
0.919839929198616   0.876453006878651   0.843095015901866
0.337191132127240   0.095381807745502   0.422325915974718
0.418249641435615   0.108621898961266   0.091563073660679
0.801516574970812   0.004197577002969   0.143933267091865
0.065159253661379   0.175409928395989   0.360780165945739
0.721771399955781   0.901668911384960   0.096042945803514
0.113986977026907   0.172172428565268   0.334539055483076
0.418113854023197   0.243520147549564   0.860750427783029
0.193621657783387   0.422067706023199   0.250581940395207
0.480006142204089   0.928342641147160   0.727340778703540
0.082684113997587   0.569750985392568   0.182148882834350
0.193249384749527   0.578789716992896   0.249742898910118
0.339848532583830   0.302230091022087   0.380475549164500
0.616377269098770   0.804892482694963   0.914843417488342
0.180916244757797   0.958044603368887   0.699164978001770
0.031359101800614   0.019633110077059   0.249140711671450
0.460072773959599   0.684979449151014   0.385348324661964
0.174946637421424   0.057745430372733   0.750038568349011
0.430313342924886   0.817337745969694   0.887455523449723
0.794267459701034   0.232410691203996   0.464105169138997
0.049365324404923   0.284848558242077   0.441001747846941
0.418387878341171   0.737559947042524   0.436779709213390
0.324487062246018   0.264627518452267   0.028938403081813
0.375909225941850   0.826497596807166   0.546302889677981
0.486230423190637   0.717318941385793   0.877054659654489
0.702816339119844   0.975133021898371   0.117718240849100
0.404135039812587   0.017818599160658   0.959234809150707
0.666845138635689   0.086153380155727   0.030737311970458
0.602857347060174   0.307263318070763   0.776082012644898
0.276899876438534   0.402736743096760   0.225518045559200
0.118970140150877   0.170255128051982   0.005723521771635
0.096931792702646   0.567341499959671   0.094589853284949
0.594887508063673   0.859007134362967   0.656817665881731
0.185585783449292   0.278972896569995   0.015878839529727
0.269206862692810   0.594426607836638   0.892607444891742
0.428460100717580   0.040563694003449   0.044312391553644
0.625180264618018   0.765674704933032   0.635972098240028
0.673702533171353   0.134842283648186   0.542804259123769
0.813946998778447   0.684179924020244   0.752155337539537
0.578412714488355   0.215072335627671   0.799509691794217
0.696178077197641   0.576361419182996   0.692321985395491
0.128754604922443   0.651163947950730   0.182456393363480
0.802697345105190   0.508648515930983   0.966526294213633
0.808260428395330   0.978177301767282   0.163564075000388
0.110337842277656   0.946886472591791   0.503599207502536
0.190958928226675   0.211660265515301   0.190228448980560
0.019848965223026   0.102445059036505   0.347530956857219
0.267635487427575   0.414896251471217   0.860480419886679
0.314770747508694   0.289547463213904   0.607878818767823
0.787262532366966   0.426741515855729   0.088156183718857
0.370794644211168   0.213704130104794   0.804535751944459
0.650531557662308   0.931184639788983   0.719598520128062
0.984295904083293   0.205108178523599   0.540383210899980
0.357049073900369   0.524896590795988   0.900823773703271
0.112255245749605   0.309325154698750   0.658552328254762
0.732105896609082   0.001439970531059   0.076947139051252
0.579978048816453   0.158066565806743   0.735456540598782
0.227823627400233   0.168618046081048   0.956967100878022
0.990252913597763   0.483277919269504   0.199698851178191
0.870083652220562   0.564446186725724   0.082727207761016
0.428498148844231   0.385802552672751   0.975438153836415
0.568776228230570   0.831835160664868   0.810921259203991
0.669785302372055   0.779535738289068   0.351667559578659
0.122954560863034   0.943066421598660   0.636429417691801
0.529651460769042   0.015308627564084   0.962365083737572
0.469794296615083   0.135274140584655   0.746797754714586
0.652985459009261   0.161307087894370   0.101930881960511
0.173063702961691   0.419110457439582   0.845106732099490
0.310671852428416   0.125042044063125   0.092623692308272
0.451722580858589   0.928397832011996   0.710733028150785
0.478680141643545   0.142535156450711   0.146173835868284
0.512052606730199   0.896935706271597   0.601152330515912
0.319477984315039   0.968774403373444   0.608320562524724
0.590932706822972   0.208039119263077   0.773934469936514
0.199882404082211   0.971745263196714   0.963913358498028
0.791911055482846   0.741671106047372   0.129538937294104
0.420055896367588   0.071162701646428   0.051730904242184
0.282375408519996   0.174040479524242   0.787135170873533
0.571249560929794   0.855065647432111   0.534357391595353
0.611406483286269   0.631703664253602   0.126458786721879
0.969814355638173   0.681688998056673   0.190600325607931
0.853363169455653   0.587994921048465   0.098784752883052
0.629775356080623   0.611069337694131   0.591277038130071
0.137973510751364   0.814033010531954   0.145010104968587
0.454987072056554   0.140551295288111   0.010046194163323
0.479158594504560   0.064080533480455   0.481642196522741
0.131535456097938   0.805700554972658   0.852217589792026
0.755263734831700   0.462628693659050   0.649531385773645
0.355272039769374   0.253486478156545   0.402629371491132
0.573538552814003   0.729777339095585   0.778909733967059
0.602680399503743   0.321276172539219   0.830383152157768
0.006399854257434   0.001613081815611   0.049746456339842
0.099662268423852   0.105084643492988   0.033808352143641
0.514439701177827   0.775513025894633   0.197263526078938
0.298979147409106   0.097260932933536   0.658871609262776
0.490585490939896   0.079291936744219   0.053695693820402
0.938837442218627   0.145312801684850   0.450686076683813
0.809290952314101   0.793918938331575   0.643843406977356
0.309157319921473   0.320062563926095   0.023605387689788
0.798680609416307   0.948926508679907   0.152086329320181
0.315395947735760   0.522935807514871   0.280265698770320
0.614028402852201   0.106867919219979   0.124959864564429
0.241412875149182   0.628909761071023   0.062869801832489
0.180467010038898   0.651333938503230   0.207527826282823
0.406399176384123   0.066085204335210   0.350807760484826
0.270543427784888   0.854825019113992   0.123854396901582
0.742395172411842   0.692799027947534   0.632349187004495
0.818632188104727   0.722941308414285   0.127025445477969
0.583190523681176   0.474341419622587   0.514025308070839
0.380507147787149   0.285474185183390   0.969604622936460
0.623450067986814   0.057871446715284   0.013505736197917
0.804186422371901   0.341612334964296   0.966851049755821
0.244132841137510   0.748282169275825   0.039939696089801
0.250265015212308   0.995953240413304   0.095428097322110
0.921053023599165   0.440880405788716   0.144425654667660
0.644453101362446   0.901003348246050   0.664576636071840
0.977810695518272   0.002276213062368   0.552323520156447
0.473399672140964   0.571002856213510   0.954429956125010
0.213624801715823   0.395937191373290   0.960802062757119
0.347200075578109   0.281322961187828   0.613492716241399
0.949482155762059   0.426078710500520   0.150054317946056
0.448898344804029   0.913828181400625   0.681345784002468
0.730889209630710   0.596486439324028   0.171716163056546
0.114041976801227   0.528625558533454   0.980544410382476
0.344775837735752   0.917565971769593   0.038613976120153
0.076638841868384   0.168968862149003   0.680917051480619
0.220714214409784   0.934761636172841   0.910990753232957
0.982727317408316   0.516639470943837   0.209346325524735
0.058267565772692   0.062773166362240   0.261610228202178
0.649933095773038   0.521230545894348   0.639982657646038
0.973579497315560   0.629398745445496   0.168457399125010
0.595429072522015   0.497459626840400   0.491706438676884
0.140198418332548   0.323293348568023   0.672770969974604
0.956081569240451   0.611427067668660   0.147358010789140
0.992891759762043   0.400548571760614   0.099826869402332
0.350535062664178   0.077937467184188   0.447234659378660
0.392722230734860   0.293298186028080   0.688302525263254
0.989980817564914   0.668426208624197   0.111297479985747
0.999336989457753   0.268195473555809   0.546322433027672
0.038755020939591   0.234428826094574   0.616301371161922
0.470273068237860   0.094066079012410   0.074473554653805
0.392638804038135   0.769792632657526   0.911357770520019
0.634533737465060   0.081647388947831   0.034943517080696
0.383740748334709   0.877977409304644   0.050485027219894
0.741636058321444   0.788314826228693   0.186894664806834
0.440512667173577   0.857448278312488   0.849757238283749
0.748991985233656   0.552745292433792   0.680634225893355
0.247620904966884   0.679044041481012   0.254764701089336
0.465561129100119   0.582980734560635   0.216714700374054
0.910552445717367   0.706180112326505   0.957719593572209
0.605209739235046   0.287617288662740   0.723627238121541
0.967713219180210   0.052386697297616   0.264266234400660
0.271070030529488   0.120982918271158   0.702459020882193
0.913803967239337   0.780046638919932   0.872830634889432
0.162345738169504   0.112274167151812   0.071611962646768
0.544137539785883   0.957764557889045   0.853361255924909
0.274888792451792   0.230077258950020   0.932821117223940
0.589805261261576   0.115087960935136   0.438701537983741
0.323782804121280   0.387023334726596   0.049539200521873
0.710385977429542   0.548656024160219   0.545087333418512
0.102023954489722   0.637558554654933   0.288142654849088
0.359553616237075   0.221074119102671   0.091430886931753
0.354776879742468   0.943213185480669   0.869020709326974
0.549466366987389   0.967713270138078   0.918796547279752
0.142240730195592   0.502836853287356   0.368762951498056
0.390398891442192   0.749663167709505   0.378222008783496
0.490912991126512   0.750843797223148   0.197150619571839
0.635963624861579   0.506868928887176   0.666601105445665
0.484817356512327   0.110807804448162   0.098891787399266
0.248350409572916   0.567206992494404   0.017785687753429
0.245181028829103   0.043312487167265   0.616254217819383
0.859778122480290   0.019237951373476   0.463122870430728
0.312354812788086   0.300106590291244   0.550010900427481
0.874076221819000   0.873140494256066   0.248589274470543
0.046247388767650   0.955624560717871   0.710195118302628
0.265422900159043   0.517621167843469   0.834461081052295
0.966812213143381   0.164223568836666   0.506772271472460
0.603316535807819   0.629798296967714   0.588990871737322
0.071348053078426   0.057073790865690   0.126343241332629
0.948573578003923   0.000336847805102   0.630239539777409
0.469982817291999   0.189380125841549   0.180721921539260
0.791488066089542   0.225983560992624   0.413855007499511
0.250464309498909   0.861353576283960   0.031246590650032
0.501686192269250   0.860946116688939   0.095765680693238
0.332369500605938   0.746191015544569   0.109342923362569
0.680241060530301   0.007703877446416   0.481408468935779
0.250300519838786   0.435229262868229   0.025516499183937
0.309798376365286   0.411658603955548   0.118095905137410
0.430526421951072   0.088510911327546   0.984219767471068
0.210641240811032   0.115498076626077   0.956870510832940
0.071597564922417   0.273914599089251   0.640414560605186
0.660144181868467   0.364600932528073   0.698757088340249
0.519386530120116   0.970925116912567   0.869198226166583
0.618442185807778   0.932661934169453   0.604608650939215
0.062450949246583   0.605693319811697   0.116880361550474
0.825702966790245   0.246675476889722   0.073740989171847
0.968556076013658   0.779299625339712   0.493937339001997
0.109020867840514   0.566465893058448   0.038139605660279
0.545933671328428   0.622723532785586   0.252277322524720
0.336305123884071   0.275728253505343   0.248046555972209
0.762813223054828   0.469906744671620   0.032388807505981
0.177786274280391   0.432506274246054   0.909531077909621
0.189352967858294   0.667560992052890   0.903769169861013
0.627222454296495   0.505007109864927   0.488001702049043
0.456320911192334   0.560466523670537   0.298693745760549
0.309613222399612   0.274286850256529   0.945724359254445
0.556563180658813   0.226985986983415   0.685097740791658
0.413906832017036   0.166367244174827   0.839687516987239
0.084381396651745   0.038588498262070   0.998863637181412
0.182726756457224   0.034540818145876   0.008945400015371
0.527638215106536   0.053667663166268   0.005807481909698
0.280024329631904   0.422242560875602   0.200081128959674
0.349135295412140   0.517961047053902   0.816527064689342
0.707312641339022   0.075937527065354   0.437668180488730
0.783152632918592   0.146287521542885   0.267251991423355
0.965849224479632   0.862170907899413   0.657418184954261
0.668562980020390   0.361711150111071   0.546471146352251
0.902935043475989   0.074066251408624   0.316980420278841
0.374121756038627   0.315116998746604   0.781733651225279
0.352490799190041   0.800195937336371   0.082915546943645
0.712169146296622   0.609040629459594   0.441812840636941
0.959170515755241   0.344611678871421   0.921463928804504
0.325435348230736   0.016372869162665   0.013062531574476
0.268826533889548   0.204965387189089   0.312583046785421
0.205636113130181   0.925558128435540   0.997059395690961
0.591747512330979   0.050337916856737   0.013505046673887
0.986927749421434   0.808997677215122   0.058031361756241
0.782089060839546   0.212522883893284   0.329189078481908
0.281661332028537   0.591433178437749   0.319879596253278
0.391756908484843   0.068072370901938   0.485190153182845
0.086548206434161   0.444422708812080   0.540809252236680
0.227970201515670   0.459171825454694   0.900554480076952
0.937664253383039   0.722912120005994   0.209654794558165
0.848938776857137   0.305465181111710   0.060148250298985
0.743871565640669   0.719131650025862   0.651178674489094
0.793148225921743   0.073028871468797   0.668085118944287
0.243963572477716   0.331429396495497   0.910095189947436
0.967045970247632   0.315702765187925   0.411256875606326
0.978047609261458   0.258948526266756   0.523073194660808
0.385173172764195   0.311176846613256   0.750418659081740
0.380921855271404   0.285580434741526   0.937166353613281
0.908891788783072   0.383843011307056   0.978915374722467
0.608869521452870   0.847257681510314   0.774435848328723
0.169473048247889   0.762578881878487   0.889063361418485
0.231268956273713   0.993807739978317   0.119730996655234
0.321790579779067   0.797824945422460   0.097735893885088
0.275457615943530   0.055544884995168   0.969814669015744
0.380194912790452   0.797081882207033   0.897285141723219
0.238332298482106   0.640178052986912   0.907470867385076
0.577661486516895   0.156413351768227   0.140217633468265
0.447051408076224   0.575037510620361   0.268176077124087
0.442982653943335   0.155369841094078   0.654531368155460
0.084484822147516   0.580644014421696   0.122500166958846
0.296700417509902   0.693421610094045   0.963193365090257
0.000607265152432   0.647654881175073   0.062560019463841
0.299988371824383   0.467072031813380   0.273836814583026
0.699540954421350   0.441423572700228   0.704957691825592
0.373010924115286   0.637881490607163   0.310072194081847
0.337546411769002   0.466737909307124   0.030486554342676
0.121408062052395   0.791848086693012   0.125514167370620
0.872007639027252   0.633677681588018   0.929904821809725
0.212927900619912   0.536586280089006   0.325150427526802
0.232383133257639   0.167679431025393   0.990097882645548
0.445247907951949   0.061963087471877   0.736152018415807
0.270073000923593   0.360522487278995   0.509238392439311
0.873789097786391   0.766795029487839   0.173290954746293
0.469709087529783   0.654046698817550   0.387119322642709
0.284739178097033   0.321645992624594   0.251643723533361
0.587626940022764   0.080478634015786   0.062792017365279
0.304671307177589   0.505790245532558   0.194355234636446
0.279860769040869   0.586956434751278   0.197130661254301
0.364955658103169   0.319654795824037   0.725097853296837
0.359809453254043   0.394770869213726   0.482101985966364
0.444864392726581   0.118652497434465   0.520602990834296
0.985523810999279   0.870415655456304   0.709575931437219
0.743931402846755   0.724396850345881   0.066535883779113
0.192924875639958   0.505763712564646   0.907705666377085
0.840509425010121   0.317410622507261   0.524540630182417
0.712866619410751   0.362598064928942   0.902836487574842
0.497304817547958   0.179783318267267   0.815963097809631
0.759690312025634   0.472009764180559   0.966475044186851
0.349523404851463   0.587331567555298   0.309425371878523
0.582287467597386   0.136885022593198   0.522384527754145
0.118980885995878   0.483549555536305   0.566553145506090
0.852376608557272   0.207481573020512   0.485701754852887
0.710584814714411   0.705865392788253   0.152913935802891
0.419629770821337   0.258298689123810   0.235510206807535
0.438401640172576   0.568431400144755   0.205333438750472
0.025638873585866   0.735917083780418   0.546112601229396
0.441317408820975   0.292923294852348   0.514791367287424
0.294287650431909   0.499872133272586   0.273830618866531
0.121106533273821   0.539247480909193   0.255182728777106
0.436900396985592   0.091973814661922   0.071086822564310
0.311323108976948   0.014185058019902   0.573275094687157
0.529540156376006   0.460855886768292   0.016786360640248
0.521524198018579   0.154727899948109   0.209752178364619
0.446902115537031   0.945121155332060   0.068602095093558
0.361413580726541   0.167680769259256   0.399517935200314
0.410597699208562   0.410878944015333   0.439921216272519
0.226621215001355   0.212885185690402   0.235823759830719
0.832462635533646   0.709688287591179   0.670990764822748
0.031187268144522   0.416629878462285   0.462874078658399
0.715426361847516   0.040094675652705   0.559096187117919
0.946199366699954   0.796388057386506   0.301556563086304
0.414887942542767   0.442996235280236   0.438118290421382
0.458335687642181   0.056895050836988   0.533812067163454
0.375234341731350   0.244515802207799   0.815666201102754
0.560914739695969   0.803630474354594   0.871495873874057
0.644157020153360   0.357006332990028   0.878339765078118
0.028287535458909   0.051390365857562   0.255517845842939
0.643135476150234   0.451264888111871   0.838106858145211
0.005887750452876   0.299772358703210   0.371332026425556
0.392881338411310   0.428484746868908   0.203583483164845
0.405575393461484   0.259832927841949   0.886514486508285
0.352332543487207   0.480364226529762   0.775610152037749
0.490026491720067   0.972834579817866   0.853739756830795
0.238165596636557   0.311596316784336   0.576323297343348
0.505688501940420   0.839466253502171   0.121409946887476
0.413031928694018   0.796561530523175   0.247121359696783
0.325667575486213   0.320512704375303   0.357133909600673
0.826689439934057   0.925299163974443   0.196856971871965
0.163859184679332   0.772267947978346   0.094712079863906
0.089501056453337   0.659425187427363   0.910954622689865
0.948302441094699   0.123419637712842   0.473325904468307
0.915603019115250   0.746014816021815   0.204136925390852
0.468084821608858   0.241261746786432   0.625929293403207
0.011275531078745   0.002156182787655   0.705492898968115
0.223958066214548   0.992280869507686   0.182579116705723
0.610307201104308   0.878011023631713   0.133194064642547
0.837129475653101   0.161975344759505   0.291843958372586
0.387595912567599   0.582924541884601   0.472316620177442
0.340481048817063   0.799727764943589   0.786165429493231
0.980395633967130   0.814460014028420   0.412080698531558
0.307807667157321   0.316436222543641   0.738358124354453
0.361983212251284   0.749606006583715   0.095433828763085
0.184003975753720   0.399502951859138   0.952366453046032
0.824785759211251   0.298803368384735   0.041488690880530
0.620865584280071   0.017643307788293   0.388779039656700
0.386615557999324   0.782034158252063   0.583096468902036
0.607800429698591   0.154825245210695   0.721153674921785
0.950441697966006   0.367392204520199   0.943538858854149
0.296726414056862   0.987024790444313   0.918389109221218
0.255513519636346   0.802179148664141   0.853514135056638
0.272122613376926   0.961772572123455   0.912126631518404
0.271842232701131   0.360164298528626   0.193869655436506
0.122021122110646   0.071031397197009   0.106985277202889
0.442209524989935   0.151561883174211   0.792801293006868
0.330040621903063   0.777694336941028   0.739419508883846
0.769815579554823   0.840259816825699   0.730646844361454
0.628420196729162   0.641346933119389   0.072177276271103
0.112600619475078   0.653339419607479   0.931066515196556
0.007507836834007   0.015841479112736   0.733425034513101
0.386954868655848   0.364127053260834   0.418272422027546
0.819997313232155   0.796736234808895   0.556301319913093
0.765624340149793   0.784558048275224   0.718454326356994
0.851206930914821   0.091943573268462   0.448890599977873
0.660992839311866   0.333834172164809   0.958339356461837
0.019948710543932   0.039644842163262   0.995853387608941
0.550823604697002   0.464173033717907   0.507396223210206
0.727346493797012   0.567652642677513   0.182539447991471
0.928726596170936   0.759431864803655   0.968233491751919
0.161391647318419   0.773216300514866   0.741079156774931
0.675849904937617   0.091505753389442   0.393931092432240
0.241884802695637   0.320275084148610   0.029791051410996
0.093594950937667   0.930239538282190   0.837444377299527
0.057875944695231   0.838693163522486   0.145696633903761
0.395328396253047   0.387990729875568   0.149523819686316
0.348702469587346   0.651018249436176   0.360647546737830
0.977394339867025   0.871359282979508   0.419631673288601
0.382110675210669   0.037221821308216   0.942092346836258
0.953475204398980   0.509128567520999   0.226162855133903
0.928566295509263   0.485045013304732   0.304339370648087
0.353690452709472   0.002580026202022   0.018526177370153
0.518025186263486   0.087213561771602   0.699163349005280
0.441807117211932   0.750780604189621   0.271894723584760
0.157422298913847   0.298552896399209   0.803833758141473
0.426072917035188   0.766501279440611   0.911195228005998
0.795164222179709   0.408450381745687   0.061651186884419
0.217016962887490   0.742083837073335   0.975017983338552
0.421129930906504   0.859486041265840   0.605505340928108
0.497639915685691   0.871714042414038   0.621742505147741
0.754900792902730   0.928086029642664   0.812774301466247
0.810149766169191   0.922300682061449   0.167877610703289
0.295382989278822   0.616884005360864   0.851756950136657
0.048132529937768   0.407511104333480   0.113767869522468
0.168477101661139   0.257141037361745   0.026598104697912
0.445360903255606   0.263459892445313   0.110990880726931
0.473219368994527   0.281503382563652   0.870469599172840
0.370824060397406   0.129534052262831   0.844632910705901
0.423177795236039   0.066743936237575   0.494838851465648
0.359816385463894   0.049587418760723   0.963245041374961
0.109204822976428   0.459793797399280   0.178315271616840
0.840408210400231   0.724397642811438   0.602755657062993
0.019599621670686   0.969713885699442   0.695207924333383
0.135458017835884   0.322289113963611   0.849073734858182
0.664155377387548   0.785765707291133   0.320924363636011
0.543438555991915   0.509086841725685   0.473563913067262
0.756539030586489   0.741484957056836   0.249572070863737
0.964737899936770   0.928224918367622   0.425456439404045
0.574490539053775   0.913117639651364   0.061158070292373
0.230298595483665   0.874419696865459   0.848262026874317
0.448012022284629   0.071370673733431   0.474689409092192
0.187075031801535   0.998719625563606   0.736238767663136
0.135856930748192   0.297368965173425   0.828384345814932
0.272600124005394   0.499762185699028   0.782448628614154
0.232619384974803   0.623868933813349   0.935276579438649
0.759551334684542   0.694875428511738   0.132723394562253
0.474026174711946   0.861850010544392   0.078439923785857
0.461440324407384   0.037151839435965   0.899347163267907
0.830054514372079   0.839850828399335   0.671620836241793
0.795256238996677   0.150611894229398   0.240820530301491
0.197407911431284   0.545760994485444   0.086606155310270
0.961037011751159   0.400330493273376   0.106146055307015
0.667793318668387   0.697308639277642   0.336461520184164
0.837141928721439   0.625457447424074   0.886276581593689
0.068407905928248   0.613169780580582   0.026846250401477
0.434394644130005   0.714241125099311   0.933228658966834
0.058091197361152   0.144840834694952   0.351138393778141
0.111897011212821   0.096818444702088   0.087195488453294
0.438042974907316   0.165143205009971   0.542119364023690
0.575375385293924   0.570341312688873   0.404080070053044
0.345938900542121   0.886921591676083   0.874819029018491
0.322655457856309   0.898240375200561   0.053454777451191
0.320525489620932   0.266847133562062   0.828966819200741
0.955466140129390   0.769500576893161   0.017209719639531
0.405315276818996   0.974729200795619   0.926799364650297
0.555988276374891   0.181057830168590   0.618584083713456
0.713010032026715   0.047821793338593   0.501412038936103
0.240921975401249   0.357251639316657   0.989882781377720
0.788057067113875   0.631468800308998   0.658140961711057
0.221019833330819   0.712751502383161   0.821662226130695
0.429051673217646   0.789881907318693   0.148852174295314
0.004206505829334   0.840056593699377   0.761807372154615
0.131634167457960   0.106977648837518   0.023928331520603
0.363122344248711   0.319221781849601   0.153502864116094
0.844151052971636   0.732236600781715   0.723077033612461
0.943945330104482   0.623839446888880   0.120676611376342
0.551205494088217   0.210614311855289   0.631351142098185
0.338725978288691   0.139448730136136   0.103445715289338
0.624626817518002   0.293601690814267   0.662645067883999
0.230218276795231   0.883694107214685   0.665207041584931
0.363029624668298   0.221957699585737   0.403122275415036
0.169398756166118   0.887531839127419   0.905524391690457
0.856358826300067   0.305880965159240   0.549931538114731
0.409899934864211   0.034802079983219   0.596421510426894
0.103929964833871   0.407402922145391   0.926228729714230
0.956151770013701   0.069616982108580   0.487922782122893
0.562932645702863   0.449079748984801   0.110934712144551
0.018849555475340   0.405752373246728   0.433821036849456
0.175866881560144   0.852062423768590   0.723889990416833
0.889308265023394   0.725251081951590   0.899404012250095
0.156679618575862   0.489058965567749   0.782588726920519
0.443601667398457   0.289550871620734   0.130780216951901
0.159945983279407   0.663943557931924   0.184799396526703
0.254156615047975   0.780343120156658   0.230630355428569
0.269880568837623   0.361407511345915   0.786144466819865
0.134451050891240   0.684487924103076   0.933552191033582
0.314715115417552   0.210020749485368   0.816656285354362
0.070616697535651   0.430015362504658   0.987557279443128
0.241505152117119   0.819018197080392   0.825538788478865
0.563884531920875   0.130086161567938   0.128439846449767
0.130304624225219   0.029010331395561   0.029685773538239
0.606360271776719   0.662967697378729   0.665745405340172
0.859514733089143   0.125329557529603   0.341053103699049
0.091591974115962   0.186064406456667   0.010423606821214
0.519962927234912   0.206350564204910   0.107825226732556
0.512984220212748   0.464880671276798   0.949112506059421
0.385131203276895   0.109935180663480   0.088654355269036
0.400199256043398   0.950319606214338   0.705881632368220
0.291865072918904   0.888838705668526   0.592124316761487
0.355968928393200   0.120778076987501   0.680458688272962
0.513339372009086   0.195252416481421   0.516825018487295
0.630015429627900   0.920155747794527   0.060449139544927
0.965139243671719   0.110604873524384   0.362119959108688
0.365620291560021   0.507665631800473   0.792723197947400
0.890252973514373   0.820131675075925   0.239800375281572
0.888714144264787   0.764384400443976   0.823339560269389
0.004618980085403   0.151854496600820   0.368666361452975
0.349070593880894   0.262521486896300   0.561980001678493
0.925887762723725   0.069482771533336   0.350986565314588
0.519232977202954   0.609437723631687   0.238310057773901
0.388511262255011   0.117296952649423   0.973170463996504
0.188060818119297   0.793775254318237   0.099196363200207
0.758961886025435   0.107470226217300   0.390184149357850
0.673230852890925   0.763469739783697   0.607881973076445
0.683043683299222   0.058669878583425   0.451283750196704
0.742641718830134   0.736212155842255   0.095335594514474
0.727338741538945   0.465117162156651   0.885544687525561
0.404938875061465   0.298693579072550   0.184650128606006
0.326710814484262   0.065773553881079   0.622727329146185
0.827128879616426   0.132187579540052   0.339159642969418
0.792512758031636   0.529612625673252   0.124803952549985
0.798140079007031   0.227073878421137   0.382828193360276
0.453932077495154   0.286146023441999   0.162064419448904
0.651564309859746   0.646691200598827   0.371151901348285
0.458497582776546   0.324367549133617   0.024813901937979
0.554235805854245   0.576078525844850   0.012276906773665
0.956632639412890   0.999143493611190   0.261726435328050
0.499981828178953   0.741565003533619   0.267133692177521
0.901960677833530   0.561802311278888   0.082693530850687
0.740667882147884   0.451425992374673   0.982871663430693
0.582026479595307   0.527138898202998   0.976486713762605
0.849698702979144   0.761782168647249   0.151641741846918
0.080336204281596   0.671579082877683   0.392045384988593
0.055284505232522   0.644710918846777   0.253096928952672
0.441378277574914   0.296480280221264   0.066529674007626
0.324134821423545   0.622531414391767   0.022624005366928
0.951700890856565   0.898337361869144   0.802913149322925
0.438406014982719   0.308085943048878   0.569740467227474
0.520287415283908   0.180087319002058   0.682035651343603
0.192097827714827   0.114512032175989   0.083982791713029
0.933863236144845   0.799731449539827   0.855897859215155
0.356376617413331   0.855847467701162   0.874334235515585
0.441146447434987   0.962755599632039   0.879269564939099
0.505971814482608   0.578724531998225   0.112068064679004
0.485432353373228   0.580683859650371   0.164465716263055
0.136254615912733   0.003203209086009   0.604749104076499
0.185945516807175   0.895303450273086   0.934024533196977
0.795134048557025   0.773179486994848   0.138311300901444
0.503364317039360   0.970461357800929   0.987482525324127
0.297592844909291   0.802110145263964   0.074955373798056
0.408343483518639   0.903774394002217   0.566891297067507
0.843269536456894   0.878975727563415   0.781740197164500
0.349925101535742   0.978639408908600   0.697787697182672
0.017257046471047   0.400991710766073   0.004968536943227
0.866620026832348   0.228266946680710   0.505091942007829
0.925202801758946   0.967474661101031   0.287441011268827
0.302438718416983   0.812590336095226   0.256117436364430
0.717824754406094   0.145321456890576   0.390030035230197
0.282355925387358   0.884651471353552   0.561113251124389
0.652668041893491   0.829254927772423   0.232189657596667
0.528046032716511   0.123538357187709   0.359228494946491
0.016050453863243   0.297469942701007   0.883905244259970
0.914662511844988   0.665641432764982   0.997813851475686
0.455343560727112   0.951943326400069   0.772963502776674
0.708100914989893   0.734349217041085   0.153096993534664
0.413245846472950   0.240352545043772   0.528588566647927
0.768896426811667   0.217479081368391   0.458120966432119
0.031046327515342   0.375257508715339   0.170318786826146
0.438825928293842   0.372394638229881   0.049055961823538
0.797835935809309   0.561277799846856   0.172741731321663
0.646379365847367   0.346853242244721   0.526405414122346
0.268717739007656   0.893621147607694   0.748803574728308
0.206384447790320   0.535380667273457   0.913755155668906
0.564092949915727   0.368675660589202   0.018298318064479
0.807391887130587   0.122428032332762   0.363839078044203
0.768050894542035   0.823690035927726   0.299300177145660
0.043954836531519   0.483991000049533   0.218076252506248
0.186619632496230   0.975731138537612   0.757412782010220
0.184640294036001   0.067686295031064   0.001985091049511
0.145738552663018   0.350960956724205   0.654661694786980
0.312657561278295   0.260915838054742   0.299175166065630
0.034980079036171   0.306415849872113   0.567748510964646
0.682478976712737   0.839096487533596   0.957038921881700
0.172480182164690   0.089690881389329   0.922886123383980
0.504761981507181   0.057645935859087   0.709923504450757
0.234326319755434   0.783349433849361   0.869715343844543
0.318647838089416   0.706387957655741   0.074809645200568
0.150385796666002   0.163496133388619   0.699540909839641
0.111164896341798   0.704396956837612   0.058257458404764
0.338246586443459   0.753802062649991   0.917308066137290
0.263961267334542   0.635749194321096   0.288880048796456
0.798553877448784   0.768871642347004   0.566329062868645
0.438208738657553   0.230870527057645   0.614279774996899
0.601029030432926   0.922557412105391   0.045464057050057
0.301547111478716   0.950317481033657   0.691004567317292
0.058954407157131   0.457394948128036   0.491956331807518
0.604082037938830   0.894189029838461   0.564862956810932
0.739879300186347   0.095165429233055   0.483658357323237
0.454296473397242   0.809787950702215   0.573612564235900
0.326669730960676   0.269599731732636   0.089831938168733
0.281887695118793   0.861510142704193   0.234122550640210
0.891155007695518   0.753879091027225   0.617371891435424
0.974325899783029   0.844991613470646   0.399982895037323
0.335148592448573   0.474129714593229   0.457321384910104
0.380758413881930   0.323710064762839   0.695107802107793
0.829076003285171   0.269243432602094   0.049609326631891
0.975744279053355   0.936681387925512   0.327772503594709
0.314716484887452   0.273775712817300   0.329959119177892
0.310653230851829   0.284849050551475   0.887479935356110
0.207264571056865   0.171932607551379   0.396402577336615
0.244595547112805   0.698868064627097   0.803725451763784
0.248196700204945   0.739359197057326   0.190613776925485
0.429167514559501   0.738665870823160   0.327507350430474
0.070831285704141   0.961343960876751   0.334437748951692
0.477122217570620   0.443347003868905   0.024778232214263
0.946849879200732   0.240191098468445   0.468461075800963
0.541625010224775   0.066602593918676   0.032901715829361
0.722807102336772   0.078572445824279   0.506771153985476
0.387807141437207   0.676732830618341   0.390070564294222
0.187678824764482   0.218336642538192   0.976447292969177
0.535109033289418   0.435531779744011   0.515313558586702
0.966214943481577   0.820672455125318   0.034884623442942
0.664055484558915   0.084236599167668   0.598804262256530
0.879691654883734   0.304513835230971   0.400752631592520
0.795933149657177   0.533091070582737   0.595633801916075
0.824033381218208   0.673161128598846   0.815879159560488
0.624313214053710   0.129248371330481   0.148925371996876
0.691784607986432   0.966906160607541   0.696947093519901
0.680692106420692   0.398743802578186   0.657592370069789
0.941781510577833   0.164552667594971   0.253769250596107
0.282669675988826   0.462331746456589   0.875083454088114
0.199054978505897   0.010482177696798   0.679210833183505
0.083308287920488   0.033055505056339   0.055672569769185
0.553621866444376   0.157112587782285   0.219645535330777
0.399028860690811   0.820491294768476   0.885258080915326
0.633785719202222   0.349415735946727   0.494736844488815
0.319104987176091   0.228226147269973   0.299091301547587
0.451957526435345   0.583508171365413   0.322420704052913
0.715239137037291   0.942541629076380   0.947469314028216
0.349924241221288   0.620059373910662   0.459037257373123
0.561028583129708   0.897399122800593   0.683333431604140
0.385677035794488   0.726136134691187   0.356835047499163
0.497332267079876   0.166757282146867   0.224471544573977
0.648161342205777   0.150412827369649   0.524566599658291
0.685730456033310   0.965344645941236   0.012994470534322
0.845095649263693   0.584718698489570   0.923346286091296
0.738643759562434   0.759759414343682   0.298816496521544
0.974346392069984   0.438867876254472   0.167719115565838
0.620289618793585   0.081259892961825   0.063675172858720
0.824479057327878   0.109985779937027   0.389559918824383
0.096900327177276   0.681457838349686   0.135449985386032
0.971375513885635   0.016863866045562   0.498326945384852
0.776512366915145   0.087658063330422   0.409930218099659
0.842327700524011   0.548703974349183   0.966691274462147
0.925564386224853   0.409911875844198   0.432569303964959
0.397762988481852   0.087649576068106   0.977705829851745
0.818741693154269   0.023525435717753   0.234355695290663
0.913439646462039   0.464265597660766   0.165738212746947
0.433086421039638   0.256695412896775   0.660810504478678
0.290670581279283   0.868583338510236   0.102448902383627
0.319156449343251   0.734718968521726   0.025010052930651
0.578468507745977   0.296622137748782   0.529896844373825
0.307202035036397   0.225241086362919   0.351826774976792
0.931426120633559   0.396493797867949   0.998853211143055
0.032182238804027   0.736498333996484   0.072629769791972
0.415651539376751   0.440881808938580   0.942305800674820
0.309507394564110   0.908682689699185   0.247920676247657
0.343653736541493   0.322425696549611   0.496254085368466
0.911892612223232   0.552148838939629   0.052403813199913
0.327436500984120   0.638763613165302   0.441764210368305
0.983571561612209   0.058696161761338   0.348792491369821
0.659471866171483   0.927530242488841   0.751454903610135
0.030352396521485   0.713459581103470   0.382223015403864
0.703179884933759   0.457452788108172   0.760767496369546
0.116402222403126   0.272616662465831   0.835617975005336
0.411050258439769   0.089375502721361   0.575259647886727
0.656143037326848   0.349039456904379   0.644629350549970
0.826985423118161   0.575982585573343   0.114029543961242
0.774689641717147   0.002111445854197   0.125542089568595
0.073172192004455   0.961776099944995   0.441203335586599
0.453338451912856   0.238207282190644   0.061040874248123
0.012041231576133   0.192866142892703   0.588960579775711
0.068228403942477   0.674622997619016   0.360399787200901
0.209999285177849   0.564869678329106   0.110156654804310
0.624469911958008   0.852806764041616   0.645548348804802
0.880043581385625   0.733695431490206   0.869183055992760
0.920362233724265   0.657402769524344   0.028896017837347
0.472747173253758   0.335188184011310   0.870980693941569
0.245497083823509   0.899180887871111   0.146179898177571
0.522596443144262   0.576331542989085   0.385858083054507
0.233619794637816   0.164008892351649   0.888500233230036
0.744411530346627   0.314736913876322   0.020736690838751
0.326036301370703   0.142220493227360   0.986942458841296
0.842959860183456   0.809552167494605   0.578365906871868
0.401131196337888   0.678832128062428   0.332431714656961
0.651829613857668   0.132181991052866   0.569204601113245
0.246316310871711   0.343131380277194   0.765200917458569
0.199996628577783   0.986663957013296   0.992698885443439
0.792381165609507   0.827402377416792   0.251481319265152
0.199007395962889   0.942177690859491   0.025099359034283
0.955238940765043   0.315512238468607   0.332045518067514
0.292768667892178   0.425356584851157   0.979277318388212
0.597683620922738   0.966636085154211   0.564510436901405
0.724470202568254   0.748801691578835   0.695111283598171
0.792467584853242   0.526421798926470   0.249777126269191
0.031954932865353   0.548819494790452   0.217382225118206
0.974034449209957   0.534692733308596   0.182302201126943
0.525022409673670   0.948497617155287   0.618014301293232
0.984576428711899   0.928168220849139   0.731026624041105
0.543329638181870   0.891559507158072   0.608423548742729
0.120126553581092   0.135601774970885   0.735010389104560
0.354926813598932   0.464016730086093   0.377676550713979
0.388598035718788   0.076846914636945   0.044773879577483
0.441659335367425   0.414408041919566   0.987104356208192
0.885521279541396   0.929376352371063   0.276961653805364
0.335292246706779   0.724104428050429   0.052027359944920
0.872677165274153   0.792686778291682   0.193101364241278
0.286578252998116   0.381553098811939   0.914107581110461
0.110815105117035   0.139349667719426   0.333880480081595
0.731770477137815   0.681744162321301   0.145865981798310
0.542218178862248   0.934429152381453   0.016556506862239
0.543471970784193   0.035063078679014   0.985350850930919
0.282311759938065   0.869268257676699   0.644026656409989
0.022202564988243   0.646576918984363   0.008584133062879
0.031660554251750   0.646921035046320   0.141355642121683
0.858120388908978   0.358961651416067   0.974266958354073
0.016546824942446   0.814752534400001   0.817019844192016
0.359765481339796   0.969095884719849   0.015933384622409
0.187157982422314   0.001993061649070   0.621534790814493
0.333486850239783   0.854105574544677   0.708439322753063
0.730851819409810   0.423338229328954   0.537168829864901
0.516753406404201   0.602538624509333   0.206853548000322
0.225580986450291   0.594385024075175   0.924558787118310
0.968822854096684   0.901564893196792   0.406877709086410
0.229853044767492   0.679768716830887   0.041536809409250
0.486699125684987   0.046700998474163   0.946124216834261
0.625174978393239   0.636074585509414   0.177498943457922
0.693062119566085   0.434076550760614   0.614883374646952
0.034362893319490   0.396302613037280   0.489374653470114
0.411282336761903   0.366321234309050   0.130493675778017
0.656401344184640   0.827210037887883   0.746139658565255
0.710635382930796   0.596100546905884   0.577862339587627
0.692743930808227   0.124008033432555   0.352702387087475
0.128960893009557   0.970938356453012   0.718468367523348
0.664893916123963   0.822130807668589   0.619725911177033
0.726492709826839   0.840050234276097   0.172126535152041
0.109062857824705   0.456372869295817   0.149627633766328
0.242947976810746   0.898776563488209   0.085835884665417
0.440065297998096   0.086099880742175   0.446733633513272
0.690083080205383   0.455593014677574   0.521978022854845
0.389140788835415   0.269558298381839   0.232006951930896
0.774659328332370   0.643769780728098   0.718736665779817
0.643958615692246   0.619850687054199   0.389357738931828
0.020516646442377   0.347641349788157   0.516901247228295
0.190167674798408   0.714096304211862   0.870507522303299
0.187602818727358   0.442830874992379   0.230910462181521
0.427135494547269   0.356372870397013   0.990180357793175
0.100298750836981   0.957352990649028   0.723733560671821
0.314530424505434   0.373763902550384   0.863265056901381
0.061734389506970   0.739998424475609   0.754265070018208
0.933735013167006   0.931580557136952   0.705598640885982
0.419766194773689   0.314842686520153   0.875209485883059
0.676130622181251   0.060347295872245   0.013403273148148
0.940209201290124   0.300056815265165   0.303807840844177
0.907673001341693   0.322885686580526   0.918062079535415
0.455789244333152   0.512764189822256   0.007341444357680
0.055349354356136   0.060098744739541   0.097606797410890
0.696483819339343   0.875178890092210   0.139789729269242
0.439126392171153   0.694757609424559   0.408201115512386
0.898993838158536   0.494453142025084   0.221384921332812
0.430966323128728   0.574737135950879   0.345781601258418
0.445225909546971   0.595072334605224   0.998689751598478
0.264387125732204   0.724816917279870   0.028129120851138
0.283803231274320   0.141434139911445   0.101978712016303
0.256575603313338   0.842091637107112   0.688613458528291
0.669753023821934   0.116359656948170   0.371043869158124
0.654174412770964   0.653137097221087   0.699770483139938
0.549051476253414   0.232046265734088   0.897668276167920
0.540228317500134   0.068451096839773   0.425307912711313
0.424867388827940   0.235274263457159   0.257795058515233
0.665471705001695   0.367987152412048   0.787067407384450
0.336839044178117   0.574997204467039   0.278291120006121
0.643663305515306   0.182071144889916   0.052410917652216
0.370800951569543   0.056674037791842   0.023202313129915
0.839935058579662   0.839840626086205   0.594653021607646
0.675416055516332   0.953471290224055   0.541777210246001
0.505822977690214   0.620154204755985   0.288839376878425
0.264817161397706   0.538447943158505   0.245979036852378
0.236999436524265   0.025742927914147   0.226020205270659
0.429917063276388   0.409555862562156   0.099944587785344
0.783868724320251   0.488437651750160   0.015564474450641
0.681037331171019   0.905729405806711   0.903918350917258
0.744951915292001   0.146036596946991   0.055799337723082
0.182270734943612   0.520985244329242   0.147579579196075
0.817201432340521   0.591387401265872   0.213233391098507
0.143054800884712   0.124600695071456   0.997394372206885
0.781238213065882   0.204818134704086   0.246541464595377
0.615352611528699   0.742708445155289   0.686950995030826
0.278565502191187   0.885659261103269   0.779281940080283
0.189212303154135   0.972345707562425   0.019794070752350
0.524329848171696   0.980957760341592   0.901119075975111
0.770170313835202   0.050873323000924   0.670612584186328
0.651635975615821   0.078631272439245   0.409485186396519
0.614488785305641   0.182500802739952   0.166464946329306
0.210250726660489   0.386546599281279   0.878810508198283
0.120915045361185   0.103262709613108   0.641253217306098
0.882330780991099   0.695152567296012   0.910299464264050
0.004156570910958   0.894056188745610   0.466768318037790
0.683669973958683   0.429608156896269   0.097842465738650
0.617648677111750   0.805749801669350   0.700996829485071
0.860413202104777   0.310263496116877   0.940128793175604
0.153592503948481   0.819777819965243   0.800964749707415
0.780682122756965   0.611013185091735   0.517612503500717
0.790181710508214   0.792121596883992   0.210677498600456
0.979901745811233   0.045116809304760   0.624630727445636
0.210468047749879   0.748320787230102   0.028562114569747
0.925891121988396   0.283998741802032   0.368312242500217
0.015842924054451   0.354182510357880   0.406526412652323
0.078544741053277   0.032369794377038   0.913507285535327
0.520264809805438   0.902322586376957   0.059974733141141
0.427496045410333   0.814219974928308   0.560094506211757
0.479969785456138   0.825854357644915   0.888392184911197
0.100711022523365   0.835089245909964   0.810538094806031
0.593482849707973   0.129223609991326   0.409434477832502
0.364055862261300   0.349663577257892   0.399672249784395
0.769831080376332   0.395624533605425   0.041699682330762
0.782557730026317   0.565547724598232   0.830551851218637
0.812901801030127   0.538197259922313   0.919465170847703
0.737237369509696   0.371232697890872   0.924380320990788
0.263531173239134   0.039461664846264   0.564015397079698
0.368486345792956   0.097151875627733   0.061325669838214
0.891601478049516   0.405639332942374   0.038273036601517
0.291200654061904   0.906028474983280   0.059611191353804
0.050402417923426   0.335193680259982   0.565274977718150
0.030107536333620   0.202918918835363   0.614542658625713
0.492784650338158   0.086754654554073   0.432002309501954
0.067534036933816   0.602007719713777   0.058494361037220
0.232428480152502   0.894270135246852   0.579401872604540
0.668681531325857   0.964257282920579   0.040692698450217
0.707762774684680   0.563437561815374   0.573285428561640
0.764347612861259   0.816286475346155   0.267329501242218
0.311204170546483   0.145294497361106   0.385848802152296
0.044851785727392   0.342418970917468   0.943911599517848
0.089155489809716   0.529964752683156   0.527489314286399
0.210021693537656   0.061141295625761   0.092664041652740
0.214350511600372   0.350699504199801   0.770503515315704
0.265532301048829   0.873753255759145   0.149579253492204
0.671796386205089   0.383455735120241   0.602030887262402
0.540641242553248   0.950857194329800   0.821431685109711
0.428193569366721   0.197788876424901   0.617779801833817
0.167040129020004   0.949951207846232   0.754997385736065
0.417230203865794   0.334393342243514   0.806744438471605
0.670296076052034   0.451125103268921   0.078585210227154
0.659579830701138   0.389012916810029   0.840470681819022
0.645242661945247   0.335428197870565   0.590651010401041
0.323791673549416   0.290046514232815   0.114499733637337
0.070926279483852   0.636023094552896   0.226268585992105
0.523496927300621   0.387856715948730   0.442449405000978
0.345327398747254   0.621339574040252   0.309426671389161
0.548403056621307   0.195868144645372   0.114293670189500
0.675532488892214   0.431061023199239   0.538599425181582
0.368824907135026   0.059901996618016   0.507159693841444
0.479112250637095   0.190628973624835   0.213262000147761
0.116329992200718   0.061489302165806   0.684060620706451
0.574557682878943   0.607646602713956   0.049741808976446
0.445956336449820   0.506529174211196   0.092297295097060
0.020185683196574   0.028571228833338   0.050984728229579
0.420116112401977   0.923463862657711   0.854324930618141
0.787149341070272   0.585318498017347   0.153301622912606
0.698085125115356   0.759839375859995   0.710677114631928
0.146955486832605   0.053883968179189   0.695679994613347
0.918899402646173   0.739628205637075   0.617397805612973
0.219484057715500   0.895943104152237   0.637042754455245
0.124307879648282   0.908650843408807   0.640531899042624
0.923238621943983   0.810451168104834   0.760761653179872
0.056368156633683   0.036420126638013   0.310057086118640
0.677168883054350   0.414346649312218   0.593807710674961
0.894287389366906   0.883316775646012   0.822807283938091
0.438995097009370   0.439931305381017   0.965647850367891
0.853001271357198   0.539481996700482   0.031517650366605
0.440069272591391   0.570537279547641   0.376828020957960
0.350049038636514   0.265449016869859   0.809538996927449
0.179787483042476   0.557635765792229   0.224169849124539
0.966906020382550   0.745840504386358   0.288343933839765
0.592649347532125   0.637313791907412   0.782768073213046
0.109099817297454   0.096691248848221   0.276194460973117
0.851233938167322   0.761524572355961   0.708351967528255
0.701966918444307   0.161855050961938   0.137383936470860
0.283701431659556   0.743753593885149   0.925893898356409
0.837371885760827   0.514828634940392   0.227176678726020
0.313501936762227   0.188464842613326   0.113264594397711
0.245046250767898   0.221903197535990   0.169346455871366
0.938420124405489   0.878707068699256   0.326195123482533
0.620207796770715   0.842891887182249   0.568339426561403
0.255947491530540   0.082293356296733   0.952072231395626
0.976990800065891   0.794085150855380   0.359609380592641
0.406897373701142   0.862731903392901   0.849700529851471
0.186473367619082   0.497523557081827   0.237988758377025
0.098716740926331   0.219187895267616   0.363718036923089
0.366842550818101   0.788293896730184   0.789447511806777
0.330102731259784   0.109962204955595   0.984634850523032
0.611162204066397   0.162339117742388   0.139357539450033
0.881940660716273   0.781241334748775   0.550752775843270
0.810847988181273   0.438635676385581   0.109598496552819
0.507498047692908   0.679053897766101   0.654817094600689
0.202266702714287   0.700377696083028   0.171661115878115
0.471607619133688   0.005659284785079   0.649444574315699
0.272639519149339   0.079621120814658   0.651043783441665
0.152880841984066   0.955142751615295   0.631458798720555
0.424624053811349   0.232188626670442   0.679407186015063
0.302255180896293   0.466065586922492   0.754898662097278
0.727236491344446   0.816307539740745   0.195189723917340
0.811050900851292   0.239334452590988   0.436608653061418
0.452143829979552   0.838953703543343   0.085186327959923
0.745713089410082   0.114699617907222   0.057132463751314
0.169723584881772   0.528530938588970   0.090150189706264
0.650832333251091   0.963364177413147   0.488083575827386
0.392634544426378   0.710822379106047   0.493272100152355
0.957737357475348   0.186066947534777   0.483801653716064
0.135091942356856   0.457980773800794   0.584220089392110
0.411980095521617   0.273945959889357   0.534440968101286
0.568871260051345   0.816295115833390   0.219332876066771
0.612619968274162   0.713333756156271   0.639425003991762
0.094204582785229   0.442723685852552   0.124230541638003
0.445466355458068   0.733103649324155   0.299811410160202
0.896780450898808   0.744218186768391   0.177153617860476
0.173681137322028   0.056388919038328   0.921276356886135
0.581679790103187   0.480463601652176   0.005132874579123
0.902874703026845   0.044825433418240   0.081870601454222
0.704956087062145   0.408985468304764   0.981553973469062
0.309199934749367   0.861775346135640   0.511742858186349
0.755860723824476   0.475566683135884   0.933933256399288
0.486503642809937   0.274389431135039   0.166598705143530
0.628624877280704   0.933972345646894   0.900618478671742
0.603457809495382   0.027741275137398   0.551545898981745
0.859121516000360   0.037927673517886   0.302118147529847
0.498139244663739   0.160248037862919   0.789658177688121
0.214549064613867   0.886736821632396   0.873313829349107
0.808834973757776   0.614756799031411   0.838771659216447
0.414444447254683   0.522574250420032   0.892833059753609
0.352479042611017   0.196429115634939   0.387249167717982
0.202727922270332   0.404197837083847   0.272730251322115
0.292378327472053   0.668263616526392   0.804850924747745
0.318141365377010   0.234022789806115   0.839257556381756
0.883564576360358   0.300101371741743   0.920149980696198
0.880327641392375   0.773057022149822   0.758616704884569
0.616461350374718   0.855183520460737   0.830640706410510
0.698064803346224   0.356265722021943   0.791645991184768
0.967595785101744   0.962469321748268   0.378625877795972
0.467555264577167   0.886028674383361   0.056101507355656
0.096509298250891   0.337484682910480   0.924571243066014
0.953378968289997   0.048210552001686   0.355398751846814
0.362284152056035   0.222919613379338   0.879210351953518
0.946472542729842   0.231277886196094   0.436619694293641
0.248537171081242   0.512702386686629   0.861612054025683
0.253914424879818   0.129097719710951   0.097761176279274
0.597140068974913   0.147488229983971   0.549698946447528
0.930407493092681   0.934099695867489   0.472312940534733
0.390488672170951   0.693993630446272   0.361617122223157
0.410948675109403   0.278788043037625   0.711810734902439
0.365417235249900   0.260262292252380   0.252327563357072
0.284763250364040   0.792349968550141   0.158975355477919
0.243734334467653   0.290467878954496   0.002324881280017
0.854317618244363   0.232981044668322   0.283886875020905
0.099094011646372   0.205433718483086   0.140813610244218
0.127732807259748   0.513868127171522   0.571136510307423
0.217483362782813   0.270457460412851   0.012236139650351
0.469200230039349   0.588477559322894   0.249166130468171
0.261709801232786   0.186051783467236   0.129701928876605
0.304036002447394   0.379456499029859   0.022203176404260
0.227261589129387   0.032518529737073   0.520114372530578
0.056062848160015   0.495742725764363   0.438238769342860
0.441717611317199   0.265099308496058   0.212812608402104
0.399633520073328   0.163393110647878   0.179994855245313
0.161673611639019   0.943260804158880   0.823260257863158
0.417681741723938   0.284187547467083   0.565839486060627
0.174706248453480   0.789668330367187   0.906678520727248
0.197444508273415   0.761024875925131   0.056876878349351
0.827758728312407   0.466060858498813   0.156304786465550
0.151788666172638   0.532630515977754   0.263991247350964
0.985490330234729   0.816917379780861   0.826177106260624
0.762104541548866   0.492555979707976   0.551672416941130
0.294515794324088   0.428790685383862   0.095797170093994
0.416785880770319   0.328908578162491   0.941539513352644
0.021502308900937   0.039576051953599   0.938909515799683
0.017557928913035   0.651262160627571   0.113042975070235
0.644805286065698   0.554297871724989   0.698719130648336
0.421612749749506   0.508293850571136   0.435264279353882
0.308232194060980   0.828914149563948   0.861767200388736
0.301611434694073   0.454639557149404   0.990211043755351
0.443412563791231   0.057593941618987   0.988691524123891
0.361157157437468   0.167068757400276   0.888271169135148
0.616831326060529   0.035140888092193   0.366207132039876
0.172577985636954   0.612899579646651   0.931807351464655
0.345694696321361   0.971418295922202   0.763472801024758
0.339624602640230   0.109042422474712   0.331275841418835
0.808382779654865   0.883836128631506   0.826470459266507
0.602148021229298   0.628197007737113   0.707643416265563
0.358763569895065   0.110858707152780   0.902253749217893
0.012092813031905   0.960477246929082   0.663370227076963
0.011145623587719   0.845600146688175   0.515864889799153
0.286215082607976   0.418435122741892   0.252769636599825
0.300909474196012   0.321569636644008   0.305817960302667
0.150829576156534   0.037417928893435   0.933048941714710
0.001115114357645   0.214818044866607   0.566767560153049
0.228433158401526   0.199015888012433   0.942664004791337
0.018218474411185   0.367514935340533   0.489891135217337
0.903950352837868   0.812974555358063   0.623798801011696
0.351978210170613   0.646168686602949   0.420024399688590
0.145684399787302   0.035503812779854   0.556397852355753
0.633732928559053   0.905531487911545   0.089379424371812
0.243693698437109   0.708539101958965   0.772578575744605
0.245565749173926   0.775411131874209   0.700643719726744
0.231416349168266   0.159403872287225   0.802949079409588
0.198869018851296   0.273802633189505   0.770021864600935
0.170830930311288   0.848680673254503   0.861660866317972
0.972799223209468   0.110476233951476   0.523574407158042
0.627640491934480   0.327335771613088   0.770006376461744
0.352669612364571   0.980617443822179   0.612603731152455
0.413038904511955   0.118422831111620   0.681716801201705
0.809415369785361   0.627287155292865   0.123225299424286
0.663718016220742   0.527806535694222   0.584966137527340
0.321779827791165   0.282410118489458   0.975465065687911
0.264406038609562   0.908480682177663   0.892452379172080
0.405457938449845   0.101059716628221   0.407970286479292
0.735213021120970   0.966495544451110   0.774685170043333
0.419249731705856   0.386035412539517   0.943427994928929
0.774058245372198   0.066713073905739   0.073436802763279
0.752165067777663   0.844524178934519   0.978666004621824
0.711583724291421   0.844532710232961   0.599358441332718
0.201174113380546   0.044091105371663   0.683782336494127
0.882359194860207   0.471335735852599   0.171267761611727
0.407994016053869   0.710605258067207   0.951134146002285
0.061550213297582   0.615437345064710   0.173182103680103
0.743958265836587   0.729463529717261   0.308029676717202
0.395752363160585   0.537836949567619   0.382326197470104
0.664926384400337   0.378472027853447   0.753981308967613
0.411208356249237   0.499039269951472   0.037267463289079
0.743561260081998   0.346612664408954   0.025211645048093
0.309773441432185   0.474324764449488   0.192216019625396
0.426792103791358   0.362230084642335   0.895696496881424
0.727491192392161   0.514703512658919   0.740489946209861
0.938813460587861   0.270107235225590   0.482289401206146
0.733763582567370   0.994118750305603   0.719538157398141
0.316814269947846   0.869843455596854   0.732812167785419
0.922912217641000   0.119413221551761   0.285281918122811
0.709881314535897   0.973027174948666   0.724332747976358
0.986414605956106   0.837635031355636   0.464335719376369
0.800627812966173   0.008595374547049   0.476044436943676
0.691431925158029   0.791510416968236   0.301940508573104
0.414070198853934   0.671982995737131   0.410650492607249
0.601966460371735   0.807183208898472   0.264554269550958
0.874590232851740   0.778899660336175   0.727068598043837
0.481971832286175   0.558331135871426   0.101752940245439
0.248037869956587   0.449081770374369   0.763670688384835
0.258270533915546   0.287671932292974   0.944506892898667
0.493736049058883   0.307912774556640   0.826708861866028
0.497362022417356   0.708489009423204   0.641380495617452
0.320601993394772   0.254801452863729   0.355712703478757
0.349751171417607   0.191650756180276   0.354814529651477
0.258910433114669   0.181985157270254   0.004718334579751
0.972830102842444   0.383128279906595   0.961790349813165
0.327197072322333   0.133106669078769   0.308250992134301
0.926513974197063   0.373611635860899   0.142367228205325
0.972348513405801   0.837492433409361   0.754255431980982
0.769385785267402   0.679943742604186   0.619612609517320
0.660294371266345   0.887258937324454   0.849374288166799
0.398664651463428   0.343956518995113   0.034192729418196
0.428313934129253   0.525065982859335   0.500219053609618
0.285978596457184   0.400146717612737   0.002027101640914
0.436253659349844   0.556121349611015   0.175099539689763
0.292487691405579   0.348399780102488   0.018590057926059
0.024797720328793   0.635978007507508   0.085242467280273
0.962734619995249   0.855805187753828   0.727793994558779
0.406706978904563   0.301152760903587   0.924903171261772
0.677641442671764   0.979850608046745   0.643543740746036
0.245932705539780   0.290967039725613   0.233667613624606
0.660739339973429   0.155676879195295   0.069349582598104
0.926214223227759   0.494989435638637   0.272406548752199
0.517593029659755   0.111299848774594   0.102956591236357
0.013220214554158   0.916145626458712   0.276213402953523
0.907792262356932   0.855104680944420   0.733935415011800
0.685710888967610   0.549705703180779   0.593831134123789
0.962656244662511   0.984146563786863   0.432471412105144
0.895404747713337   0.300622591358620   0.504217009605724
0.189911591224321   0.287477446947272   0.230794206669615
0.910885864330056   0.035418228772243   0.140771886505963
0.554638598671562   0.779182952905248   0.265567920105400
0.969994731648474   0.079109409846694   0.516148484954773
0.318467971175688   0.316537670424468   0.686946128778227
0.095742791245417   0.517190528223425   0.302757843161537
0.283873951261887   0.353565648461577   0.252007185598945
0.913014596759246   0.865205921752653   0.873775955146960
0.330062816490561   0.140373795963618   0.725950889866343
0.133843061915680   0.403587398274846   0.603517409922520
0.617616317985010   0.145075010364460   0.201556725592413
0.617709380007993   0.903864839804894   0.681682504719726
0.856627575220919   0.850270733637060   0.687113466117844
0.304063620942063   0.302296552676117   0.636027626974706
0.206595326048233   0.746419117468485   0.666843413489388
0.058247436880461   0.270010012418897   0.855418134725373
0.465872110074271   0.244046861565165   0.208553915043423
0.509105662319638   0.023782872864761   0.938625287017423
0.412851140228099   0.968414844490900   0.986950371109964
0.867269466544834   0.442131897653630   0.124222500570320
0.402819859334990   0.537354776671979   0.504081408896458
0.288118132675536   0.556637027247945   0.364888962826096
0.375613536165266   0.886549909648005   0.596223484821004
0.979398289849111   0.906667044684938   0.787289897890955
0.431073405714289   0.795525886308628   0.116711005821995
0.014841840693436   0.914777507586661   0.726089905247177
0.723229461053667   0.884420880795892   0.123936370216910
0.288456152663662   0.808791912401561   0.753958000723630
0.278162372185442   0.644670829929024   0.140387011085664
0.208971524392726   0.687710945320631   0.966580799929299
0.221898167787701   0.827266344198249   0.220906665704787
0.545524112452702   0.917422289993568   0.045884506804462
0.007722198668856   0.642935780290286   0.981070527862828
0.563838887152318   0.397489360522251   0.027743302594398
0.288614409996473   0.189899107843422   0.815179979059786
0.444709358425115   0.730755273772034   0.356617427853451
0.376340643186461   0.060180986700135   0.538797079827875
0.582164652624256   0.452857885516937   0.086230020942284
0.747568881551448   0.885662488555387   0.850490265967540
0.926967488889017   0.700862354250125   0.157757002275254
0.670158561090309   0.546513808054906   0.648597878620793
0.293122891085241   0.355803928636305   0.491438746397893
0.723240368508018   0.491913640122453   0.717492898158215
0.513471063793861   0.110740739155371   0.385127359467591
0.206434477498685   0.009447336689233   0.645950925218930
0.119153706630197   0.561603813565777   0.980636758585211
0.238288246645535   0.797944659549476   0.069820050609102
0.384794850951261   0.123453963052164   0.696753540166045
0.012834386069075   0.181501498750263   0.379732735981283
0.412439574897586   0.144997591302489   0.597174742736178
0.536255651789320   0.822230177804364   0.168258545887522
0.840713599575469   0.262083354662394   0.395157127724295
0.127074375276089   0.688813449500569   0.138515572683551
0.670934170501711   0.309583527623810   0.971378081692666
0.102673852543220   0.034968628419945   0.667818645532543
0.359229321972869   0.496075238756784   0.376593056070976
0.725977609825813   0.063698160595445   0.041372046206661
0.622166906820124   0.484366171073916   0.559553946652195
0.082685359962618   0.753018503478076   0.092633542783230
0.649795144145621   0.045831806553995   0.000584810332193
0.871898248124455   0.794535896150582   0.579173276241318
0.213241113833677   0.218761263752409   0.754670501208364
0.640950772821765   0.716380468573966   0.625936477577262
0.219341947377691   0.153303019265753   0.042490569573630
0.029468134417536   0.255592342940242   0.592909384777288
0.249439772213704   0.813478856675293   0.233950835516532
0.400194957538534   0.473566242085544   0.901193855439177
0.050770618074298   0.614620505558720   0.085202353644915
0.581750995473307   0.689690411351566   0.312147081703483
0.731984156958457   0.649300479553582   0.154094692826443
0.704650742946042   0.001694584190332   0.057963573382912
0.218795256046914   0.629438503520780   0.254922414216308
0.781572804159561   0.967019920949579   0.026308801372695
0.579887216700127   0.029713303093928   0.734356954143207
0.411724416497032   0.235280231506872   0.496971832281784
0.912527496359949   0.022005881507992   0.294203501034404
0.068598363211361   0.827199321939006   0.811382387327897
0.689046351463050   0.148560301149144   0.645120033324487
0.920626494168224   0.133690160483040   0.425542819995875
0.389024983757562   0.680054037985470   0.992958766834025
0.530694548974046   0.874668429538060   0.639792742461146
0.075011195283332   0.137251222713393   0.673165459008702
0.582431604946066   0.785948537266450   0.281656956241060
0.043560136950960   0.314419364217023   0.442026377422990
0.629780498067162   0.659851483351534   0.349246274032891
0.826139060907416   0.075402607689991   0.433421559445624
0.750652930838749   0.046694046221682   0.058924572098033
0.132641846555941   0.001946098015431   0.077864063618897
0.292542282128529   0.369933897614362   0.279133742057753
0.766454547797888   0.577477171015500   0.665557158321418
0.179432114907932   0.499928423236075   0.766952662405829
0.773186274111417   0.890223053575725   0.870378838492851
0.224312447448912   0.659266797150987   0.242922244523038
0.573005378174423   0.947034743349890   0.966606239462892
0.244909725851756   0.043110395587703   0.467726320044517
0.094418671212760   0.282419361155912   0.664119954854901
0.539540687425188   0.340426053156024   0.475869350926270
0.252987571077876   0.407390975711454   0.006843924152646
0.480840458760709   0.287790228140120   0.664327289012165
0.705647250042732   0.971738497049753   0.848290576938690
0.185423560077441   0.936485048955134   0.676619191931215
0.005337363207709   0.475506896047129   0.348728089558078
0.009418040149417   0.246316178689658   0.568843394758500
0.403233921115128   0.243732018030853   0.470778702332438
0.955921758175994   0.926686298863639   0.302476079762933
0.764880644350702   0.211080580788233   0.425385689805413
0.203261438025597   0.939649420502308   0.966016577294834
0.914303088585560   0.626727953358807   0.040648446196053
0.324761472606499   0.281784948203710   0.059369916236710
0.363065142505495   0.166188656141551   0.340138225169429
0.799458494905073   0.659736164242113   0.671334079865261
0.371833895112806   0.363935039097218   0.848587416043145
0.164656456958155   0.354558427139016   0.813508794555650
0.727957124877270   0.612036591075750   0.716593083813961
0.358724004282542   0.143324277071915   0.741956354104264
0.999294145883989   0.745408809530884   0.426534738308596
0.358280432354680   0.317413596833466   0.402851880430412
0.736368291714864   0.916587233407522   0.027521564836342
0.790077077548960   0.881736295767516   0.955284098661016
0.362051690087534   0.337534778973772   0.474001776725025
0.736586372056656   0.454225160715836   0.080931536128480
0.256031579252685   0.887533403396426   0.831835935927351
0.384115623628767   0.137392292020388   0.137403905617653
0.657466331980278   0.926544182462096   0.916260010808316
0.476355038675322   0.045635451966845   0.978188054286635
0.600479533764800   0.136122692522144   0.496007888009219
0.906409031704668   0.746573438857785   0.917795103830552
0.840752450545703   0.672645434525800   0.115125315754031
0.034396096899938   0.885657946723388   0.777620997286755
0.403247468942601   0.876528799025580   0.582250402225576
0.281578756801112   0.262936683793330   0.186679408473286
0.825625861444120   0.525698778959687   0.982770545835253
0.285378246867962   0.317268478945660   0.691259573238891
0.202904442068742   0.714055855722152   0.984833800071768
0.465475908924140   0.386908717119372   0.504084132338964
0.031537455196006   0.404810130261319   0.059430149015568
0.719993355107244   0.570679016459266   0.628951886022636
0.180472533666630   0.646894758837647   0.930234273101344
0.558544500264128   0.610867499952532   0.133039181868176
0.081734847756830   0.461278877588124   0.984653426152035
0.210865389964153   0.485716347305140   0.889741570029435
0.200927397950161   0.040851300726585   0.912711003480037
0.177759992772455   0.382018443659086   0.801223506698727
0.735631381830159   0.495496209672740   0.686550351753976
0.477001587307041   0.218841291628656   0.074004676700061
0.106866854174532   0.578054576770323   0.006823397391368
0.362904475637656   0.385764880404884   0.155078901170202
0.502644193840057   0.347574526604370   0.879446973486155
0.085432199615811   0.210271076145308   0.714202053364255
0.252166059309319   0.506901329228469   0.806404821504575
0.954032867410437   0.722510018383013   0.238156729343282
0.385931498846813   0.335842773105528   0.804593508740815
0.376835645204082   0.063394992347181   0.987836459949135
0.811113288409413   0.224726359682154   0.318884111198595
0.123099394101068   0.047567613769444   0.948233783417957
0.649466198040461   0.926949525844281   0.598784926275558
0.296406131310311   0.013727132425712   0.937183270292534
0.570402662705601   0.837044806459381   0.653603506039951
0.102594092148973   0.090243489625166   0.666570295062258
0.208269782538826   0.186672801572455   0.143963837388378
0.426596987015506   0.344823392119372   0.494986703057996
0.651053727230131   0.342561155238423   0.676303067535919
0.928227298663672   0.858042293121729   0.018216479930515
0.321415222396958   0.488352779954589   0.765900512696709
0.200286608878985   0.946974831796039   0.085403472270449
0.306939800470064   0.874409741927962   0.540374098196841
0.818089620312651   0.512950333389773   0.587266183799661
0.998368645066777   0.584410968722948   0.186741560795250
0.272602256352163   0.340048981442137   0.535272426803561
0.637405159092278   0.530137772454014   0.468578087056644
0.143304971835288   0.728336279155833   0.773230754973162
0.893663779243444   0.268817473572830   0.291906410918373
0.082986799132327   0.934005168261746   0.454801497842684
0.414103193576243   0.805746606292668   0.628637793840784
0.487650321497757   0.626957904955833   0.316652962031019
0.531367066300747   0.180603353170915   0.539736232018069
0.293312068715926   0.303543312552134   0.278600341327180
0.157563607644419   0.312700467648065   0.697925913041890
0.910983945732735   0.623294242542551   0.073244793615148
0.925947801474269   0.903588403456921   0.783313918370839
0.481062241845143   0.820567884468824   0.590827107916975
0.525415646679076   0.156743371133360   0.176357079359204
0.255971422690918   0.693273097790782   0.026425377154067
0.235353726543998   0.076559885832692   0.023566444996461
0.091203171571637   0.370000582963312   0.585738876320764
0.761552357819191   0.973059403567657   0.117010245795394
0.244876750755566   0.012653716360152   0.873668798513612
0.424917876933749   0.641935375838497   0.420095566328757
0.464763550137117   0.714512950925389   0.634937918182433
0.989468431147021   0.698740110764609   0.082030953232935
0.332347876644465   0.497990984445129   0.328015687195244
0.694675415953434   0.702446472629469   0.676849108541946
0.919035771245190   0.368383589404501   0.951997509533982
0.783341876206923   0.875621454768142   0.807655052117910
0.395289078177082   0.319791131748856   0.160965802787703
0.307828483639312   0.097358518333069   0.072508742265029
0.439811282747049   0.886744421605452   0.621017880505252
0.604366163311856   0.529502718527617   0.743212356480270
0.305313099275749   0.098056243002257   0.416761918327156
0.382210624801970   0.057333146466340   0.916203740154444
0.469089061818830   0.172779759768246   0.349796886367118
0.561611147019550   0.695946589355648   0.651274554872337
0.250727101938378   0.208774859664415   0.921060292505813
0.318092434007342   0.967646547566059   0.744922136911152
0.773146359448275   0.515509062289922   0.646482339817998
0.482625627337309   0.453158385051509   0.056460544633603
0.759221680693540   0.632789429224184   0.145157168559804
0.331187615022456   0.095545200118251   0.954483800564873
0.838547726534763   0.254828091228955   0.427928044121457
0.326871057354461   0.764003623991114   0.273622581959721
0.934764371289917   0.563111236552018   0.130980835358003
0.426701447117109   0.540185757457048   0.428570546143141
0.164664520886202   0.032351470422219   0.475503964939795
0.617177822388972   0.451905752877200   0.092719805405300
0.352135972231051   0.415290042276766   0.861078989693254
0.519196067369668   0.674149810769740   0.324394865775578
0.348605136034343   0.801869971617689   0.890760745808182
0.784511798762200   0.646058826919943   0.130888916408516
0.442467868261211   0.693734933102128   0.646680404593534
0.983719564594509   0.914521736318961   0.481298102695485
0.570763009492252   0.458349654209195   0.055459394495935
0.060467046823447   0.191059768477296   0.662125484822384
0.201604356912080   0.045170442049870   0.118350467289951
0.023020343405214   0.817384281718502   0.101203860596454
0.212457527447228   0.497426577598231   0.255325327028580
0.704606861440129   0.760874853427498   0.598498861128089
0.358724299473152   0.300449630496750   0.517040951534094
0.453327359844395   0.936300967571728   0.014734042292647
0.503270231632548   0.556237722359197   0.049049807350376
0.852845886076352   0.843888237195045   0.204352861893797
0.003847230005523   0.709700033352285   0.466506685533580
0.121835927385921   0.511871746263693   0.320638697097301
0.094557487469184   0.307121857474980   0.935240497281593
0.731665680233804   0.827953331386254   0.347454536876178
0.681573755945228   0.980153473933673   0.065506221364260
0.441385871868799   0.127557482217746   0.732278944470306
0.340364323877559   0.414250312314079   0.050743272010470
0.036883766198216   0.038645828746461   0.967196666591112
0.532999467629098   0.363832467575612   0.458192015563345
0.474020525561435   0.308824384565430   0.852828924295286
0.271186267131836   0.883090400530536   0.616756411861886
0.353133481708216   0.276718800613209   0.985120321430419
0.400274151824450   0.569441616316297   0.335644899865762
0.366518318916638   0.271479885116613   0.590204577807001
0.147787955232280   0.825586885462451   0.873133102902552
0.426752712257867   0.944397317571902   0.724066915103545
0.378514156484505   0.193646291221309   0.875926066923359
0.183160507324075   0.470465469812109   0.217309573026784
0.773580463701480   0.760483792415901   0.670871331961252
0.961815581267259   0.053767150170755   0.158499438969042
0.402157186168796   0.452366707058052   0.799927175715124
0.984661766673767   0.979668762154813   0.456942865571444
0.788137775115347   0.796509055078171   0.617499865584034
0.749242491000712   0.050634163800169   0.643442176155802
0.504443716317045   0.004922151382581   0.911745462468337
0.830874363531694   0.708856861558967   0.704163792206471
0.503531430502584   0.368084709268024   0.902588536797873
0.114663693883323   0.635953100363949   0.004441399853926
0.601731137127578   0.253421510953297   0.616767976124100
0.393450050006485   0.193892817077142   0.798086911974135
0.370262201985419   0.747994239440539   0.923805379697663
0.391467448360932   0.850384990144341   0.244027939139428
0.356011633188815   0.777742563229757   0.051043788914356
0.607639495740622   0.630710048729772   0.093703438185659
0.746605594156801   0.485409267484942   0.868899117526706
0.714727652955415   0.265734815654201   0.017885031908545
0.214708258727976   0.794867346704967   0.745492509180176
0.316989132818860   0.158089988712877   0.960467482545858
0.350248090415245   0.287439919231202   0.196237635470669
0.476529042325246   0.222696535966578   0.710477026859336
0.376625622275206   0.480196389871502   0.849332390469231
0.346801062710957   0.018622717895243   0.659377708749482
0.416901472490662   0.328314864769523   0.974414786905453
0.064447327654847   0.532643051658057   0.260083858490710
0.812951454541511   0.048498507487539   0.444973734367172
0.582894638869336   0.317728530673997   0.858418405254281
0.963768355044497   0.848720208106438   0.368498533340724
0.325933791662881   0.291003401137285   0.856646027119509
0.225440364099489   0.140663167246963   0.940733349025859
0.163131008141515   0.556990614786272   0.025054441587351
0.869900320319492   0.060463066165949   0.323682448238330
0.727647290879108   0.112151469535181   0.395781005730941
0.012973639900450   0.492919554986982   0.321355840337239
0.783061982843022   0.471964316370977   0.223376863079829
0.256608556175575   0.775298464046725   0.053333502464243
0.610784300457932   0.009688310726464   0.600632454833994
0.523423100645628   0.012075885288337   0.673190138190326
0.404739955859416   0.794315182795541   0.097356443921700
0.637016741410376   0.331883408188637   0.738834093166329
0.457317399486377   0.521632622617297   0.065362437194125
0.131546101592549   0.888443311982160   0.620135084220514
0.797785504230339   0.660659187650105   0.767176530762264
0.202424165461225   0.149195212533658   0.322293414221074
0.751992446187011   0.845784644060232   0.152896640330112
0.095570137577178   0.608793342088300   0.008777527987034
0.067970916000830   0.033522328955170   0.025679204367196
0.221687741445026   0.632701105177862   0.966826607896175
0.915263940381725   0.913248196152172   0.681889424139552
0.533013306009354   0.450337236614932   0.898378235233802
0.860360794409166   0.736729596517804   0.625612606808274
0.933504222776322   0.100979010022394   0.363082048583270
0.910449743474930   0.822228149845969   0.733017895987161
0.141257519526914   0.537635002442156   0.074252931156998
0.347070710817069   0.382177379051225   0.858329893372843
0.289235225712950   0.767815273018504   0.999873488280108
0.815631502922769   0.545331050241649   0.107821791784936
0.169653179625667   0.175289738984251   0.676396657646870
0.648683512377157   0.880042906616357   0.788509977092588
0.965595870243489   0.064735667197568   0.211941069013057
0.103438573693916   0.327854234796055   0.633331658520030
0.713460854481891   0.230474814637345   0.337409192924602
0.617299920922868   0.543423290705187   0.446509550875827
0.623932099554161   0.704512650767973   0.277773990807676
0.992828769843449   0.930762697590542   0.620290760525848
0.271858858322711   0.061649396359047   0.623851345940922
0.972847369490393   0.227028193428359   0.518643181331063
0.673386764809787   0.948187715654812   0.596777378189180
0.973678132738406   0.141091127267519   0.371574585615838
0.398862582355515   0.270116810171583   0.589380768706350
0.508882791166580   0.587826848204045   0.143624574791448
0.261525697253055   0.630256395622605   0.117226617081419
0.189072796077638   0.906854290219539   0.640827581490448
0.439326698170946   0.658282267359969   0.915453864914306
0.040136402031155   0.507792191952439   0.308045164856394
0.302952228300707   0.843480303289146   0.177204302231476
0.676881964877533   0.361323809166642   0.972987659254568
0.852554336483484   0.263380634378114   0.330812671865098
0.116259771772596   0.375497581157774   0.606861124523366
0.353331374703784   0.293053605686917   0.794395405470548
0.922232584132682   0.881066852230048   0.691019857304152
0.093702875126141   0.115302848755368   0.688255756704893
0.420722061331108   0.358127100206428   0.927405395122552
0.238340135398721   0.543275378354375   0.905683657778722
0.361064394466316   0.575454217826699   0.257573588723644
0.122123676571186   0.148840247373177   0.141442477311826
0.286470631283635   0.805074268081174   0.866365246895354
0.221467645822428   0.722548819644182   0.759344550654489
0.620716775182707   0.462907626336112   0.697578618824074
0.569473068405459   0.752275418872376   0.649415934391548
0.598086745703216   0.941180064511439   0.853549560546085
0.697590398823043   0.461831411586594   0.598789151989226
0.606145668108216   0.580909364637562   0.404605480175656
0.750715151100718   0.201710655125837   0.372171915818295
0.435138787666541   0.286064470238140   0.187633349509271
0.108744525863804   0.472451583702792   0.071183216761157
0.387281211420202   0.158964930098534   0.791446318149613
0.815911774057155   0.145922835053624   0.310426902883405
0.525757367310596   0.759535482972087   0.256527934263613
0.717074871491080   0.997781061768140   0.524427796254370
0.549623360839416   0.964560322439145   0.951921796910682
0.491578131998318   0.018416285416971   0.672281411599361
0.946867227230716   0.176819321575942   0.454264458943146
0.173646255699128   0.695221077143460   0.893444175367666
0.524032471963632   0.198705990023354   0.824995510084990
0.684909501394810   0.933185161394041   0.999618019235037
0.819087462467267   0.102425289290022   0.851976839317790
0.963369035919788   0.024567323747396   0.643782770059907
0.111474586152899   0.666223093484099   0.392442966120697
0.471800255310445   0.301280825830138   0.519172144371055
0.673177446963545   0.152917143013939   0.128886997000393
0.566125231389885   0.914783710219035   0.603457895100248
0.282203578858886   0.867866182638340   0.177416194353176
0.761025422560369   0.224885645136379   0.231435987508976
0.976015496322437   0.699433010888735   0.243748178001008
0.373972627097134   0.630132702753487   0.438890340289842
0.257483729674012   0.844896575841204   0.004283789789208
0.356310264608689   0.291565837711434   0.644164121133626
0.773576612708686   0.297879658473535   0.952727763085136
0.239331976871412   0.964395326933681   0.908834176160728
0.752233776569811   0.873953610551633   0.135923158176351
0.920133826394218   0.054992928137800   0.060519489613161
0.207045412850138   0.569616758684789   0.278623571231870
0.320016907760763   0.313907969868590   0.053936694058739
0.266201049652863   0.392412831683360   0.779927935112828
0.231071063722183   0.675646463819247   0.864235567850039
0.410791218431221   0.413191782834507   0.926358222262681
0.346344437589443   0.043979206116644   0.639600981694659
0.421011478712787   0.430364810031717   0.123473470933736
0.990123428563532   0.151181948855396   0.557791837877193
0.322464357602246   0.897678350650025   0.600040177515983
0.846678009244963   0.877801707475722   0.964014358584527
0.678380631824053   0.649506951259535   0.771269986965630
0.049675689063349   0.095796730505467   0.643399184012219
0.232926839261240   0.274910654739326   0.779661745104999
0.413776006156664   0.135573638559919   0.746161609696180
0.874793016104515   0.486710733045523   0.199047130234503
0.860876811751491   0.238636952579493   0.474994418524165
0.601892134518493   0.944210359481873   0.917188849860900
0.592970197559717   0.467912130252490   0.033637026642744
0.265865807433373   0.702388035606540   0.957866548870873
0.272378982645230   0.470212374020732   0.764113026598729
0.619428990318986   0.924638028346254   0.774458211892989
0.343635868082939   0.513933129753739   0.354241878630645
0.527715324053251   0.788572997460825   0.633294544127574
0.434400670816913   0.979293511191821   0.601101138091552
0.602567560781739   0.774702771842447   0.306799348892670
0.614943553491368   0.694994853820042   0.306195087966815
0.185075069817840   0.019290862523473   0.593105797515365
0.145655346232489   0.472645153004721   0.906321894917090
0.210805875212645   0.432674721089052   0.908775935504028
0.273872716321080   0.245639117552232   0.023563999888858
0.868408765587114   0.488799673525774   0.518319534059472
0.014268811272903   0.355324841652827   0.936875389955856
0.434840396486405   0.726532588434467   0.411939026527028
0.731333621036963   0.460800670345938   0.917970491684648
0.153428991849606   0.054943658511748   0.210506456503475
0.375558039610265   0.780004055829836   0.099117375533609
0.868867291954686   0.393966018454602   0.017684742827008
0.454523816120882   0.452364041026789   0.073981423293583
0.504271118296682   0.618342153784986   0.351585379355431
0.801513395132442   0.892860887164811   0.155839267424230
0.977856811026029   0.667129040484444   0.080730469345125
0.470585822167637   0.982097399980457   0.985927810612907
0.015841091039649   0.657877931793365   0.166974603341586
0.783199972417976   0.976049044338785   0.970624241101807
0.009579173778947   0.659311618581181   0.223247812917978
0.372865452377035   0.268520790752440   0.426306496776292
0.518288950826316   0.732579157794719   0.637792459192214
0.296169413802410   0.465441201283746   0.820502555740921
0.037500764012611   0.997577432513498   0.273003245328015
0.257483049129675   0.288071898449486   0.764218694785497
0.287711647000692   0.648559822208245   0.200487640540855
0.121671132127155   0.624447357676195   0.203585173680721
0.620531032458316   0.795685671905064   0.644401512234619
0.874725639262705   0.900625669313778   0.062768659583213
0.830783542933558   0.595817580763024   0.896235540345243
0.680163887284444   0.840857153530777   0.764642881324212
0.694170224225275   0.622712963473921   0.419457133342154
0.929807524752423   0.770543041454691   0.253640647429050
0.306428548057278   0.418661406732933   0.304863953599921
0.557028754816537   0.269532807477174   0.859026707566055
0.677495509566525   0.133812188703453   0.056472892519164
0.047759609347056   0.659530979431019   0.444349681249164
0.874522044308799   0.713364854097015   0.134899077666586
0.011588211985360   0.739942409678995   0.374731166076721
0.613235042252879   0.282298148084164   0.608964474653694
0.219832545656405   0.240695710017001   0.026427593464850
0.162502051537954   0.717376134225393   0.081328035947921
0.253318643449329   0.532679230707589   0.214617225921166
0.053973593445398   0.411646115501066   0.082296173446389
0.315149885636389   0.369575436726597   0.331128116551816
