Generated using phonoLAMMPS
1.0
       13.5619912627         0.0000000000         0.0000000000
       -0.9803880352        12.0243428671         0.0000000000
       -0.7624232667         0.7589680312        13.0565140009
C 
216
Direct
0.911391813081691   0.660659671822509   0.876044708351062
0.603424902898829   0.244312443045561   0.692241288859873
0.545837694124495   0.576372920395776   0.434539917745955
0.903875472311633   0.799952657724628   0.414344442906207
0.048412297229996   0.747520335271718   0.782593171446503
0.853643449475064   0.752229283523839   0.499634167247883
0.420230596707981   0.066572579357947   0.096072567295798
0.029703182673073   0.193788540339683   0.456873442604114
0.809362091856580   0.128985339066792   0.284949246004220
0.755591603331609   0.628795614000379   0.777122737301901
0.946458035401094   0.857488407791168   0.242082238779978
0.222973155201013   0.398406313787877   0.041721286398686
0.131287760694878   0.961263608789643   0.225616594122822
0.466494980802439   0.499631087911456   0.905128244735569
0.305912441342318   0.762613244603045   0.120901814212522
0.467825479740700   0.472331339932238   0.083219396840926
0.925861856436972   0.483179976201512   0.517452519067057
0.249923906038787   0.387863633158112   0.151140370229295
0.790278714798973   0.283383549763796   0.822140457955322
0.167761829717650   0.654464172293703   0.355942960707556
0.610493324015196   0.311595020070069   0.478338952462311
0.669863089360702   0.488970392863677   0.107844469044566
0.190260934352492   0.868026808880002   0.549470353227935
0.566282588082140   0.513818282480390   0.948452082933193
0.379631100792311   0.818913559987556   0.888564535618029
0.934690455906439   0.224780748214512   0.174719405948843
0.597453503686771   0.109996131608575   0.103025116038422
0.988970962097244   0.559418249542534   0.348641102800198
0.974657615036521   0.651572639478267   0.968886013458723
0.864057049937020   0.385791544696589   0.678971340235910
0.402418702540217   0.468095377472461   0.988006063418673
0.339491535293628   0.169244032059029   0.598176605138373
0.059981029180422   0.139265186053161   0.631924249415370
0.455566002926787   0.556533409778780   0.606300588308206
0.685334165373739   0.332969714349076   0.557686586136091
0.659075793406744   0.792254376513932   0.040237846102243
0.260361153898672   0.455355401721833   0.859817919180124
0.956102216785980   0.406292707131004   0.736750471782662
0.758197335503345   0.699209586067866   0.492738067722865
0.479366881659634   0.914366740118788   0.295180562724042
0.065037746906062   0.992769123662512   0.047665208183218
0.088557507087186   0.296794431533728   0.196129201854606
0.319247144827052   0.410286859732967   0.316310074780705
0.540734393795194   0.583027278286855   0.541031503471223
0.657433498302752   0.589679340447738   0.792614858704754
0.845615875814991   0.172857803604019   0.192630791023288
0.473169405512593   0.819302117644423   0.945629982026514
0.873655158804510   0.138529232760082   0.370408853363664
0.305895930954712   0.047315392150118   0.243734663768647
0.559883943932126   0.296683138330594   0.236896976466061
0.512623783048947   0.172471406109906   0.836187760320054
0.574632828492181   0.748479925252131   0.091769820023737
0.713989575514369   0.691413303394410   0.389156584954434
0.065748147112926   0.036532822172122   0.944939537394863
0.692372011749371   0.198273215356246   0.959103555446485
0.788368427501509   0.665547524076769   0.681565685096848
0.514878164110908   0.052853338410391   0.149652938745006
0.827360227058658   0.848414190121098   0.078305781308052
0.955776380732945   0.270894632256944   0.073710589360503
0.081657262941275   0.595397506013746   0.402297900468527
0.331448938509883   0.453405687241974   0.495048319907937
0.649645641478865   0.959537148678832   0.635048790927537
0.830391534620812   0.093862604241461   0.462358873860502
0.336373701453434   0.788413395931772   0.289442976872655
0.962387999311632   0.572891430783165   0.242241995817718
0.282693959287029   0.779406040411928   0.930814090128672
0.919910730009264   0.758181830581885   0.588684668010939
0.079054716455624   0.386362122573017   0.896443353807394
0.481526921149048   0.790115342070379   0.057274589446192
0.407518752207788   0.805747752946558   0.130620988104669
0.244258684808807   0.165673902875495   0.643278699001973
0.747314294919611   0.898511347112859   0.900651100223951
0.443165260306911   0.171306940398214   0.343701713925376
0.571806546413505   0.488350312523247   0.055923848199425
0.984954358088567   0.143117191884176   0.550399934431552
0.240104490164559   0.070461480752544   0.967586309724722
0.975282363957926   0.194684963866594   0.359001884398615
0.971337414218190   0.944851273066967   0.061995014668096
0.811201663700517   0.622864348237159   0.872876458388082
0.732200073152333   0.037791540245806   0.479291250296108
0.421129435512965   0.101957138691768   0.988242160128697
0.562796968680610   0.850585339140870   0.891915491316999
0.107572098140174   0.735529302611857   0.874576529325736
0.204555430695661   0.779068475897459   0.859487754482280
0.198586986775663   0.514786589555870   0.657556528443059
0.943997888713132   0.612630762841363   0.065362313856606
0.973951031679417   0.364173903588202   0.843220127458302
0.074004487756602   0.883974508703287   0.389603263141246
0.817774044516578   0.470413354735443   0.360441022747389
0.826938144760100   0.897640511183889   0.974033413445837
0.851728149258858   0.425473978185651   0.575169384376438
0.865474990571902   0.536011269721868   0.202157687711901
0.888842731517602   0.711327342911554   0.683190644101873
0.294653375262930   0.851696048059241   0.711658037463867
0.911041394300172   0.505617018064629   0.408825737837225
0.181756031817467   0.571446989058725   0.561391963390438
0.744706873890092   0.418132663426735   0.417637407628416
0.145187245279567   0.105556743288989   0.795392100776987
0.972218476128214   0.018187209606639   0.891213956435685
0.658106365710135   0.938155917589570   0.742788972564307
0.846946818068061   0.012539430040541   0.743139098945643
0.879070707551744   0.264753124852399   0.991297868566436
0.648496826848744   0.555130807086565   0.896951559902799
0.952931377434262   0.042919946497161   0.786219989446831
0.631487148565215   0.371249226783535   0.274986559946438
0.132165186618348   0.226651513615230   0.484425764761100
0.686342316594747   0.122020513407321   0.158275612453489
0.215731369162357   0.000257376081115   0.285067540213524
0.479128301617798   0.899964621249729   0.405190223028546
0.006283975671477   0.239222148610368   0.255097574266026
0.229131644011908   0.993576506390279   0.394561444168397
0.884125268190820   0.304291572995527   0.885684992119863
0.262920826928304   0.364926623438224   0.507219780834571
0.325359634278713   0.776988868094064   0.394508982998444
0.182206449825048   0.338296354025043   0.228735258109028
0.297960538421650   0.506753025219831   0.676561745301318
0.144707950030175   0.995495622305687   0.117806167089774
0.850537870102980   0.562891967965154   0.097994008960723
0.112099725670647   0.665905492947729   0.153432240785091
0.619446225649069   0.630434900883583   0.367361291817201
0.015573180491394   0.507216238991047   0.571158226421383
0.870989692687103   0.800705400037998   0.313134604666926
0.643789752220777   0.004383807310960   0.418589288046049
0.382644007847900   0.868704324439837   0.557543052417989
0.511044817885981   0.141158776248994   0.941343661803816
0.694255934833479   0.447559663637672   0.211346544706327
0.561331339766900   0.929747223724999   0.574637908670172
0.999270009316962   0.838072239508522   0.449519124292704
0.495609502442502   0.222969571936800   0.269724941876312
0.382830681108913   0.852240861804046   0.778640401205040
0.468339584443803   0.520266108437531   0.369096218153468
0.358394932319495   0.096990255630267   0.327269451838788
0.147316115947782   0.696998401838908   0.051416221585159
0.238978886458884   0.136702145309346   0.750952676137301
0.826230740620690   0.041086448701879   0.637826839493754
0.562024744458276   0.944592897030772   0.466258553361208
0.104515368798656   0.826998766556005   0.604788688577647
0.416626411371729   0.841100923367290   0.236153967267791
0.288628940376572   0.863736796194064   0.601282131620955
0.652317848714787   0.365130681042413   0.384192031629134
0.176623173559443   0.684594541648266   0.245489122883724
0.782760378514924   0.320250395185776   0.719098173475157
0.152323933530590   0.075525773091655   0.902026015457738
0.657596007541007   0.843792824570555   0.941125632703567
0.030889487926609   0.466687853832476   0.678841917481882
0.565737736370933   0.894388487564714   0.788877191820880
0.427027408259838   0.188548706825754   0.664151994889467
0.471015067599443   0.893130749984807   0.620864539297490
0.011072770321303   0.810876148438977   0.554805012999693
0.919276540313580   0.878084202708531   0.136048919326978
0.732753842086484   0.009560854977039   0.586668725624006
0.540461037582221   0.001534882619744   0.250197662237778
0.715556388014991   0.740664700795145   0.205738043846530
0.576948905287831   0.618969047002622   0.264534784687698
0.167420766166125   0.913544495708979   0.446237450486277
0.331484940347308   0.102901778502758   0.924084223336208
0.113653760583708   0.801425142081030   0.709437403380528
0.519082932415993   0.227643188132789   0.623318315243947
0.352048396999825   0.535013303950755   0.579386689240218
0.377081615433437   0.462197332053115   0.397339762331844
0.207846093322695   0.819192892608652   0.758149831518403
0.769804225934258   0.744035343587582   0.300666634273850
0.720997640972025   0.658537422757675   0.591484818188658
0.236843622298078   0.037308656193870   0.074344014101550
0.489417226604481   0.551267417689665   0.711885568334649
0.089739067811932   0.565985986630117   0.511297831836264
0.448182686855219   0.189948224511459   0.453325143265040
0.743169702252875   0.791204398260236   0.109351690650474
0.329529120371992   0.488163399610130   0.779410599130712
0.127045020165591   0.474556325871055   0.725436968807073
0.057482722523077   0.314034219930066   0.085788708986395
0.771935038642868   0.171104512331759   0.116398773048858
0.433941221827886   0.479509101720614   0.184048190798429
0.154380220421119   0.436970912664564   0.829128088803319
0.473587120662599   0.884130714909549   0.730058344772804
0.692608679860928   0.295899788992622   0.658365876175484
0.623079416880586   0.614567366285676   0.609458348488079
0.394716516504149   0.846400823235355   0.453890788888328
0.614709493979490   0.695947198127798   0.188741971235977
0.948872754922050   0.707079885392708   0.779008692465607
0.754954270830918   0.953271016043723   0.798469017019503
0.789169257783927   0.483887783164366   0.256101163738614
0.782927840667086   0.213727384757852   0.018970648289653
0.706813664298175   0.091687432239169   0.261918433952912
0.423398608397312   0.166327401473815   0.771717848983691
0.230207119853211   0.343804174483657   0.330881086613334
0.915911389675406   0.958041544538431   0.965320352670798
0.743352976284833   0.572306676418556   0.946990107707747
0.492207437028473   0.536128085955301   0.265071894363337
0.357988377829128   0.144234328890745   0.496121247183857
0.269173973095569   0.616116391911420   0.517945804640798
0.604529640004593   0.213922400789186   0.796165017651990
0.754876401134670   0.540745492601121   0.051230211981076
0.433421659100022   0.513162999525769   0.800724565475849
0.591641656665340   0.587411095884618   0.710996124950358
0.525162749400353   0.247087833444009   0.512547098677235
0.296863464810565   0.441083906574096   0.966593234544080
0.151611710811572   0.180977409909297   0.588381886579408
0.696048675628540   0.231257904975730   0.856950086311610
0.247981947736777   0.743413243616231   0.032803103414164
0.308226421365146   0.075477748597085   0.419525617605314
0.339350391065473   0.426973779306450   0.210055635816034
0.048894308975137   0.900957593304785   0.281047133235338
0.600971139683025   0.152292473907227   0.000676823844358
0.076909764376061   0.689666461325791   0.966812665243561
0.047879660410453   0.095709086201787   0.735130373186777
0.267210993618017   0.740302931459497   0.219237648717160
0.207651801113501   0.303336993047691   0.436202524625441
0.629222227303324   0.033158765131374   0.311425480776853
0.330476855314494   0.134066178327340   0.815875569793416
0.765049487895001   0.397442260699817   0.521164424863402
0.887258201387647   0.096541455897047   0.557245175051969
0.117933750386522   0.365809885018911   0.006199152223512
0.013105741775662   0.620243243557560   0.155089889985981
0.255314854596717   0.684095544887495   0.425657157003539
0.324826929647761   0.048569009480670   0.138897828308153
