generated by phonopy
   1.0
    50.1696333841999973    0.0000000000000000    0.0000000000000000
     0.6357107091999999   55.3785936032999970    0.0000000000000000
    -0.0164175947000000    0.2159121619000000   49.9937095183000011
C
14009
Direct
  0.7410575732514065  0.3397830887875539  0.1741616240101735
  0.7132907048345968  0.4392064110496796  0.8771551025624146
  0.7188467466415766  0.2828338085333574  0.7187666437683840
  0.5819206812537823  0.4200100860629194  0.6982781021124570
  0.8047187856637441  0.0368376195488772  0.4566882977875967
  0.8603032863308203  0.1423560945018018  0.6732696498082257
  0.5434859771552633  0.7162776562872543  0.4298741883142979
  0.3375383563723977  0.9783162803768677  0.3605174105634736
  0.0985968125630115  0.7761602598006522  0.8442928821784957
  0.2507053908253115  0.9344167140851642  0.3611099711132995
  0.9183030236782187  0.3870414987228841  0.7698484103467411
  0.6776600705918021  0.7348715781951695  0.2885095492808005
  0.8226503637284603  0.8946787197147004  0.2609453534394102
  0.6170163652337459  0.8647676585397516  0.2398339954271855
  0.9080699738788737  0.1755225661633982  0.4624521349338385
  0.9310847234248459  0.4683902651013161  0.6265736029956670
  0.4634562996999154  0.9313400542413455  0.3080957974195103
  0.8137773306813553  0.3973015550836170  0.9227045911268998
  0.8627108362208489  0.7697865655760608  0.4918158511722314
  0.1634939427313062  0.3183957137871037  0.6396474378100399
  0.1918680864466443  0.4757899342625121  0.8215400576539698
  0.5053488459439150  0.9881865583521077  0.6326937749722633
  0.7741502970436249  0.3953917080632113  0.9970053708808065
  0.6391748042113946  0.8034470093147561  0.2585374945075593
  0.8554006223721059  0.5427602620274172  0.2093505283133448
  0.8780515246581722  0.0498246865524718  0.0593309422041236
  0.7491769426460855  0.0500988251523305  0.9844141247807431
  0.9841397237527811  0.2341203972514680  0.8879183306802048
  0.5733822942179836  0.6826523655349813  0.2086852186109747
  0.4217565653858477  0.4861990149602188  0.1697071617959127
  0.4466304277514695  0.2563476608241366  0.3542828221921925
  0.3427668227973202  0.5272650930727064  0.1567831530311002
  0.6996574480585572  0.3885791811829541  0.3179095700866577
  0.7629510945053111  0.5159946186805123  0.7318615552344027
  0.3407316109754845  0.3794657140253684  0.0435827075244824
  0.3783530658972907  0.8272659629484461  0.8165896468445978
  0.0273679084272619  0.0117206932654739  0.9350323720805097
  0.0218454889791084  0.6118972862092644  0.2338449099425326
  0.2519734274810460  0.9763467371919873  0.0636607267327304
  0.9255328883224604  0.4493823912491489  0.0102689098877946
  0.7709238082548715  0.3413709685524598  0.7655389261721144
  0.4231317997228005  0.2267291288877227  0.0714355928857955
  0.7891916257842541  0.9178113946582365  0.9915257614931550
  0.8876236770544219  0.9696190552240231  0.0522962237687719
  0.9070631813259222  0.7164540524923753  0.1736659540501173
  0.2531154520303372  0.0764814642327478  0.1546766230093292
  0.2883807834641831  0.7870757887422177  0.9006489423137950
  0.5246237895757457  0.7604170922020519  0.2029393877300945
  0.2763833044240649  0.1081186822036514  0.0411363919544159
  0.0104577257257214  0.3727736230183717  0.9191173998236748
  0.2418546620285600  0.9075301205134688  0.5190067680515321
  0.3263770536723527  0.5998305944534944  0.3576078265097687
  0.7261738674218494  0.8469224435907112  0.9937003130726935
  0.7426180584156078  0.4345883896878653  0.5765051939074446
  0.4292721291422373  0.6256803312538795  0.1204152173944284
  0.2136439354400819  0.0499643888815934  0.0538271831782149
  0.0371605158731886  0.1066176383081873  0.6990525955511931
  0.7388926648211711  0.4223660456440663  0.1237040387598407
  0.2208456917390499  0.3973803120322263  0.2753758449342636
  0.6739844992122932  0.0382035628949970  0.0490112096823520
  0.1908346840865993  0.3303311515131708  0.3322416171962590
  0.9527129843644254  0.8979378285085855  0.0190856038728379
  0.3712012626038753  0.0391439191153358  0.3693455272255998
  0.2383201100601393  0.9966678419893410  0.9356833779833240
  0.6052607304866121  0.6629343788483584  0.8681134330332805
  0.0631701440829686  0.0990174072953860  0.8953129829987065
  0.5711063528197873  0.2241102221336284  0.5463901851492148
  0.8563316608860774  0.6166071970113467  0.5567612439283239
  0.6331713660550751  0.6611308085334034  0.8636124707688653
  0.8410900122339436  0.9158810864367678  0.9340267055579725
  0.0001874722428662  0.1801565911969331  0.4966586884478166
  0.8316200722532308  0.0643275706140848  0.2673756724354896
  0.9434314263518513  0.9036360834641035  0.7802615984261222
  0.0866880487804566  0.0123369222346499  0.1354309039124535
  0.5177781836816532  0.5739699586581493  0.6425910321425655
  0.5351789444796188  0.0998219811204924  0.7584266833834523
  0.5839132685174475  0.0137288485104569  0.2669139903514356
  0.6713544101819410  0.7953573377002934  0.9419776278605974
  0.9183156060419496  0.9826153884666343  0.2234743672283494
  0.9551506585113081  0.0429750349546185  0.4591874922103323
  0.0009852873153846  0.1217801110388399  0.6027097346911298
  0.2337545021609807  0.3298492870299029  0.0322093168423633
  0.6343429017896706  0.4425102319460059  0.3611501041624237
  0.0717704446365320  0.5205502922734424  0.9442400664971742
  0.4970866856499650  0.9201487820646230  0.4323297152432421
  0.0192308746099232  0.5837371448734756  0.8970901925887946
  0.2876683452468218  0.2373122507867665  0.9625683183678337
  0.0153667198331545  0.7276229160559873  0.3427237939550806
  0.9223992919836324  0.1250106156971106  0.7464308901971020
  0.9842838388776949  0.2672132087040850  0.2985297779220985
  0.9245490294116470  0.1324468702281293  0.7763466778914027
  0.1699081947234274  0.0330151568574024  0.7262913504489774
  0.0014485004930109  0.4179383766168956  0.4950239447813142
  0.8514129617636543  0.9160398649364123  0.8416033338073995
  0.2456205838842878  0.0076744657912005  0.1891498258703639
  0.1298769805965292  0.1260558819325730  0.0268617714696372
  0.8331348921393877  0.7022366576274558  0.4694391599689010
  0.2804001798848303  0.0856510647633525  0.9119804139220907
  0.3148320774265581  0.9443727073298526  0.5786502697786549
  0.4767273257952204  0.7022929525597718  0.6345881052972682
  0.5348345068056354  0.2458878838693601  0.4887006192460429
  0.7607269014778320  0.9770871427442250  0.1659142618125540
  0.9347494308415351  0.6675544570436406  0.0402354144027598
  0.8535368576629628  0.9153754778707551  0.8702141413226213
  0.1688837580541152  0.0785260905669178  0.1740037379465857
  0.2356743462979186  0.8977436173174315  0.7528985638927624
  0.8256743819211815  0.0597991210756469  0.5655443169235229
  0.1346136593080605  0.7394826237850473  0.2498483653313978
  0.0365503102226587  0.4111112503271272  0.6887256423209868
  0.7641108023965254  0.4951718904562584  0.3878031413712800
  0.5410486117589534  0.5747827216870233  0.0397029302111186
  0.7136108912062827  0.4623187613155667  0.9511367961722103
  0.9224175491650486  0.4817399658433947  0.4642351232509462
  0.5083360236354169  0.0820815630371578  0.5623521953238728
  0.9832128277804246  0.1434164229683846  0.7036636336642104
  0.1456253926076099  0.0978978320488151  0.7716421940220090
  0.6411557466248129  0.2512727914082660  0.4247305952007309
  0.5462124305692834  0.1407623564164850  0.9161530208762444
  0.0735166824348975  0.8774384279735632  0.1640819350881995
  0.0495018821166178  0.6312151231545150  0.4502572607011747
  0.5108568708953721  0.0877980829994067  0.1399843443791321
  0.8296736435495352  0.3498924020291576  0.5733283482296526
  0.5546360953797050  0.5080080615334369  0.5975194357015134
  0.5003367440949210  0.9200315120311745  0.9532093569203196
  0.0918640347107909  0.4121279627694754  0.1126061497384847
  0.3327602871767973  0.1519519924772220  0.1082266565560503
  0.1041648080529032  0.1227920558053079  0.0159820262728760
  0.3852781967039098  0.2940388464646966  0.9577543767275980
  0.4555259759116423  0.1321543994791462  0.6454889207248674
  0.5506607993224372  0.9248312793839870  0.9764810167193214
  0.1896295538302191  0.3119628712412376  0.7797440993197491
  0.4215923937049781  0.8482348831864710  0.8827498284328287
  0.2717008837968974  0.5875090912403631  0.3512604259456269
  0.1781987262526374  0.9427498334145099  0.3412638042743132
  0.7208381869742049  0.4305339004837614  0.1039848448952778
  0.0245442409752041  0.5139210815781665  0.8855984648187297
  0.6061038318483496  0.6691760701928414  0.3270717087719723
  0.4423568708685259  0.5486137209641370  0.0291123088089161
  0.5510702023422726  0.4169294015827180  0.1093769256709867
  0.7364360345931297  0.9739672744486069  0.8839841337203251
  0.4485520000008521  0.4230052799086015  0.6556124983684656
  0.9112369627670179  0.0990187996393655  0.4000804999812732
  0.4302553095599088  0.2882983689381482  0.3053250428318897
  0.0665956619135028  0.2446430865466630  0.9851493792828429
  0.2208436765575380  0.2677043554972044  0.1594212701316471
  0.9276598139774006  0.6659924121808476  0.6712116708946517
  0.6440068946331983  0.0056608064369675  0.6123878742943309
  0.9128132160655914  0.3172481760559239  0.5678396516987509
  0.5254911506591488  0.7120148227257623  0.5140840227227440
  0.0147979626430411  0.6122184999994914  0.6439419200972847
  0.3506093902639451  0.6722278068489312  0.3229210205754095
  0.5210291792986032  0.8298962162557836  0.1742533015440905
  0.3747075808652497  0.9596580940259297  0.0603185698571971
  0.5689962817908522  0.7535226144651715  0.2171237702620694
  0.9644388069953684  0.2479557536209726  0.4862768623140704
  0.5375971786833277  0.5100451379540919  0.6941345248105133
  0.3457850346396534  0.2878228108869652  0.8463030730798772
  0.2334871281361905  0.2652296268235429  0.1127712509098027
  0.3209709489476764  0.4721527693484938  0.2808089504712827
  0.5625008342127966  0.7820069291875837  0.4678767173985730
  0.4433098817818202  0.1752162250922775  0.0104689698372636
  0.4864239425433228  0.3179232306288506  0.9604920451526605
  0.2513021668027954  0.3977373909708425  0.0849695747911056
  0.1452226924656814  0.6022955092998022  0.5882631171674665
  0.0567365583018377  0.9703100342670057  0.8299766050529104
  0.9244769189966763  0.6641344927645924  0.1403011622378709
  0.6402026012029071  0.1765592919139881  0.7705468962229937
  0.0109280625360599  0.0911455441041632  0.2533312335097686
  0.5756713872794084  0.0858245041406007  0.8782593454868128
  0.4827261667862250  0.5171685485706179  0.8339100619196791
  0.3180191302511191  0.9605551015907191  0.8270784464366355
  0.6195579862531461  0.0822444216747622  0.4780657792807192
  0.4586534307705026  0.3887816806376505  0.8147021733822523
  0.3200474834105797  0.6444986202050325  0.0132286840759019
  0.9546803913302863  0.6527132177896016  0.7100988252733115
  0.9074796939889127  0.7768981447009929  0.8024757471800467
  0.7587421081107854  0.1850956182144855  0.8920529508552557
  0.3757748842046049  0.9162993221352269  0.9498326480978185
  0.2498480605356763  0.6339297096267265  0.7802850753797492
  0.4242509382327315  0.7797928302561518  0.5195333022946125
  0.4486188592993234  0.9118990801011804  0.5030098114802808
  0.8223760335469725  0.0564157727476207  0.1444193227421367
  0.6408020252246655  0.5894445705426991  0.7208305214240764
  0.6420485887634135  0.5124594897801015  0.1122209934821171
  0.2909408908012424  0.4353330883832845  0.7721858504192213
  0.2032748124911661  0.0119062185944093  0.2274955411307663
  0.3158807466552188  0.0810100213889075  0.2725363276956391
  0.1079905010538219  0.0956219087933522  0.8606704306318723
  0.5817896164393964  0.6632487435783330  0.1643963506447055
  0.6524829788044314  0.8710802658711514  0.8749570140216998
  0.3884716484837248  0.9011349600786459  0.5812866814646441
  0.1005009553514269  0.5733056032926244  0.4082946694029217
  0.3850743871444647  0.9827368541747165  0.4815547802306518
  0.0506854332184000  0.8584352452839314  0.5373625813896900
  0.5106485276186925  0.3523571720454992  0.0884506269410025
  0.5719454382283560  0.2173919915846153  0.2328032148872590
  0.6224362730023127  0.7880361145186872  0.6268042900183168
  0.9134813648759926  0.7757318760201706  0.7745617073249090
  0.0831521673186132  0.0467377005614585  0.4720902415004982
  0.3492049898899702  0.5873412115893026  0.4571569107436212
  0.5039928459971148  0.7135807990422952  0.9797517882138861
  0.0255616092117816  0.5493151509334935  0.5099295720528257
  0.3418253316751440  0.6436158511835146  0.8143373634856527
  0.7861647475039553  0.8489535411668285  0.5073227680917735
  0.5149301078915302  0.1425302072587158  0.1891330977658072
  0.9970853199674432  0.0324765521064477  0.3282361152655272
  0.9983283886402301  0.1650513651075372  0.7707630574181544
  0.9219848315282753  0.5406006990809196  0.5880969502620690
  0.5274218011220201  0.0839072914904674  0.5173087204207811
  0.4522477463653657  0.9158623951468270  0.4549976330856894
  0.9061933760072024  0.1865613697007089  0.0241576260620932
  0.8343168761738551  0.2639447323060736  0.7862416567750744
  0.9404234728879257  0.4984126598848125  0.3682894043551680
  0.8648382232906792  0.9806251105946547  0.9553460137323311
  0.5338682251408886  0.3038093134673691  0.5015451452111535
  0.2093941379975380  0.7265618181354283  0.5886224503750459
  0.1335342619969349  0.6842112676381970  0.6421262676707175
  0.5245425441252197  0.2898594742897511  0.1490294523408542
  0.0508687347487819  0.7764924912045352  0.8332642866749319
  0.3543428818058960  0.2997240102698204  0.9897512962483321
  0.1541126950154083  0.0643773077558558  0.4697778745824626
  0.7863135432268139  0.2683871502504644  0.2181302688892933
  0.0393438220731891  0.0398212579459893  0.7131409740049299
  0.7824126838759196  0.8506901875296452  0.1417971188436240
  0.6970194530049435  0.9669466751825206  0.4586223311076209
  0.6958568205441206  0.2369867673498076  0.8847094109671901
  0.9467946332896426  0.9104986434169123  0.5701797841099531
  0.9386563669637485  0.2667992848485999  0.1344756611337092
  0.3588782599971485  0.2537908727733911  0.4643073163335315
  0.1600347922575160  0.4118146757794949  0.4187931302104335
  0.5203313306476560  0.2615515248006815  0.8838872255283410
  0.3710240050995380  0.9719461731790312  0.5263379803886730
  0.7535756169126355  0.2553614929625371  0.4640487057978346
  0.6687154350778655  0.2468280865204459  0.4983601005018444
  0.6930199539963109  0.6361700315700772  0.1472458003402488
  0.1988808657912063  0.5048971758174525  0.7126175181491404
  0.6199522253806682  0.2253413812872934  0.1425539136557023
  0.0019077329115926  0.4129552002999560  0.1573162248966765
  0.7710889928271351  0.5228903187077470  0.6844822444606551
  0.2614504085857040  0.6654421225831266  0.2387944546429399
  0.6098916044762882  0.1008944480619403  0.7170284090817142
  0.8347436431243597  0.3996352887793486  0.7745883866814290
  0.1703210140966426  0.5558789034392927  0.7280595609068879
  0.4184119973500656  0.0990103976351601  0.8128584574250224
  0.5664712420960276  0.0211400011916258  0.4165752611811427
  0.8022665515025160  0.5995400015511783  0.5534528677027220
  0.1320802179429877  0.7865474072846502  0.9099634801723938
  0.1180727089532676  0.4048369592197534  0.3456639918603029
  0.0767175412984109  0.5313197842984073  0.1707027136459266
  0.5408418129434308  0.9061143450520782  0.1546065165892661
  0.5177748887642118  0.9189298658887151  0.5310340371978615
  0.9069984795438588  0.6558996481459171  0.8744599614877024
  0.5330980385916857  0.9017217009764590  0.1096991394085791
  0.3886337137971533  0.7184708226662659  0.9231582602028402
  0.1157779899325396  0.8273099112340252  0.7317301647042083
  0.0569879114618418  0.7724942364447512  0.4605860001561051
  0.5850344199408245  0.2257206080990380  0.1087292905922545
  0.6864350712687921  0.9248647632687841  0.1968681919151711
  0.3184697295277474  0.0908348692920455  0.6039114578794842
  0.2818129609690201  0.8959632184959282  0.7193348352523465
  0.3935761087943267  0.5097113164615443  0.5203155287062311
  0.6787224842222869  0.6607681521480924  0.8063113937413366
  0.2318077686111316  0.4893062797111790  0.7914745831276235
  0.4725442902431282  0.9601814753569895  0.0678872864746646
  0.8224897208041118  0.9165071472057028  0.9104478351089111
  0.0800725639648427  0.0330303070930234  0.0107554242559892
  0.0286070357050626  0.5690638781184001  0.7118110346857509
  0.1121885016495440  0.0955671860183396  0.4095089081658561
  0.2831009803492373  0.6074765322438480  0.1607380381937550
  0.6813169240690855  0.6393671396606975  0.0991093287083708
  0.1105380681301523  0.2660466484076317  0.5707435710397804
  0.4284180246374897  0.6276110838519913  0.0718386879990442
  0.2667719555055300  0.0331411897845405  0.7021195474032831
  0.1318430401984857  0.4127136759256755  0.4191323248843913
  0.0797082743217951  0.6355591417664861  0.4881618354618523
  0.0065751713621131  0.0232680458408768  0.9886861562434579
  0.7835511281225629  0.5642034599125521  0.4136852835941202
  0.2110726996472182  0.2390818511848655  0.8569800963522675
  0.1048218205647173  0.6532528688570841  0.5260614055928992
  0.3611324453256158  0.2323401364156956  0.9698008942955643
  0.2968415305833247  0.5041413281577951  0.8264854918372343
  0.1559074047068963  0.3324965964769328  0.2656316750238136
  0.1058647844882771  0.6634435806204708  0.0229610507213875
  0.5850776028695766  0.5799776584006999  0.7192311682100340
  0.4317303756647978  0.3809482412443078  0.8170895177331713
  0.8945520084347260  0.5266318200483837  0.6558813441918602
  0.0124799153593097  0.7644096889887185  0.4882392271984783
  0.5166359271681831  0.7156651305595457  0.4387760182502641
  0.5786550007911794  0.9273033744351430  0.9817352497524563
  0.6279815337064005  0.9850203809753941  0.0080659235708923
  0.1549162048968679  0.0798530833691976  0.4252989147007991
  0.3301788488504381  0.9063763436854246  0.0097484615103747
  0.7854841583517889  0.6210534912572636  0.1598534397027427
  0.1370668681169253  0.9040382540880774  0.0509643594074041
  0.3263792341402810  0.1577354624226940  0.7909346011926940
  0.5328641815394352  0.4188293026698636  0.6218818667300445
  0.4332412417064924  0.4022772123071124  0.3049834858607322
  0.2869727519037319  0.8270854649457675  0.7249321214448738
  0.5081201752032038  0.4159812743376533  0.1339816229789497
  0.7466764868071868  0.1193523707446429  0.0783171952576713
  0.2284760402996139  0.4745918893991342  0.9787259211499262
  0.4155298621156239  0.7147368539229275  0.4462538490334180
  0.3775643043122447  0.4968937397974525  0.4006736766086076
  0.3879183386874421  0.4581169048877051  0.8689005740632053
  0.1523087530030308  0.0006657655239504  0.1088346784510624
  0.0586098183179384  0.7441849364240999  0.2570602766593225
  0.5192921208129430  0.0086062920053391  0.1934651537801888
  0.8135145404236965  0.5010053571244339  0.4458824083025956
  0.6487735873877729  0.2479405667480371  0.4770371218657063
  0.2139257959025559  0.6041550307376894  0.0095857471393392
  0.4720704396601663  0.5824897280696829  0.4914390657689978
  0.5798673244174268  0.5149729920012336  0.4528631385457125
  0.8689916190980542  0.7692112152384618  0.4423517201080061
  0.1418646257062706  0.5939137517731259  0.9357499983648098
  0.8225821130992191  0.6509555834255002  0.0475452220469842
  0.8099246384756709  0.9168542912595422  0.8591193254879019
  0.9237101615094682  0.1757780672585260  0.8302711961153040
  0.5610821320439289  0.7051848261686358  0.7126749833788198
  0.9005730640209123  0.9125177793719054  0.8658870289301951
  0.5064894275317362  0.9610995494027798  0.8446589562341387
  0.2172626102230744  0.3829589476172796  0.7079238696429397
  0.2029277983027729  0.9573934299925236  0.6795088367580523
  0.5589184024397765  0.9386921851568234  0.6444072366385885
  0.5005632115084950  0.3938009751191285  0.3825288838188677
  0.7472307201763984  0.3241987435850153  0.0416198523783949
  0.7255905455592235  0.8503512307620997  0.9442699742598588
  0.5178535494854006  0.0037532180487242  0.2961447998688825
  0.3605019161209799  0.0221985824530953  0.1465709642393660
  0.5210846297398389  0.1009444078156162  0.8627011161116694
  0.3147450909662947  0.7523657978500158  0.6818001290246938
  0.1123642482599959  0.0263524030290986  0.3806188195143766
  0.1716321017806427  0.9605261847142330  0.7238298667706167
  0.7962466253240733  0.0752439155363453  0.7082120759020636
  0.5961796493164000  0.9403326547024501  0.2415503733640655
  0.8633035594850378  0.1803871636269666  0.4432092819975535
  0.9538927494291434  0.9883997915955939  0.6464259466117513
  0.3507428135217486  0.8985159086261398  0.4528709695309259
  0.4622987574024111  0.0893988628121160  0.1469025989622091
  0.6546836195644092  0.7153083747874696  0.1015112414921390
  0.8714207400154962  0.9283709930988489  0.6194410676540061
  0.4721086085651716  0.5707123106176706  0.7146989060077851
  0.6170143578398786  0.8525943045244500  0.1928696414590017
  0.9210393825816996  0.3834271419796437  0.8202234940175805
  0.0905873647285058  0.5858337934216551  0.8798246164129752
  0.2848964652891326  0.8233449494203996  0.6746796912050177
  0.9127759942345796  0.5217122760851693  0.7864229755867278
  0.5516287083582211  0.5173886213170767  0.4481929329888607
  0.5877463994572496  0.2988489093904081  0.6804429022724928
  0.3544960420125034  0.2153477369340495  0.8914476667046783
  0.3518203893369920  0.0155182516490450  0.3299246316971614
  0.3533589095348070  0.1129370721982388  0.4578655278944856
  0.3825596563038109  0.3613393455806079  0.6517517446484531
  0.7578094983965545  0.8732965679109168  0.8311077473615101
  0.5823443202938130  0.9075004643937917  0.1261461480007105
  0.1134593924930528  0.2236856216204630  0.3073081423249111
  0.0233875444913546  0.2582112433304563  0.6273620281871517
  0.0431338667102573  0.8495831005906374  0.4175912990084898
  0.6157958247161085  0.2214238716100659  0.6012264380781257
  0.6262559762556323  0.3039345559782334  0.8030948370675187
  0.1496115390291578  0.0510758837711784  0.5433036688357271
  0.1641061593925068  0.9182658353369129  0.4799965141857710
  0.7765390395991475  0.0649729706360386  0.5722664386311946
  0.1128078980833676  0.7833777047633891  0.8899876150161097
  0.4986574625367438  0.3730857252695194  0.7387848822556413
  0.4598641677227372  0.2479177967922966  0.7238331691860923
  0.8302154402427049  0.7882710761209339  0.6990385577851068
  0.8573329450789879  0.6454667295399429  0.8596908053855786
  0.3003571538836833  0.2281496536909030  0.9078170761340875
  0.5232320441904168  0.6365924484320340  0.1090883771688053
  0.4639903961333797  0.5171465295958061  0.8555062509283140
  0.5875657231404130  0.7768844181310375  0.1722641802934740
  0.5008811782321120  0.9949915950669408  0.2098720039200000
  0.5676863514595082  0.3041540560714642  0.8479269273763920
  0.9762621455596575  0.8747437754206737  0.2383610701189915
  0.5276703169033810  0.4432524940418608  0.4460826474946150
  0.3160709822266073  0.3003493010105414  0.5425258089734625
  0.1396091030195666  0.0111304441825942  0.1542338082989725
  0.6839075206411674  0.2572863223663108  0.2895460516827884
  0.7511993748880295  0.7890229614929705  0.8263136742209229
  0.8680955126906684  0.2611128756886934  0.2393143220472677
  0.3107362953505148  0.9434499652957112  0.2216136711348549
  0.8564571925364428  0.7029128992576855  0.1099683930832854
  0.8313215733567529  0.3326348823600873  0.8117459894658356
  0.8597286163115009  0.5593855407853958  0.4757011757908197
  0.8345898945851370  0.1892882943883129  0.0484561458499744
  0.4854760732450707  0.7753209946961748  0.9886326955175836
  0.9113082961371753  0.8315078599143627  0.0234180780198247
  0.9919461317221692  0.5822891356412531  0.8551620996307652
  0.0346478042840147  0.2374980834753996  0.7385255756323700
  0.5729949591315393  0.7146764698244070  0.0819070106910371
  0.7974820890771269  0.2541769543029212  0.3474535370023223
  0.6330729837536366  0.9352964445233937  0.3170358701667905
  0.8693761869274800  0.4326784159578320  0.4514652666799647
  0.5472962352355827  0.0328533477576357  0.7113404574826053
  0.9283758926295502  0.4449540865353491  0.0592202380764778
  0.6409443562949684  0.0736854458690860  0.4622968333954088
  0.7688742892633288  0.8508837347463160  0.1168449688227623
  0.2521592649423818  0.0789963124634233  0.2322982433569756
  0.3225558530847088  0.2920570005218684  0.0502545063010446
  0.9596550113852486  0.8357168243156785  0.9519927778629537
  0.0436463896298055  0.6106093468422547  0.5975593487229561
  0.4094223858893150  0.5784496498172792  0.8591536538067353
  0.0707734508522301  0.0416860505528051  0.8259219209345854
  0.3076453645333451  0.0163657468210174  0.3930192956137361
  0.7867429265626394  0.4223533879585236  0.7070563785041970
  0.2807714085568663  0.6317117530148187  0.7012451453950864
  0.7982154482027223  0.3378192884584000  0.7746650843307322
  0.8748130597124898  0.0559011944706007  0.5588013125886154
  0.3926426437325155  0.8165210662010910  0.1553317146261657
  0.6750761774032779  0.1542361471289195  0.6002887381064355
  0.0299791427760992  0.9681560209211956  0.7038347051866560
  0.4703280826606268  0.6220674857194163  0.1464489736917798
  0.5455510794304864  0.5244787906829455  0.9929366429956404
  0.3697405197823319  0.9111943472849415  0.4379283096003491
  0.7424657495058697  0.1481514119453339  0.3173785372776143
  0.0304806482704793  0.9376526317094025  0.1672229446574637
  0.1985802576701446  0.0166332281530807  0.8346159207235168
  0.9520139635759287  0.1269839465310282  0.6087544571754531
  0.4789060396337338  0.2875058124694266  0.1674701987644124
  0.1173977636011527  0.7394477404705222  0.1960602368666421
  0.7502375091648282  0.2585095924326008  0.3606741622843502
  0.6606272784513585  0.9677717744517355  0.7738980538309058
  0.5589418059970644  0.5769134539099519  0.6691266965847971
  0.5187545451450847  0.1751769721587079  0.7392814687310041
  0.8208253531450483  0.6924591153736096  0.3366580288233895
  0.1305004361558600  0.3963636363954880  0.6132936642514339
  0.1829609110854144  0.3413325520951362  0.4643671438604107
  0.5937487440376101  0.5139647481975211  0.7038305846682551
  0.7266482802413560  0.5074183401204184  0.9262435883668473
  0.3127476301567071  0.1007916270066805  0.7089566795803799
  0.0728228799487324  0.0274456388831150  0.3166368559669601
  0.1809833475058893  0.1255054525376726  0.0505295247010088
  0.9097321557957794  0.9030767096468271  0.4556190952716196
  0.7559840493606108  0.9180568719978013  0.1195781686856367
  0.6646412522020240  0.1663272866721023  0.9081410908982662
  0.5925713701832636  0.1480191108898327  0.2220928274173314
  0.9454020663889445  0.4543312612720941  0.1571070403792489
  0.1763667835089376  0.7130914612593795  0.3936233336075350
  0.6465125340686189  0.3836199339049095  0.9782500452801572
  0.5723931765617107  0.8375387607080392  0.0731702355205505
  0.6107951841792097  0.1656067403855764  0.7029617733634228
  0.5831204808262410  0.8492584928807621  0.4600771801416454
  0.6018221734227301  0.8023425397468908  0.2252673508029567
  0.0243381618641222  0.6891553885045932  0.6628881357137371
  0.6312315011434242  0.7843041800386388  0.5786267488194916
  0.3924527981229177  0.3699668835763976  0.8445763598427168
  0.2059449335870129  0.1586957900811332  0.8362874650198929
  0.2683545808581776  0.1606138476309870  0.3471021007882608
  0.7243229173604933  0.3205416327875003  0.3485689933374755
  0.2721961152042498  0.6093222061688245  0.3048960768638382
  0.4665377424333266  0.5766552305226872  0.8655350306454197
  0.8090644885586470  0.5226569778195482  0.7160496659463985
  0.0492233269923532  0.3178790234713285  0.3576674120061982
  0.7853631890224075  0.5482691845849094  0.9889852418713112
  0.0621062336292048  0.9025458501312436  0.7294177217766098
  0.7375750883924284  0.7127464857311335  0.1217871391954081
  0.4345753195972959  0.3557110554782842  0.1504598823027242
  0.0570409168805625  0.2848463306336296  0.1150375978380802
  0.6871153231386957  0.3812152947076935  0.9025499874835921
  0.9390362026928313  0.4736024129326691  0.5978433244498385
  0.2340504585998853  0.9099605080964676  0.0499672041556668
  0.3941234965748875  0.6898335312325646  0.0498059944739358
  0.6302246349510442  0.6020723048043430  0.2576075935170560
  0.3572104381042888  0.0770378813264085  0.9176573761386294
  0.3234359733414003  0.5419983838271333  0.9866964719220016
  0.9483048239344264  0.8855320018427628  0.2859572461764811
  0.4989486664136477  0.3143464313011100  0.8652524650959513
  0.5363673674753558  0.3528652544683534  0.1586472747555721
  0.3663115844389091  0.5378491319403792  0.1662088048689081
  0.2107193683682201  0.8047978629846246  0.6160816130022460
  0.1078626820946736  0.3316528451060710  0.0066636982374363
  0.8982670562220246  0.6106900194150596  0.6052090631307260
  0.0961901433535066  0.0317460579601355  0.9639795919196429
  0.3361361969251792  0.7977266198953549  0.3560888354060539
  0.1995200225135873  0.8763723129079725  0.2417739594933546
  0.3573460790182542  0.0759202922749506  0.9460532286104361
  0.3905542161451407  0.1082447508285821  0.9870500684078460
  0.7001975864097966  0.3854799398321547  0.4641747316531013
  0.0911911820758876  0.6635151344755050  0.0979802066539384
  0.1989282959346262  0.6502058008293597  0.4898139893187243
  0.3125505602987738  0.8042844742800284  0.2282111251581309
  0.4577441666834127  0.5502474210760004  0.1321268182266427
  0.6905498897699351  0.3498700717724746  0.0828169251670443
  0.6816838159967644  0.5916592159851369  0.7943875176028438
  0.8061219148618241  0.3313252357917079  0.1182226899533535
  0.4053079656622622  0.7582814877105047  0.1509848027427726
  0.7752937179726448  0.2534257105613833  0.4448784419939618
  0.2045478948450692  0.3325427788981675  0.2578270311244211
  0.5478096362937858  0.7332527318912894  0.2983951969905207
  0.4565883450752815  0.3603994633065364  0.7193549697854648
  0.7598154310761008  0.9922542988841341  0.5656371085976094
  0.8427343217979256  0.9198484662701495  0.1119400111318305
  0.9342830582207378  0.3196905992522405  0.5509848271994495
  0.5190233962689289  0.5602904509701311  0.0405021923659978
  0.1475529148326416  0.3936887257254076  0.9056662215358576
  0.0287615995460851  0.9063622631531709  0.9581209768494251
  0.8712240775624065  0.6040637727614583  0.6483882914936427
  0.8794537787106046  0.6950828699128746  0.4804163210015128
  0.6705877532784718  0.3797682085164846  0.8296800677456602
  0.5807701615865518  0.2999653610856422  0.5608117315186852
  0.1423059494622018  0.0343574148549787  0.7186277702967633
  0.2224420967711034  0.3748992605463019  0.8035902493951624
  0.1618934115946047  0.1443438919591498  0.2796106877182843
  0.1334711446699282  0.2096584088313216  0.1872473577215424
  0.7432521672568323  0.6443001708780094  0.4523477397035729
  0.0346458059027835  0.1882576380101063  0.5389764564307182
  0.6550288788957078  0.1636868485701698  0.8529320590701784
  0.7837798539828094  0.3360286228184265  0.8207062367512671
  0.2266185170053366  0.9479910632917975  0.6087668487344305
  0.3360016357677860  0.2350414864930596  0.0533496561007081
  0.8858932045516019  0.3911699051005341  0.9454483425099371
  0.4840553097390022  0.8992219126613061  0.1110106042034850
  0.7166788568713774  0.9198662214254389  0.9741385220109195
  0.4008133713013127  0.6854388657062649  0.0773695006285568
  0.3427041017852573  0.5274113881907451  0.3864398878608548
  0.5017637600930722  0.1253983253107289  0.4483694351945386
  0.0968781537961335  0.9393046807149158  0.1345436808912499
  0.7797503363594595  0.1957429243061021  0.8035695747940984
  0.4928771619975462  0.0408016758690878  0.1659368022483580
  0.2192216850969307  0.2026578813614422  0.2405989876705796
  0.4028168805734573  0.9680013049211701  0.0221174539887913
  0.2200117468653611  0.4922321846477505  0.7644330290396010
  0.4838358951816060  0.6416559857036671  0.7159612188188978
  0.3326845466170117  0.5011150904294916  0.7054362166722299
  0.5940935294683076  0.7367236400584956  0.8544782175918162
  0.4903673499094973  0.9160382378426032  0.5271653084745167
  0.4813813232801094  0.4914012725967798  0.0617970224607781
  0.9281034196281127  0.1315212428722164  0.6234389466256963
  0.0645581176761433  0.3245373755690718  0.6292450970953619
  0.9527475736909405  0.0293678663966727  0.9215081266001356
  0.5366171404292150  0.3128639045995102  0.8935558439336839
  0.2187042600370668  0.8274372502925662  0.8039342586748439
  0.1753502327402329  0.1970201359627936  0.3629691730188108
  0.2537204012938067  0.1115273014222075  0.6323773411618414
  0.2090899002219699  0.6121157635995552  0.8859875597706234
  0.9356872295938191  0.0839752865497833  0.8736639093366726
  0.2404673369554889  0.6113100406337550  0.0513458530029737
  0.8009211902010499  0.1967088541817064  0.1404960509567493
  0.5976691201976964  0.4131416088652705  0.3110072237049857
  0.3720296027689655  0.1971623829912335  0.5892225678756090
  0.2428407374117567  0.5601381742623720  0.8024989621007073
  0.1889893503140233  0.8025818425696305  0.9687777895791344
  0.2016384542540619  0.1226467940818270  0.0071147163798638
  0.8304423028469385  0.7905744147825811  0.9300998555224067
  0.5599568216926357  0.5233846914608027  0.4003575928422246
  0.6590575607994142  0.8703654123911164  0.2630664262908093
  0.9712632461078055  0.3713350391477369  0.9974443981146622
  0.4767847535045041  0.2622998075269412  0.0261233859736282
  0.0617419539391026  0.2234827871699364  0.0622852916897511
  0.3714611198633657  0.8805983682753161  0.8391066717032539
  0.1951367334073387  0.5640260183805124  0.3950307646759226
  0.8526769312315391  0.1379270848919495  0.6165860584663452
  0.8450341570926704  0.0584641992543596  0.7916309467996799
  0.2393323723903183  0.0786799316620717  0.3350950641873807
  0.5530153003751470  0.1535064239114637  0.6191926083954377
  0.2173589144189275  0.0969586169582430  0.7487991121422382
  0.4173857484821908  0.9833307199317642  0.9510741842950331
  0.5520366251596707  0.1544206759361980  0.1005065818962830
  0.0061020064942870  0.2188728821050396  0.1758789814702871
  0.5112419861207500  0.3680408434312942  0.7135466610442678
  0.8874704468575760  0.8088035392497438  0.2445443300326582
  0.1235702135694648  0.4176798747284090  0.1584837131779499
  0.4863457535461289  0.0458624457407103  0.9967417017086846
  0.0046365546589823  0.8338759170360592  0.7810170274663732
  0.2725538687036657  0.0920334550927081  0.7984435938963177
  0.4612551627396921  0.2022108352517822  0.5875224039786113
  0.7871489975962738  0.5626816614753753  0.0835619492982575
  0.5826451120486088  0.9098648088899096  0.0758373886741126
  0.3771232956161035  0.1552503475177163  0.0722207026601689
  0.1401562329883702  0.2238366136317409  0.3167058286443875
  0.3624494316085002  0.3086062322327108  0.3564828449762538
  0.0906316850353982  0.1267072438883795  0.4888495079776797
  0.6488707423390431  0.2304168973828518  0.8724144061371324
  0.1822281018322655  0.2468690010893425  0.6810089534871890
  0.7254242993727907  0.6039939263354575  0.6745114000323670
  0.6321658701236946  0.9967905324239992  0.9842585772113603
  0.6436744301224501  0.1431750952450584  0.2434473160177265
  0.1663378830282387  0.6039837280163556  0.0648568522168398
  0.9178640198703704  0.6032737237685944  0.6500672247196173
  0.6824651237215948  0.2594895326467132  0.4465775637598492
  0.5106413324868950  0.7134702955126047  0.4667400663969266
  0.9173504894402160  0.7221938550418695  0.8609853062462581
  0.2631906910196848  0.6267186126902083  0.6796983686029843
  0.3455642370085093  0.9561696396842501  0.0985382570620560
  0.6895398581353035  0.5783500661190494  0.3808059130525462
  0.8461892662062468  0.1104638146469702  0.4856916806925848
  0.9497334579093392  0.2563457211461102  0.5318754890606123
  0.6687060382543519  0.6588478639675222  0.9797673881765117
  0.5634561475187685  0.6493144626631311  0.1490539076175636
  0.0366708356115860  0.0522154191874029  0.7989330914798295
  0.6821931356956437  0.9414080027218014  0.2445281539975571
  0.5081740000069356  0.8383774788578280  0.8329549877621488
  0.6366950322039386  0.7351072468455714  0.2470454727005018
  0.5399524673658073  0.7771696148503041  0.6137488375166159
  0.9493608657727250  0.3899297151199299  0.5001634533810100
  0.3200400636635903  0.9587926573214717  0.1104073071028975
  0.0585147335297999  0.6868467731463740  0.5630427722050975
  0.8974378844927754  0.4857210355094825  0.5045388318457733
  0.0594868244081724  0.8765404132315916  0.1884672842000462
  0.7830158145870912  0.9164657719588054  0.8664276329433880
  0.8253275119337893  0.7050315689665605  0.8888826039950777
  0.5960288977165832  0.0161452902806668  0.3219179703820318
  0.4365624726369924  0.8424858187242527  0.8592402887062401
  0.5625283148104324  0.9352833364096321  0.6168842359799490
  0.2109024708703822  0.5328901769760113  0.8935983612827760
  0.3248647539918751  0.1496971990590338  0.2123161074117658
  0.6156847413805376  0.7373320843822515  0.8155249188915636
  0.2300213822256930  0.5714014573122184  0.4226649873273603
  0.9418829892306601  0.1194060262548036  0.0819456305497874
  0.2094633648114965  0.6571601491909383  0.2206330817672654
  0.8110177909245381  0.1044578297303801  0.4538728055715515
  0.9307543467761693  0.4536452400953619  0.7810940671587088
  0.1931228401347758  0.2692170273593822  0.4377069357493859
  0.2275093164803501  0.9238802932162169  0.1515079261567379
  0.9615667923847648  0.2376596578509712  0.3863195627227932
  0.8558267871299190  0.5053720164017326  0.3537396158516016
  0.1945130254781711  0.8555109083272658  0.3841806956327074
  0.0070725103329594  0.1597328988760241  0.3501313098919495
  0.2922931773701125  0.6704120199997572  0.2760483575428287
  0.6764735167924707  0.2756199709922285  0.2675543469144605
  0.8835600601779855  0.1262775237503834  0.2169176603314544
  0.2464361104299269  0.1685638909129912  0.7301242206609759
  0.6666399610508333  0.6477181214321480  0.5139237305564452
  0.9333300429624140  0.6539184648497623  0.8842192292976138
  0.3759681608403271  0.0012473471844277  0.8889393191303879
  0.8633294550888134  0.1202664453332308  0.8316820516145179
  0.5635512692450693  0.0933038528234999  0.3995670373827316
  0.1286302785119836  0.7128064354332728  0.3831590290972145
  0.1656223673878785  0.5984031195900068  0.1493266011250340
  0.5496309445228277  0.4104194601494434  0.2088752625203293
  0.8696537002790026  0.7384700786427078  0.6205751703350494
  0.8167965397101442  0.1219502442134705  0.0545282663812361
  0.2091118947332033  0.7865453852990346  0.0066038752111233
  0.5567964764760889  0.3152827168264099  0.9436275054310906
  0.4031581215365280  0.8354539322399511  0.5399247137306220
  0.0204918902450106  0.8306403731838429  0.6921075758008002
  0.7941347847319635  0.1384902141120512  0.7276169312198090
  0.9476670977458465  0.8336608352161856  0.0998614593336495
  0.7589573285876342  0.0477167690759438  0.1065741136502322
  0.3808816350747009  0.2317776080565526  0.7507800193594502
  0.8789495087401336  0.7066394463198502  0.0917418362068357
  0.2242011732334921  0.9610660287462024  0.5350864310280460
  0.1530453500007604  0.5464850818073191  0.7069853915733572
  0.2019561102384703  0.4097110285600130  0.4431647283922808
  0.7945589922050629  0.9754639016503025  0.0692787089290144
  0.2978817064385103  0.2932778200610093  0.2548396972890446
  0.5435112377481330  0.9254592960293903  0.5740623765774904
  0.7620620556727374  0.3256649436990047  0.3177835442313909
  0.2435422232461535  0.8798468366140425  0.5952522584687756
  0.6417197788243149  0.0242448270337936  0.6833970139281991
  0.8453784051463310  0.6995579090569323  0.4126555520439707
  0.8938615500127819  0.8430692171878393  0.0959026194734556
  0.6877559778670649  0.1354887386759624  0.2110302756417414
  0.9542712995194610  0.4445086020358400  0.0075117338084812
  0.2802971924298245  0.5088442227576484  0.4987944151428104
  0.9255046951260745  0.7755470367987241  0.7169690096086883
  0.0861095707924097  0.7841978907470488  0.8974807257216251
  0.8333473493587302  0.2771109658482587  0.6576546592919840
  0.3958243257730298  0.8535055365116617  0.3918429356163153
  0.6488733678901916  0.4210721925055874  0.2087870974283114
  0.3389168696416786  0.0321514767460840  0.0678501173984368
  0.3787433247819892  0.0788760925913590  0.8733330337093311
  0.9185957306486361  0.4529968414261151  0.9614915308975963
  0.3671905690715713  0.5763905631267604  0.8318445160541097
  0.3848844777725769  0.1648829926122255  0.8354286689750768
  0.6648193891228792  0.1019236287257394  0.9912695252561678
  0.2077665568731090  0.9783375500635056  0.4840139956236403
  0.9180464830336214  0.7458242213394427  0.6445845649481982
  0.1085763637267529  0.0332026519060244  0.7863858249128151
  0.3805508909211995  0.9402593123515474  0.2688271890502636
  0.6696804388650401  0.5153234332435617  0.7663015121127725
  0.9396075675325293  0.6636225349853977  0.2249318825978246
  0.4581362987733038  0.6034230082565123  0.2937956543237413
  0.5497559256279257  0.3990598606497301  0.0090553198664782
  0.3118407712703943  0.5840765199700209  0.5960658548270357
  0.5745767850444232  0.5404300210119046  0.2301986832120822
  0.5343219438287694  0.3744668994313604  0.5115578369042307
  0.2521909813974378  0.2462864401340255  0.3275027269982176
  0.7654687686522034  0.4249506007311936  0.7582193572998336
  0.1653576974621721  0.9600629510164413  0.6488495175203203
  0.3659008871019956  0.5599108854481226  0.9693567924232702
  0.3875065613152464  0.8295046992766967  0.7424008231758450
  0.1262780825357059  0.0341703071564636  0.4360763926113505
  0.9855404405618751  0.3730141099836911  0.9716437141400543
  0.0890034040793309  0.1023004208337139  0.9054350504523082
  0.3136428090289831  0.3635650129289645  0.9461139142452735
  0.4855663601003491  0.8369276165293567  0.0278675772096892
  0.1567318137201700  0.2767944251796136  0.4055761173828871
  0.1721884368909361  0.2057925014699645  0.2513656202166796
  0.3153481603732223  0.3689117550533569  0.2690313547362739
  0.0257287967771143  0.8875636829722527  0.9814537623386278
  0.4640247312030324  0.9628181067902540  0.1530935074381386
  0.9067589710898626  0.2481430190515665  0.9180469071453828
  0.3459973557475595  0.2367511634516199  0.0262608370662998
  0.5977819409709788  0.4495152444743444  0.3943560057847535
  0.7086989908706450  0.9143282528815054  0.0481930409488431
  0.8360898558886022  0.6150656894877778  0.9183861658273934
  0.3844219209715984  0.6300938040674956  0.6330536982540798
  0.1698544963399963  0.5758563253845796  0.3132574007989423
  0.1333235303939419  0.7750521916527627  0.4455207908076310
  0.2986663322151235  0.1565409893257397  0.7953463962390140
  0.4967644303390129  0.1597587097291610  0.0524054283077550
  0.7182613540853493  0.3406262049639351  0.2270938525944786
  0.7862091917747851  0.2523574272179198  0.3952426513333054
  0.7993841543195945  0.5427287815592589  0.9650228471712042
  0.4832459110350131  0.5964856121771974  0.9362932187071623
  0.8233746550715791  0.8510937708303996  0.1682955075962145
  0.8066486058579478  0.1916610774723900  0.8844429114389821
  0.1263835522471242  0.4581303573095805  0.2649046015509660
  0.2394909998822302  0.8628212608207098  0.3644247921497208
  0.2721018496464410  0.3320875504553915  0.0960464775721903
  0.2346074442551723  0.2534735221825322  0.3477549629246073
  0.1112246708542988  0.2525334853359699  0.6452565854948572
  0.9269778601186601  0.9055637751682821  0.9817386441795080
  0.4798889134703761  0.8566274740945553  0.2934542553724642
  0.1748811288393625  0.5289784953074358  0.6344732148429422
  0.8928099842383038  0.4617964484648510  0.1615302848660189
  0.6650129585768138  0.3668098365292897  0.7331140208066379
  0.6199368811288184  0.7161209074567911  0.5351013769083818
  0.6990757897043514  0.8448880530685617  0.0931293941749958
  0.1790610513129830  0.3830354760710051  0.7817815056450933
  0.3510008544977686  0.6489004156881261  0.9367225487210142
  0.4936842759764474  0.6920146817862404  0.1602474336709796
  0.7186076181532576  0.2821008813051562  0.5648331154475256
  0.3763394826870193  0.9978207278693219  0.3283609489708099
  0.0761301599707983  0.0885543947424678  0.2154969935978927
  0.7259571773923404  0.7194814460073050  0.9905898517466925
  0.2171064965561157  0.1408237560240838  0.1432613854624714
  0.7116883615853771  0.3171092065287358  0.9473923190809180
  0.3020520236803286  0.8044287932470060  0.2018620701931695
  0.5521569250432511  0.3260687987393834  0.0324363752084933
  0.4286913946183054  0.5703091854147566  0.7372127224627932
  0.4882887553135287  0.2442726427020519  0.8190770257808312
  0.7409689779509455  0.8456745759966531  0.0676443379093946
  0.0451437598349426  0.6099780473201555  0.1918604776964781
  0.3508598343739051  0.2103714588045546  0.2518851955842665
  0.7700144723085207  0.8492835117742681  0.9183866518885446
  0.0444025258703802  0.9815480023785464  0.6079660959920211
  0.9965090022706530  0.7430402003916342  0.1418368994484073
  0.2831419054995304  0.5641563340892296  0.8299460492086908
  0.2735288271566651  0.3755685549198912  0.9691937919162360
  0.9703402815074482  0.4774483955585574  0.4465294357048762
  0.1781143766430015  0.1240802186959684  0.0226093082687983
  0.6609652827892881  0.7263652152968737  0.8754061505273992
  0.9289613827615917  0.1911129884783772  0.6063418456456796
  0.4807491087490861  0.6821994006670987  0.2085933170488728
  0.0897486092710306  0.8417465753550949  0.8777434525825153
  0.3971181825672152  0.4849556312767700  0.9700883824643455
  0.5934809530488537  0.9976294381596084  0.5252384880619458
  0.8714804929946423  0.1286471499792260  0.5699194153530550
  0.5348683457383254  0.8515333624983722  0.2438476743866664
  0.7478924389587283  0.4299741777942342  0.7361713514482870
  0.1016300134972070  0.1493027377856736  0.2004506366212284
  0.1252652872120596  0.1694012364380408  0.7744012191339484
  0.1752787129805147  0.0898940449336232  0.8104565612433429
  0.6063546647901171  0.1563755804801097  0.9913184474110462
  0.6775411959075193  0.7848529432107257  0.5612102556568612
  0.7754825066044788  0.4313780489752897  0.5452807075662462
  0.2884140141946310  0.7164930803008235  0.8476807644067188
  0.4357552362104151  0.4412978111692584  0.4575451255847883
  0.7763790723968270  0.3995039741997132  0.0458949130222098
  0.5909507536634745  0.2881718892612691  0.3009768237840427
  0.0152941052154043  0.8083150761583192  0.0895692666766582
  0.2818056936781699  0.3035813737223355  0.2769143644948464
  0.2809789430804672  0.2644479849781629  0.1015056793923733
  0.6117647587169747  0.0998009150706187  0.7893587909405828
  0.6798374460076071  0.5060351462636483  0.3657167126857707
  0.8796543314642127  0.6522627764220477  0.7072379833518365
  0.1082377784449399  0.5240999008366776  0.2509394726032044
  0.4415997178903536  0.2848604075570175  0.1368934291122136
  0.7628640225491025  0.2624088860251787  0.3136800739752999
  0.3881908516472710  0.6756281745344208  0.2562602080029776
  0.5597074780088374  0.6710532864405407  0.3084090468293039
  0.2711188761262628  0.9597105304859955  0.5203308346318639
  0.6997116800291493  0.7176806164778859  0.5096188289583508
  0.3749465432757323  0.4853216840256458  0.2029473147273871
  0.1143190105277457  0.6615810930784034  0.9213677869440547
  0.2887123357880111  0.5148055379830941  0.4511460885242778
  0.4305232671687765  0.9745386222265867  0.6401556437472429
  0.1616419269728926  0.6823293013340941  0.6377992632918802
  0.9028038893951769  0.4606059949906570  0.1357514644420564
  0.1178740989852026  0.5926715677369910  0.2619783413992474
  0.9144897806552925  0.2676276524508836  0.2277004569111456
  0.3171340090984965  0.0152140843206388  0.2913353967996426
  0.9452300229056149  0.4029928084246836  0.2062456176856751
  0.9934045815469732  0.4072757274244919  0.6660171673760653
  0.9951689144349346  0.9655326511774656  0.7482362193248988
  0.8995405704259142  0.6983013688870123  0.3965069823983340
  0.2141813890314302  0.3952808660948079  0.6122057053757261
  0.8842424176592207  0.1887468113476672  0.0422891437817013
  0.9211074617545848  0.3890874871685803  0.3059367817945447
  0.5294466790588354  0.9755185196139501  0.9909828511898084
  0.6993172958316731  0.3903579128415184  0.3666893250497762
  0.8108107159971172  0.5968567342524079  0.0321291509567226
  0.2217036394969038  0.7138271773414019  0.5347491405936600
  0.2087783709841121  0.6448995289161734  0.3493122968522187
  0.5960986506170126  0.1486408278182220  0.2501358094946428
  0.1052870054470047  0.4420168238533679  0.2073021066021591
  0.4652725339348726  0.3590733720631089  0.5946388272932239
  0.7231157610390810  0.6471007478303246  0.5051288660777641
  0.2248533054709665  0.7904240049703276  0.9355941447569245
  0.8266982230048318  0.9015901744721552  0.4590317206127646
  0.7685082821114978  0.9752326372761582  0.0803892261391181
  0.9969269720877658  0.6108972650298032  0.2204545873109432
  0.1484762778141593  0.1851426766355267  0.9933870796649130
  0.6553745267584720  0.4609297859105624  0.2711626148693312
  0.2147088271229271  0.6632520873534683  0.1217471849687815
  0.1001712408696030  0.2862764812243124  0.1771474462553774
  0.3911285739276176  0.9625100962631249  0.7619591157974814
  0.9313372719280198  0.9638552669210999  0.0288778581127599
  0.9678319576769344  0.9124471647144961  0.4967370983125329
  0.0903163128587136  0.9928416027425189  0.9012473756024680
  0.7828414747844915  0.8499669033642244  0.0923004158815401
  0.4044639789726118  0.4185100709360861  0.8265873546525579
  0.0033999988251318  0.4525291865004749  0.9448911324075380
  0.1888566249634547  0.9584777138712806  0.5780374046743204
  0.8517329712071438  0.8916881117144758  0.3102518166675028
  0.1124093409775421  0.1765573811772036  0.9505804041727366
  0.7297751041204755  0.5002542878613797  0.4339329169414610
  0.0019142025507948  0.9690492223600949  0.7000704916123239
  0.3870015698226935  0.7217058172964732  0.5870588376575022
  0.8489369474877464  0.9858931436849617  0.8356553794974446
  0.1124226973455534  0.0930645591346006  0.3338215419660160
  0.0232755737194807  0.1567683331248736  0.3269424445092828
  0.3982079901383991  0.9016220566092122  0.6658510664789722
  0.4432472609821912  0.0540824852691485  0.3744517516378242
  0.2452190638782124  0.5191956668383705  0.1995772965466332
  0.0182333042323088  0.6674819558778552  0.2563052836739313
  0.3307921093683045  0.3847917921877173  0.3706582243755478
  0.0260804454691490  0.6674387485626720  0.1530728420382322
  0.7253399384442815  0.7400300256291638  0.3011222520803235
  0.4633300374668273  0.7952011906675234  0.2775027985255165
  0.0234743925186139  0.9084721733584220  0.8738762560519351
  0.3679469388206741  0.6415907217512963  0.0341961306026753
  0.7835713893387080  0.7136777983206547  0.1060053444935928
  0.4291760881290215  0.6972957399359950  0.6236582302136843
  0.5276099817737654  0.2815308224578237  0.2226400582642440
  0.6362852581631595  0.8651089562991178  0.8986491767240180
  0.6304879594365386  0.7206439194577038  0.3767747538938878
  0.9869278678392089  0.6969665154603905  0.4514293421603141
  0.1135354261018365  0.0842046364022185  0.1841465104050765
  0.3099401047956459  0.3976957634506340  0.0876367405462531
  0.8245491500795679  0.4084668694791847  0.1156643260865318
  0.7519127013517318  0.1808819967104885  0.3497154275699467
  0.9226501598467785  0.1242412378276589  0.1270312025490993
  0.0634751944342125  0.5262011640710099  0.9924516499788466
  0.5523011712873320  0.9763577682112843  0.0085073614480301
  0.6386860640972070  0.0911344312416074  0.6462650263664341
  0.2157421356392815  0.1930582718400949  0.3409489366609340
  0.2120670554206725  0.1864773016276648  0.0333265011949178
  0.8025208753511568  0.6743620443886931  0.5693143972359471
  0.4200592480475430  0.2466092078582185  0.8933396687367614
  0.8863667607561578  0.3883816251443079  0.9937685596587714
  0.7412163334053820  0.2798811885697733  0.6646999396561279
  0.1752226471990235  0.1818978529396533  0.6433788792613232
  0.4484992694745147  0.4656692966902841  0.3495994129741929
  0.3675195556496414  0.2421992729488093  0.6769956405737602
  0.1589012243026156  0.2028905715706047  0.0899819207925215
  0.2470772395769832  0.6562968145034443  0.2844046668470439
  0.6062390902728620  0.9623515815860877  0.8285506396527251
  0.2535030381458617  0.3986942731392180  0.1805626673230900
  0.0500030950364774  0.6136033314801382  0.5501527625176964
  0.2935711309659529  0.2095078920894995  0.1341623697186309
  0.6775761696249347  0.0251456202302783  0.8261539081208084
  0.4703404709529208  0.4383047601954749  0.4794200096559471
  0.2268389668492082  0.0834142091125526  0.8318216131727065
  0.1305356076674166  0.8573603687094845  0.9485152103514578
  0.3539907270763130  0.7192584934554586  0.8871839062825401
  0.7915391911427415  0.7513786896394756  0.3343734954070764
  0.2181191322256887  0.6192924989231601  0.6603568752567854
  0.0912017034245520  0.7884606378241862  0.5380487357145144
  0.5866705574745341  0.8497312674021966  0.5567656284799428
  0.1176773850298074  0.6042790583111983  0.0640784042805898
  0.1340102679187254  0.3971918962340541  0.2714687093789694
  0.0652616029256468  0.7341097892948951  0.5497472555010071
  0.4592258975760916  0.2789982667610518  0.0406154472145488
  0.1950832301763582  0.3365096441058265  0.2006342537220286
  0.4543507757128747  0.0607204116103087  0.4863173574087435
  0.8429019558727753  0.2567335773333761  0.9934213739794682
  0.8511474665335184  0.8517769028299893  0.1689986204545859
  0.6705133420036880  0.9567011788472858  0.6606164079084933
  0.6259064290467129  0.7143788812833332  0.5073510156455879
  0.5150375243917316  0.6733837789192423  0.2790577781569348
  0.9867826608402239  0.5533218807675859  0.4768524026262464
  0.0439747709083756  0.5918210988071002  0.9670079789199030
  0.4320183809600869  0.8313895684049122  0.7633968546788839
  0.1830534141992679  0.6552875649547933  0.2116432287571485
  0.1339540617206715  0.7203745509047097  0.3564093037240557
  0.0387904402688180  0.0916299178110204  0.2476158784630420
  0.6590071521535323  0.6680451627830136  0.6613079149067357
  0.7801778926063381  0.3237803358466845  0.3394939116047643
  0.2757123306914221  0.8277437491889797  0.0586271096552082
  0.2169837169533518  0.3283008556325654  0.3424862020637317
  0.0073432584322169  0.6431292625972423  0.7309895415266773
  0.2480818042805255  0.1874152396059296  0.0752695478342644
  0.0589151448439814  0.4561506126139117  0.2879768402608737
  0.9386070982500414  0.7824647701193745  0.8967845301335130
  0.0329992422023250  0.6396215129048930  0.7417529216635930
  0.2320026570114443  0.5293042654049095  0.9453538506219472
  0.9994348230582928  0.0537033759826203  0.5487268771275774
  0.4102792748918764  0.6369856801883926  0.7035272325036304
  0.8123948082730391  0.1315234356932808  0.2395936151850352
  0.1713749608572850  0.8253374580846112  0.6828319528380701
  0.7767250675539024  0.3261751386489352  0.4141232826986272
  0.1583779577844550  0.7889270279048446  0.5692154527877824
  0.2143797348726789  0.0787228789727957  0.2648061951704954
  0.0483021206940487  0.4130636928150386  0.0881012127813350
  0.9455961009516594  0.6045822816337101  0.9737081218624344
  0.6061396180652470  0.0819724666455489  0.3398788300312106
  0.7317143743061993  0.0441493348523422  0.1118376896588034
  0.2171747980612645  0.8759515396974250  0.5848404545635371
  0.5467806257654763  0.1706528678814977  0.4453144348460629
  0.6365708731708222  0.0934252685338813  0.9531100044208179
  0.7697164241493352  0.3986616309852944  0.8995396587552364
  0.3133485327625200  0.2913847309113931  0.9619560233352199
  0.6624895870767464  0.9330457799643629  0.9788278539740576
  0.3855854053822039  0.6732248560383660  0.6183352185275323
  0.5617226947905463  0.6451038684465080  0.5796219920306758
  0.0754332177186949  0.1115725813506543  0.9784425214955195
  0.3425186092441744  0.8035767954296281  0.5766452235245194
  0.6140431510935113  0.1739889031155943  0.7309220170314452
  0.2324831661221964  0.1769720530645107  0.9802374833190094
  0.8659640154777984  0.4657888015983082  0.1660297919473580
  0.6139279460347815  0.0989059128583032  0.6892011341424389
  0.4507979876478698  0.6312002381684325  0.9445184855249701
  0.8153303439492502  0.1347623878617868  0.2674043420424024
  0.7038203394627788  0.8051053026462782  0.2229292526476835
  0.9374707672538719  0.9022313038718933  0.4080807024838219
  0.5105775094795548  0.9257158092821675  0.2079243948920210
  0.9853923756548313  0.7301248388858098  0.9363250587129418
  0.5627185963109286  0.8336289260139480  0.7774105397354719
  0.5317560994925985  0.6482292567225825  0.9311255485644729
  0.6465609387318801  0.9568227852565604  0.6453167050584776
  0.0609622918765900  0.7051787936998049  0.4542160347530892
  0.9738165099275138  0.2549455106301061  0.6390203989225071
  0.9119012917134480  0.8331398564771627  0.4363134184314822
  0.6781343634057585  0.5162419894070753  0.7180015535126589
  0.5502487718493673  0.1585867651190858  0.5608774537871798
  0.9644410613621293  0.2144174476415737  0.2162032244485375
  0.8529394624883551  0.0514361136773901  0.9144409114763874
  0.4112908011608909  0.1426846565015451  0.1420288876023667
  0.6435790833705987  0.3124289187737310  0.9952722228340851
  0.3304216631361828  0.9721057630980113  0.0266205753248385
  0.1255738860920831  0.9642098535253931  0.7412582594303184
  0.7555910645334212  0.4260608960286640  0.7845893769023483
  0.5527560029112067  0.3492917790484319  0.2552835311276174
  0.3839331053662538  0.0897831468979123  0.1152268834520341
  0.0041964402972477  0.4120303258057731  0.1092334714230603
  0.7062366766731821  0.1916196231323560  0.1601390298327324
  0.4168044931759727  0.4942465618290514  0.6482525644178690
  0.0392916257294696  0.8545865282044629  0.5621496938472361
  0.5667378186006079  0.1476897985176906  0.2113202801270996
  0.5368781999558405  0.8994333277911688  0.8087824486238470
  0.0680440483552486  0.9400511921241662  0.1305191185625364
  0.4424711473664323  0.4922320612166341  0.1256785311700082
  0.8412258114840320  0.5954707880764724  0.7168962744579055
  0.6383628406071494  0.7134370641908530  0.4515376057809205
  0.1454954474613858  0.5043821686269456  0.7783371783155324
  0.0544152738004082  0.2981200391571992  0.7081755153023880
  0.6128328898624817  0.7918271009111824  0.0001448485353412
  0.1975642153393353  0.7104369619819766  0.4125353609227697
  0.3331427908616837  0.2191741809963897  0.8719277349092034
  0.7100844342314238  0.5905876354992941  0.7942894232616307
  0.6940655674316827  0.8599613316495471  0.8997719179756840
  0.5192460572948273  0.4055109042385485  0.2581166895662436
  0.7114696700391030  0.7446153224011978  0.2546441546879015
  0.0942420671039809  0.0937188293492646  0.3120858774100135
  0.2108314711304060  0.0622216931509996  0.8718152327553486
  0.4891576896268355  0.9674426798651479  0.7713266163192937
  0.7778733973266156  0.4229125361248527  0.4484695597911775
  0.8351488829623753  0.0548732374989392  0.8183101372988721
  0.3594243453801098  0.9441305418530501  0.2250837277014015
  0.1680104288202795  0.9289821023759888  0.4241997624168525
  0.0260033636422735  0.4822572394789424  0.6414558653276440
  0.2165474909353482  0.3960538751624481  0.0108067204095395
  0.7163454614388419  0.6025913021176520  0.2627011403343169
  0.5886698017140416  0.2232652730420951  0.2883833774071633
  0.0579258200256942  0.1001454514721859  0.3445273348579015
  0.5787448224663998  0.7123243571220822  0.4966372077453372
  0.4110603084935876  0.9056371472030439  0.2101348649904551
  0.1511784701614747  0.6236483214360313  0.6900341069384415
  0.1068982260905079  0.5879571454993261  0.5106890796061930
  0.4977261076787919  0.4630800797377410  0.9691744854873013
  0.9255128400720228  0.2399449892681396  0.8056343405615239
  0.2040121879659288  0.2016969113411498  0.2886331888358477
  0.0459432324427501  0.8100596164230861  0.2152746156206007
  0.1923541055628770  0.9232510460471195  0.1154026105601972
  0.5200522924108759  0.1242035635010796  0.8810234732407138
  0.2052814663323777  0.6210181549355782  0.8388803852342361
  0.4610711687801424  0.4944694273864014  0.0809261106843662
  0.0268557129549268  0.6272714057649710  0.4685036742757883
  0.9602908981483890  0.8205214464505719  0.3636204349538364
  0.6801406780495013  0.7355619505471350  0.7193975051368218
  0.7764034918894378  0.9193171801268258  0.8940422231248719
  0.4641304446152144  0.3948888216672317  0.9628634374966635
  0.9609473339819316  0.3276177964332289  0.5912126162428657
  0.6534003617658677  0.7313737379404504  0.7271905995831818
  0.7400894142169563  0.1170212035227533  0.0223123473082485
  0.4158889096286518  0.3653087150926559  0.7454189968911755
  0.7210766437500278  0.4267165313049780  0.0758105931029716
  0.3742526016877565  0.2820752586925868  0.8812851561629466
  0.2297012220298555  0.7776209841674123  0.4847899232428101
  0.7919517702449681  0.3375157172449750  0.2396713529651968
  0.0088759422903681  0.1927585473679242  0.6688828479062841
  0.7923558252873755  0.6026173899319999  0.2519731366480996
  0.3089534628040723  0.6321791136894559  0.6972820668016191
  0.2421045345632695  0.3930620413518730  0.6117332619377900
  0.2567367491578113  0.8018562737665603  0.2203247209725067
  0.1300818622139867  0.9504908115378492  0.3368718257210989
  0.8010678655861887  0.7612689842822119  0.3803528060473197
  0.8776409667405313  0.0556120666695662  0.2090824345845709
  0.6806323250511412  0.0123414000489184  0.6445875673259263
  0.2815278295536046  0.6514951338148870  0.5487423630758589
  0.2006415031944594  0.4122070165520168  0.5409118639236266
  0.5219708340628143  0.3076372393155580  0.3275065474788709
  0.1845106946860094  0.2696022384616704  0.4855326386835678
  0.0660716024850554  0.7767734068718056  0.4115339229322227
  0.0637773258526187  0.5820693154331024  0.8378269667040363
  0.8102956228952003  0.3342811725190515  0.1463646028771185
  0.5785114117477298  0.7923534141668279  0.9640929201774295
  0.3914823819541545  0.1839656316807970  0.3910439570971203
  0.0329007794653423  0.5401279720348523  0.6114738593024395
  0.3589946107839349  0.6509517902394051  0.4881186500287087
  0.5311097909289635  0.4724175704458804  0.2713068810194027
  0.9678004102780444  0.5984712601148692  0.3041348030882632
  0.2187914428905295  0.0064521891132763  0.1804102969534296
  0.0950805131660089  0.4858371827143340  0.5746540630173449
  0.2219778140676265  0.8066501284441620  0.2641359168430243
  0.3155609510764453  0.6616982978413540  0.4163655027915165
  0.1366320047440282  0.7810861629713166  0.5192834468603917
  0.5184490001953711  0.3927652547838583  0.9105808218399232
  0.9405656472948444  0.8273702840953188  0.6258863625341961
  0.1512068042536004  0.3441805748368833  0.4253249059707512
  0.6066743565200042  0.1586339942431457  0.8604353710591136
  0.4341663116958949  0.7792189966608234  0.5465628008659350
  0.9542326136030344  0.2400456002154551  0.3592028291764705
  0.9425492416646745  0.0304622069034085  0.3400164353432845
  0.1782012858998619  0.0813139323566546  0.2216725325401867
  0.5090764578783447  0.1058799802914973  0.7197274546476491
  0.2978126195396152  0.6942312254527394  0.7649758933371597
  0.0501635076380256  0.3462323244826938  0.5476931410736228
  0.2424586809241394  0.7355531229753185  0.1934162890325328
  0.1596736344168024  0.8638132208038679  0.1210746801611977
  0.7459458252574654  0.3549349520422278  0.5800744809581421
  0.8562450873194052  0.0157032891542331  0.2836083486625446
  0.4156373575380675  0.3921905895144617  0.3768765386993970
  0.4296969363115696  0.1352983358105111  0.5213468984624826
  0.1590617494490498  0.3427884996203034  0.0311528891335799
  0.4042003004196656  0.6351767606451130  0.0021717441463362
  0.9912097115984583  0.9006314882818685  0.3572338094548199
  0.9333007512816602  0.9318252072867526  0.1869331305887419
  0.5363840228481214  0.2167832226449541  0.9326089431898079
  0.5024069050887252  0.1947530081491933  0.8686236432226375
  0.2854919914743035  0.3951846754366090  0.4435653827984650
  0.7995562612011764  0.6391511776272323  0.4429054957783205
  0.9268268643891322  0.9003946063584729  0.6152905454783303
  0.1743387287248739  0.4074010134039445  0.3946273539229635
  0.5268828778360581  0.0737250898445607  0.2783992833119394
  0.0738979409595149  0.8857909503855957  0.2608743325042924
  0.4412223478227715  0.9193002113747504  0.4294977829588779
  0.9680410204424253  0.2355851809535879  0.7075530329881158
  0.6997190037350165  0.8649800903177162  0.6014885970602513
  0.5422464915211498  0.6032578759217649  0.2999754658035617
  0.3420121310534557  0.2848983928804744  0.0694795619982655
  0.9074176902351622  0.6504723090242240  0.3444389037324139
  0.2274655078309458  0.8750688037926768  0.2911903585524338
  0.1099815358654489  0.3045738726478858  0.3963495325896312
  0.9062640346880615  0.8523085452335625  0.1696192033298903
  0.0765233806291794  0.1665925408448169  0.4339779306046135
  0.7061592792879036  0.2785804037570788  0.1241228574512670
  0.3940998166615159  0.3300236703191236  0.0636938735029134
  0.9592517486882425  0.9231517843269705  0.1456078310679342
  0.6540433817719778  0.7291847928369167  0.6005729118582313
  0.5862933258189020  0.0879120151309216  0.3837846858108566
  0.6563431784371682  0.4503925595107058  0.4071613388190157
  0.6464480201370580  0.2315812152725153  0.5424321271873913
  0.2618743060739321  0.0795629804287691  0.2050097622031492
  0.8778028614970275  0.3289772630885269  0.0914698019823094
  0.8759776260106816  0.3947861864616318  0.5749658502431816
  0.1427493834654180  0.1487234020003821  0.4012892120488960
  0.7694909987675803  0.0741464745154210  0.6992625119606998
  0.0147555456216610  0.8438495749372815  0.4157835595774536
  0.8079371035975553  0.7344876390954014  0.7035709640054746
  0.6534638632389730  0.1608249843281774  0.2919863386944042
  0.9137845117034751  0.1202047708802040  0.5182613302682775
  0.8287800305765866  0.7714802054782512  0.4149035748668993
  0.2004737793877718  0.3899217991609989  0.6360662872668008
  0.3293961378963539  0.4857539549344532  0.0480623157023477
  0.4033357197404663  0.7109009608558339  0.8330906188258432
  0.4198768859975234  0.1695672685977587  0.7554313405404656
  0.0247945619923871  0.9759435882546009  0.4347784093125467
  0.8955118578868060  0.9022485833829619  0.4319931348981920
  0.3983036377322673  0.5174614815937985  0.8175732385899153
  0.5757068800306854  0.8644878792510837  0.2654475758623654
  0.7440420911267603  0.1970998858087984  0.7621605151354585
  0.1733536519656337  0.6124557223526436  0.6386877450714477
  0.8880812065553565  0.3206994486364264  0.6047184374052830
  0.9566692446061935  0.7667762039931048  0.4021061788311879
  0.4469847344319572  0.8241724925274441  0.1026115301190485
  0.9672736822441017  0.6150825674420476  0.5395854690503730
  0.0440299155011128  0.6051120614411193  0.1075417187842800
  0.9764395733245398  0.9104451332127281  0.6091535953908859
  0.4907614998706232  0.8265219911041505  0.1255670371429854
  0.9904596777310427  0.9059758963593846  0.7498536428123558
  0.2995255087878673  0.0836973094823749  0.1727805518579916
  0.3738416587549650  0.5182774354781696  0.4677773869018396
  0.9415005488026408  0.3086788338162364  0.0379900237109787
  0.1526040864225344  0.1244507216957786  0.0100468614319596
  0.9777183926657004  0.3048879718755497  0.9430529951521627
  0.5018051111289462  0.0571635506928351  0.9771064093997456
  0.7320203033163050  0.7448177671237473  0.2740765754736483
  0.1344683901706132  0.1853346772146502  0.5508611876444024
  0.7836918917738608  0.7247888289034387  0.5845446353466297
  0.1884657517757001  0.2524173657626586  0.6334834583220366
  0.8558801434720228  0.5901464787830639  0.7415005419117887
  0.8614565395266947  0.1180260350016951  0.0204706534054127
  0.6689645083596519  0.6494185615446761  0.4392096348034039
  0.0241976693978639  0.4925626335561308  0.2303329821081772
  0.5951930648765633  0.5783906397259777  0.5234129363899581
  0.7430135640007243  0.3456759224998414  0.7228641872788333
  0.7978386162447850  0.2628916480246528  0.8510389629004422
  0.1723915490715737  0.1466608987960095  0.1770636621145253
  0.5484442518082048  0.4816183097746243  0.1988148824275920
  0.2646953327544552  0.1439069410190556  0.1361762410830502
  0.3389565138050153  0.8187749358436206  0.6223400023679215
  0.4640573383185450  0.0482553197253243  0.8436349214006910
  0.0893366871151094  0.7025187133536251  0.7352678657810858
  0.3914572754913490  0.5488269620081301  0.0964985586483451
  0.4409318812094344  0.1225955058327642  0.1794966738108364
  0.5820170498166554  0.3496192563272909  0.1753434712979483
  0.3409249010705503  0.7154695727021616  0.4449962288126783
  0.7099709623288512  0.5201882355963589  0.9446892750119330
  0.5626273527938073  0.3946504248191665  0.9833610422928207
  0.4971535297837878  0.7127894182747577  0.8627141657534401
  0.2427992785161607  0.3814025183160200  0.6587782626521114
  0.4814550538057976  0.3148118950857126  0.8861793559004243
  0.8546169099584124  0.0532373034378415  0.8392874064414252
  0.9528943791316657  0.2758211221364663  0.1891017608233179
  0.6702422999961275  0.9334206706751869  0.2196963679196391
  0.0550172369939093  0.9776646630873970  0.6338380449324482
  0.9923719757061007  0.3514675710156429  0.5006824026698301
  0.7911505574262561  0.5166019415305759  0.7367098912017762
  0.5015839955704960  0.5205577261850286  0.8876263979522551
  0.8248097954063615  0.9975605395373406  0.6039779562456193
  0.7841997089974665  0.3959561960145054  0.3625253691840128
  0.2935395054898854  0.7160815629473695  0.9471723914118985
  0.1742503883772013  0.0517016967940733  0.9897956778319628
  0.5842691142727628  0.5394519111645992  0.2567865682241644
  0.6769897433397725  0.9534748168420213  0.9059902202980233
  0.3303537243765221  0.0049416837519377  0.9817467572002041
  0.0669299091308625  0.3603511893383662  0.1874759198768635
  0.8891163252292831  0.1690237886421201  0.2869424721273974
  0.6834720939567299  0.1024544495602590  0.9456179918534589
  0.5297637014728013  0.6443394364326346  0.7332537723887333
  0.3685499859401209  0.0168577057216189  0.2738526873063599
  0.0509378705043532  0.5344225925652406  0.5899270925115956
  0.3835024889409397  0.6680021698917824  0.3587130375559659
  0.5344767706669358  0.7822509758696387  0.4629642473625158
  0.8722984271707077  0.7666849803237510  0.3920638474091472
  0.3228280853432188  0.7502009511430398  0.1681711929562352
  0.0817128135114799  0.9683397137595141  0.4404611622576149
  0.0029909950759284  0.3404685186501094  0.5554113761019468
  0.5662849819175674  0.0838962652991935  0.1895337381702298
  0.2634135377409052  0.3746757740887173  0.7784099434700898
  0.4106420857180068  0.3576601825244217  0.6474883242690956
  0.6071398011941599  0.7137826267507122  0.1158512418023296
  0.6776227700863310  0.2383198644878156  0.0993713218696345
  0.0004618814723547  0.6616625732624353  0.9856871929449829
  0.9880166226805079  0.9550681513107609  0.0311366670926909
  0.3409696512528128  0.2856352606369811  0.6817498426981894
  0.6363258341972360  0.3495825311514629  0.2405634592007558
  0.6237464211523420  0.1009398058570090  0.0548916881031899
  0.6645035958547458  0.4084541682788289  0.2282840803365952
  0.4061659564743875  0.2201564451769282  0.5461725377670773
  0.8856851556733655  0.0415779053248985  0.4860013776554463
  0.9572844512419356  0.1061362544932613  0.0098441228254897
  0.6984968485792262  0.0698682532355490  0.5408959239182203
  0.6091165518060079  0.4211595062015994  0.1610894152003676
  0.6580487167073524  0.4408947084468890  0.0391868572841725
  0.9154939267308343  0.0288784155041936  0.3459390764685968
  0.3093762062416676  0.7094788979735360  0.8089296011370508
  0.3041955823708380  0.3713657277926753  0.7525837402849196
  0.7314104451113047  0.1885933727967830  0.3661079159029043
  0.0486228496433937  0.3557947605862307  0.1022793117227736
  0.0337895698685767  0.7833396637974199  0.9167320797274265
  0.0189622002575836  0.2393946417360344  0.9785137744598288
  0.0492393829837962  0.4064112564432820  0.6644067307676249
  0.7048540093591406  0.9412818150447031  0.2964849126583481
  0.1898304838426681  0.5208993746102092  0.6918736023646878
  0.5725265978527063  0.8267292052886862  0.8242940961385435
  0.5133002808081104  0.5470172280627339  0.0174151056480677
  0.3317245984540686  0.3656821774385274  0.7509605120671716
  0.9829227416777391  0.6642440702245938  0.0315493188082522
  0.7059956662975503  0.1951742317054527  0.4311227293927939
  0.5957287251410045  0.0089300565077182  0.6257475290676084
  0.9288737750453291  0.7629265262019324  0.3965207681327121
  0.9228567785050827  0.7804532047080783  0.8495095804894010
  0.2597888440640678  0.8475506969344124  0.5017067835468133
  0.2535423431209801  0.1305445283337530  0.4831801847221960
  0.7949751982243536  0.0530157306107492  0.0745549013248486
  0.6694560121558064  0.1710537315551781  0.8082052180026739
  0.0330790115890857  0.7239589006294321  0.9238722580306455
  0.0701814059185363  0.1007401181767780  0.7668509012312165
  0.8727218586296948  0.1965964049765335  0.6151348018842857
  0.9089594190036923  0.1414618885857628  0.6670252402013385
  0.9476126709146414  0.6045478671533682  0.2244021399510961
  0.9959003114000650  0.5988130168043260  0.1382149933777302
  0.5742520184493993  0.6498630301837049  0.4789936460152935
  0.4788309007335829  0.2590856291397967  0.4351887109324433
  0.3198427773552958  0.6466419322957768  0.5174133015780983
  0.2233035730000474  0.3258316473255983  0.5580024700865327
  0.2069064262524301  0.8981423702257488  0.7133001680330724
  0.3837674331437981  0.5134768898970454  0.4211934561945671
  0.9896977080451377  0.1236570781502924  0.0746944164771988
  0.5790951191628622  0.5901201506104031  0.9644361873637486
  0.1901698778125823  0.5176967491646183  0.1892955816078399
  0.9585502720250262  0.6463807880643105  0.7373684900598575
  0.0543607072437407  0.9068992853540347  0.6442204831431995
  0.5221080874366272  0.9084774887412118  0.6977941952323095
  0.5309458454892761  0.2893275313141012  0.1016729438358517
  0.0344711696418333  0.4891738711042556  0.4082608871527892
  0.7949435053332048  0.6025533034527265  0.6950598912305238
  0.9535185832144285  0.1784385944562666  0.0173027977186482
  0.1932390617082415  0.0557062221328958  0.0729512093649501
  0.1873887955854517  0.4704698586128868  0.8493078651116630
  0.0631954740777305  0.3576269384077010  0.0564693355864424
  0.6792878259094083  0.0116463214215263  0.2441331723050549
  0.8426340444038140  0.5347753873644484  0.9906947909490550
  0.8693481478335644  0.2546646465730999  0.0652289902353877
  0.4149921231432127  0.2996454912301517  0.8186718828099425
  0.6022278522673385  0.8385976261274060  0.1209893216222712
  0.0032645520932826  0.4093204457685354  0.5432694445299797
  0.2420321972479985  0.6327310301324368  0.7309593897332912
  0.6855731989889906  0.4408307855940172  0.4995678604496814
  0.1815903146770271  0.1226944372099631  0.9386527955646632
  0.2682078762709849  0.8646614765765799  0.3663864209415212
  0.6411651227809118  0.7960365532689627  0.3330823169643892
  0.9197010364363410  0.2010587772805245  0.2277397538550797
  0.1569765487099162  0.2693931628271987  0.9975399921413117
  0.8867058273731292  0.3123103475743802  0.5589985414019003
  0.9860975468548728  0.4466533074577976  0.8467865039001318
  0.3340494979172534  0.2750430391695969  0.1162440790250368
  0.4114689010321865  0.7063178834311852  0.8071679575053103
  0.1656264729675024  0.9156210193075481  0.5095256152311659
  0.1374052083305440  0.1764155829638548  0.6734654244385603
  0.6147482614598984  0.0908774748768241  0.9707320294413362
  0.2422599575650114  0.2294474838994137  0.8216171533533515
  0.7639238768895068  0.6597762423350348  0.7374990144810872
  0.7270332215517453  0.7175890766489085  0.9137662665995625
  0.0333668782600594  0.8349515157742119  0.7345576464286491
  0.9585031402856540  0.4502679603762521  0.7753699850140293
  0.9679100678172143  0.9021288064934848  0.0638701740832249
  0.8769196657934377  0.5320595134852262  0.9163565784857528
  0.8440832670510844  0.2652454905008202  0.1580044224785624
  0.1854438515954500  0.5105814822619584  0.4583414457695393
  0.0948890674964894  0.5098238591205636  0.4974105930446587
  0.1780352297108427  0.3348328495012077  0.2477873500358178
  0.4732783117926844  0.7986580433018978  0.3040069229997160
  0.6537271377002875  0.0159444435258067  0.9097913245135535
  0.9943336298925123  0.3883412530967164  0.3791521729961150
  0.8002969830015019  0.4847853224540458  0.2681791635224092
  0.7090617470245222  0.1834713998768270  0.7924259888236259
  0.5036890937955315  0.3911324079780933  0.8863013172443361
  0.0761967391456825  0.7984811468613615  0.3704528145330107
  0.9954254110694930  0.6657308116807262  0.1152020827318645
  0.4331015290255497  0.9890508234356490  0.4722938951220857
  0.7872955853718231  0.9783143285598328  0.1547290440043954
  0.0623534387874226  0.0499148405527477  0.4910958665912347
  0.5859607625429315  0.1505517166770384  0.1662894556155491
  0.4995174230516059  0.0342600476772489  0.1179809077348211
  0.0571775587197862  0.7745526572353804  0.8057719818781275
  0.0149375950812865  0.3720773608571877  0.7948187938615520
  0.0413016878476952  0.4575063069360225  0.9845191459934234
  0.2129100969900088  0.8652627009549058  0.5594470578295879
  0.4966019922517299  0.5109639606958467  0.5131659732232724
  0.1996286564026317  0.3373462555655731  0.4178463530967513
  0.8485892982699704  0.3997316078919946  0.0670288140705657
  0.2541977507873625  0.2617382802803364  0.0939231294345383
  0.9061877780444793  0.5189156660203602  0.8332004806475188
  0.1687307360601219  0.6984285096629792  0.7637606004416052
  0.9386275054147266  0.3303432353412200  0.2949130789065191
  0.1108651933394999  0.5079453111354848  0.4739920207626511
  0.8655478222273087  0.4687536901479266  0.6692489759687215
  0.4545617941769516  0.2777676724376771  0.5274249071345292
  0.6011826758414529  0.7235914517122886  0.6189566147051579
  0.3189527873131047  0.4729939202255179  0.0933088475519595
  0.8594903493512103  0.0035747305202971  0.7129131213388694
  0.6533221663252575  0.1072405806915264  0.7482065515924122
  0.1585830812986045  0.7076102507624258  0.4764622455407263
  0.2609958925377012  0.3797952585931276  0.7304758589004542
  0.3126219691270405  0.0165378990170366  0.1585493192318235
  0.0067406506368308  0.2860832752070452  0.2044408486283406
  0.4572788679719256  0.9967819700522735  0.3531536561322237
  0.8384380258841468  0.4749174653959932  0.7399374232564028
  0.0206778569847411  0.1687320620810431  0.9172423379228234
  0.9509292480335464  0.7645487238785027  0.4495213681187982
  0.7224908228454866  0.8584818470325347  0.8966849096002902
  0.4454519248408431  0.9827268167953619  0.5257299478923272
  0.8850798108255993  0.9528685073018345  0.3397172076975639
  0.2561985701473362  0.8903063818012339  0.4744202406368367
  0.4726845424714103  0.9154377120569475  0.9133347243073846
  0.8279357793830283  0.3641186656579065  0.5281438995907068
  0.8993319650008068  0.9791747012212881  0.5175556274840684
  0.2418994274052936  0.1717637087156232  0.9539654340421055
  0.2734045434115198  0.6499623397298908  0.5005013598929047
  0.6139872741479698  0.5809126881642384  0.4505448988888298
  0.3831429966823680  0.6772118143754600  0.2282356302411064
  0.9499253896116694  0.5416833589220427  0.5941522860816522
  0.9631497862449043  0.9901133288993255  0.1982029974465665
  0.9786281425839621  0.0368176110152317  0.0684011591247947
  0.0981356734837262  0.7986782182808814  0.0192584335164721
  0.3999522254867593  0.7493608294846974  0.6293691867070305
  0.0336831221765847  0.0333756109821944  0.3556930396111299
  0.4795219526788231  0.3299529237387882  0.3134303665597014
  0.9183802021494188  0.3405829730978002  0.1838754439022989
  0.6166689330529131  0.8639419982857542  0.6502518379457398
  0.8061414327573042  0.8341418624892177  0.4363764823655326
  0.4370375569566186  0.7163463338505299  0.9116952780492509
  0.6294700390320670  0.3095033949282276  0.0402986721611953
  0.8372176265357919  0.0423300011079812  0.4941296982764887
  0.0233367152319066  0.6107987865752912  0.2617866652845455
  0.6588247804253548  0.4408527094884337  0.7709221234301912
  0.5925065083353614  0.0131164425873347  0.1936071644464988
  0.0316728778227265  0.0118961444367817  0.1938027502530776
  0.8344997377130927  0.6969066308065229  0.1557115302106254
  0.8334118365311579  0.4697528386111388  0.9748874482330535
  0.1753484159817815  0.3917795485362831  0.9019390006155578
  0.2298020586179539  0.7380594306791506  0.2486183865882224
  0.3922074435809368  0.5886278549471484  0.4359765400489362
  0.0504308602596445  0.4596902248131844  0.9585270919426163
  0.4499988751926366  0.5086016423282235  0.5300777988938704
  0.2727255519436835  0.4793185329276790  0.3398597736337322
  0.0606713630751026  0.0086663030900716  0.1247121833941482
  0.4291428383015796  0.4325935280326100  0.5089908539530452
  0.7120216114866471  0.9968460945475723  0.5794909555450235
  0.0727795116241348  0.9490225472196262  0.0343127366728423
  0.4593400387356936  0.0904708993085011  0.1185107593952646
  0.4926745822185275  0.3640844165609633  0.5894121797306070
  0.1348115158110313  0.0922184652682156  0.9027217710956253
  0.3227766789437007  0.5733586314908461  0.8556107080700287
  0.1660341173855494  0.7797219558511076  0.8757139092464110
  0.8806308528475458  0.1281298902981838  0.1890762724166308
  0.7974337731272070  0.1243759833343499  0.0997643427154433
  0.1386388681480488  0.1028174608199715  0.7159001631375049
  0.1179117312333810  0.5957224026783384  0.9791646743493057
  0.4800186100681940  0.6969965918691410  0.1039788393397211
  0.6443339726487242  0.3865893409340402  0.8799930276007251
  0.7536120791057265  0.1451998223772999  0.6338385669981291
  0.3776327479024718  0.4827265210299318  0.6169743713198431
  0.8488938046839304  0.4673247650559057  0.0702186253795590
  0.7048772185854325  0.4679890968644101  0.3250182544276329
  0.1288026058730146  0.6497510215335514  0.3221621911073519
  0.8904390446742627  0.1163357662611705  0.0601010548917189
  0.9796914945915152  0.1025607139720710  0.9929625982610629
  0.8769104349854485  0.4327583674797751  0.4758835167310665
  0.8692665895126176  0.3087758372943439  0.4496161360415158
  0.0770895467587033  0.2329661761764984  0.7745752010225461
  0.7429165657721806  0.5411158609481201  0.2622605589049285
  0.5444182888948810  0.3505631294627085  0.2824955326595706
  0.8870654941670664  0.1980057614922764  0.1923675944966571
  0.4694057634030312  0.7135845867387992  0.9445733284247353
  0.4240769077106763  0.1910625930966111  0.4259042348559063
  0.1759576939708773  0.8312128966608962  0.8296378324320509
  0.8081227644062031  0.6922634954239232  0.2806341244764883
  0.4831368628059342  0.1205166798670263  0.6834146901520383
  0.1621314133823182  0.1377882644655136  0.0934299331856987
  0.7763408078795937  0.6636081361691895  0.5702060234111099
  0.5250097425369740  0.1543645424279996  0.5173656135784884
  0.3380644811932486  0.6448969031741478  0.5393511975767646
  0.2232201241996103  0.7857993840278528  0.1415115199125270
  0.5478775439002037  0.9291656630786947  0.9478903477377211
  0.5596206297310244  0.3892763269649526  0.8837931496926945
  0.5851739091709371  0.1545867443521941  0.8784074801235772
  0.1476831789399527  0.9986663571147714  0.9001381040454194
  0.7060255639810141  0.7197472208186656  0.0110686732857349
  0.7442728231714332  0.5134967418003192  0.7532378805820710
  0.5144052461625657  0.7276279833863060  0.3351229176916198
  0.5138460998262466  0.7102225452953884  0.5701823144282915
  0.2842989761737787  0.0125438349797827  0.2538104057942584
  0.3140398176409304  0.7598689978198230  0.7861126325425829
  0.7984102365468920  0.5332749070263776  0.2721608844612632
  0.8020644292390422  0.3377693471618818  0.2126716321402017
  0.7706686860309684  0.0372135826176936  0.4151102508687315
  0.6368034388374801  0.2347586323784649  0.8236066976571922
  0.0724831084436209  0.6870848903962901  0.6517404232241087
  0.1352141608437767  0.2813340955131098  0.2111713273874099
  0.4123350491991275  0.8902350889113062  0.1299477506789520
  0.4672966497246718  0.1768638041479665  0.7156598108988776
  0.1456423117327440  0.2729030582714063  0.3795605683761882
  0.2987506475723444  0.5778003577071972  0.5729668287470189
  0.7289483299054644  0.0655201745242904  0.3406981411084373
  0.5004812232603455  0.8364073129707092  0.7342593709027143
  0.7357479609739549  0.5118316931694846  0.8018625220304150
  0.8909624793060670  0.8014494424734028  0.2183352306754606
  0.9268965279306151  0.6574366720449702  0.2988211425785793
  0.5604667823303182  0.9902000396617950  0.9258154605042376
  0.1570681860987890  0.5103181112523579  0.4543760188806337
  0.9777720082088281  0.0299885285540469  0.3076403101148192
  0.1334393369271027  0.8678431496850576  0.5518790657032684
  0.7530227034871628  0.5920134403078714  0.7696040836080836
  0.7036554802532552  0.9922588232267955  0.5531646674443529
  0.2836365972438916  0.1059142254404259  0.6705126809549833
  0.5715537000899975  0.9687683020009962  0.6816392667866744
  0.9486324253334493  0.9661311132218580  0.3757852854092199
  0.3056133479918789  0.7402823690366955  0.2505029496844157
  0.0133416282688642  0.1628532643423431  0.3985195936042132
  0.5644195654870413  0.7218644759332545  0.8924177727533653
  0.1011679817489185  0.2572160654691941  0.6182965376611066
  0.9130969031902890  0.6949919597764117  0.4446210956173083
  0.4656766671349896  0.1103935913709876  0.9903980636178981
  0.6387947801013855  0.4232364639978073  0.1599185606955909
  0.0321208289667490  0.2228566803550827  0.2842061618732058
  0.9133652885089391  0.2483197655508702  0.7565179212427861
  0.1467833356929234  0.2350695442749690  0.8014557288519141
  0.7989257050287444  0.5244106200359590  0.6894840497359461
  0.4984152563061321  0.6701545622718532  0.3244150025327328
  0.2005643879571215  0.9586511005102879  0.7283457129075663
  0.0269853523209726  0.6628275629067939  0.9949053486777819
  0.5431311060162730  0.6725408387414591  0.2853086605781644
  0.0503740226205747  0.1706211604066784  0.8369396430701748
  0.1316752339701067  0.8108741015649357  0.3003993171281417
  0.0295247187678380  0.1680706194403008  0.9658259522095551
  0.3873400736564719  0.3892409115823634  0.3747081358934335
  0.1156326159951507  0.1702709073556112  0.8010394484798329
  0.7299482528664307  0.2596688982465564  0.3804232789134852
  0.7969579753908722  0.0003755351645118  0.6981034621410662
  0.9515952655247122  0.0312494217719585  0.9973076989165861
  0.2790165531011384  0.1773787413251510  0.4951238473500198
  0.7777588826745426  0.9814608970102099  0.9083978652029475
  0.6740267927155068  0.1883901917960337  0.4686888815766511
  0.8247799383709150  0.0531111677343149  0.9196638785759667
  0.6793461425204023  0.8949880721153940  0.7613669052916944
  0.4631087507541832  0.7140143035249487  0.4564238405163242
  0.4585388639624109  0.0699377464279690  0.5415209685548572
  0.0179927907779956  0.9188166010767620  0.5215660480336100
  0.3993903369329859  0.9233274611319839  0.8780175490664937
  0.3538045851005580  0.1057459271284806  0.4034234365549000
  0.8531466026317875  0.3138768995492361  0.3639134438171743
  0.2470225347504876  0.7634775065010678  0.7517869340390174
  0.0001144708670206  0.4030574616660358  0.2053387415919257
  0.7704890115738350  0.8962022032011835  0.4588903268240639
  0.2350211503749541  0.7939674701934509  0.1670083500593959
  0.9535254886888006  0.6912842436007752  0.4856915346742143
  0.7447730589277871  0.9168740991022877  0.9717686978642109
  0.3794451784245148  0.1265749198767761  0.4965357709836153
  0.0203873441983803  0.5948005026279307  0.0669174436590950
  0.3347782833793172  0.6760311838192820  0.2381533659878108
  0.0931366181924428  0.5931327695578896  0.9655648853648310
  0.1708245225360682  0.0690915981226347  0.4458020581937778
  0.5073949116040074  0.8997579851696553  0.7695879495782671
  0.1160813039820901  0.2581368004115578  0.9641218638188185
  0.5340908737914436  0.8289829926060973  0.1490168415542958
  0.3325267142908426  0.1557146862758017  0.6021064747952231
  0.1067861732944444  0.9323278142237570  0.9951726163026239
  0.3837557523502281  0.5459484041539705  0.1454142171094329
  0.9872563446316833  0.9588843332335245  0.2868694229371055
  0.8423260376413317  0.3961758309273311  0.9218473932831528
  0.4691755201275453  0.4495296209911618  0.8904186072390835
  0.9725324003961506  0.2774198104157325  0.1691676891250534
  0.6127743091396701  0.6514318546530891  0.4482107912356002
  0.2158426400354109  0.9249300182832678  0.8817331285221851
  0.7242559556179622  0.6416411489372219  0.0381005580172593
  0.5121171896230818  0.9627868730842377  0.1599003436037053
  0.2545612851584511  0.3220512004359394  0.4682383368937894
  0.7260243683175123  0.4773185551053061  0.3414509718217938
  0.5452268708295887  0.7059313564881133  0.6648564673488198
  0.5606653712918852  0.2128508673842476  0.6167897900977471
  0.2563677674817182  0.7242803017279985  0.3690705286281269
  0.8780734081595701  0.2679962945138480  0.6923478400283547
  0.9035716938287703  0.2370037538916929  0.4454757431402003
  0.9388985038081050  0.1031529727776801  0.3938805059622948
  0.5488823252853394  0.1596053399604765  0.5319387310170597
  0.1416561787308871  0.0914429469826726  0.4770080122034304
  0.8630586733461680  0.2028063412771512  0.7169621427447705
  0.1543027199368505  0.6744499734617653  0.9023642401147836
  0.7607761356689625  0.7893571739785095  0.9017595520391980
  0.0247865669266108  0.3031976254584458  0.9315251928435734
  0.6924187998257713  0.0465402646874665  0.1421389856537622
  0.0742710795420198  0.1851129585237107  0.5070950994488648
  0.2733567978352195  0.9252292622721439  0.9313898438153617
  0.5348907516209229  0.8484537077695927  0.6576369990701579
  0.4530780873619346  0.7698554606918140  0.8477915623461670
  0.3022819313265783  0.3134473283758074  0.4597382795046803
  0.8435797054707678  0.7130224045248791  0.8676747438419539
  0.5424199583395283  0.4926863985948082  0.1422419102026621
  0.6937566457970062  0.2608917348845656  0.4209597947977122
  0.1933944595448102  0.2698650660632180  0.1516310080416248
  0.9616308643161534  0.7756955607709359  0.7848524079941938
  0.0599124603823996  0.8806350068049706  0.2371119109627353
  0.1000978342043567  0.2499854245020939  0.9192769318943462
  0.2436304982920820  0.2483965268359354  0.3015674860950519
  0.9812501415979118  0.3081466745778407  0.3860372552057878
  0.0465837229870673  0.7076371131242527  0.4078950111220597
  0.5042865500330321  0.3685162330226036  0.5620952249945297
  0.2353685469797766  0.0634450901515885  0.4076562690860115
  0.8482950560965959  0.6724479644222006  0.5862697023766813
  0.8546905265120530  0.8390136061451479  0.0202104300668097
  0.3856240737226127  0.5738233448918831  0.5337595720964095
  0.1974278112031299  0.8134910785149687  0.6374988875017120
  0.3332775123881566  0.8374844925767493  0.5181923775933667
  0.4401691123851167  0.0653772301816338  0.5867120580292841
  0.1867459052456575  0.6054978369028712  0.6141838482451565
  0.4225179725563923  0.4152351479177324  0.1336621957919322
  0.6532474188412499  0.3064845874930550  0.3391572892544296
  0.3504434796881817  0.1451943606807425  0.8606015739690409
  0.3795823092917065  0.6295454993937981  0.0612764661697816
  0.5782280163214385  0.2419569248282779  0.3624404004941330
  0.7760108620966790  0.6939650915177227  0.2462720093913660
  0.0353404184792784  0.5801630246413058  0.7966676504655247
  0.3243847374894155  0.2932323867765253  0.6354964915810141
  0.9117740012414531  0.9058935247571255  0.0053227414521540
  0.8859594202146712  0.4587792399749450  0.2072764933797689
  0.0782680200900281  0.5643100172679067  0.7112433412644494
  0.6192883116983431  0.3747879470900942  0.4171237501863437
  0.7151110913782124  0.5187422976586331  0.6745456663433990
  0.8961385017474861  0.0501303699827469  0.0809928138762704
  0.5930425540241177  0.4178770873178520  0.1854995334284078
  0.6489486104814560  0.2742397237141439  0.2582961981501529
  0.7309961097203957  0.9762738941618532  0.7570475338731572
  0.1918159403113227  0.7070425854615073  0.4402378201590272
  0.5566729335362889  0.3513981802734957  0.1042038646500730
  0.7329424019484898  0.1236853659974714  0.3571357031120969
  0.3499070838667886  0.7894416598538305  0.5311638975355429
  0.9662380302744963  0.5229642355684453  0.9502796303324897
  0.6996938156293636  0.7235651263897744  0.8333139669251860
  0.1173163843350132  0.6013794704276629  0.1769261420131717
  0.3101833229033362  0.0376155796631161  0.4760940272153136
  0.9649372614653189  0.1976120980243523  0.6493748716149267
  0.8143767108063047  0.2022132388120390  0.4983092461038711
  0.0881567650867278  0.8543341664143848  0.9241410718500138
  0.1884867240892510  0.9762352658555342  0.5048217294370158
  0.0903239011433701  0.3887410415920782  0.7375635506003528
  0.9867843829788748  0.3016905518399323  0.8667614369391466
  0.0064225685343897  0.1874167972910293  0.5441335372411674
  0.9148754738937315  0.8266922534764234  0.9746151299727926
  0.4155265616595036  0.5678176294768805  0.7117795267217456
  0.7034151052943742  0.2808418902204536  0.5391683065673136
  0.0856341059394151  0.2805690510614191  0.0440704382857109
  0.1398523311315940  0.1903690205838235  0.5060732728932399
  0.3852143039247397  0.0865273772486510  0.1617705064882133
  0.3374507417172507  0.3019616438819877  0.5239590891012308
  0.0199468919763612  0.6327278299035175  0.4105208594790805
  0.7765962821995744  0.0024182935591373  0.6181295606537904
  0.0761763155525583  0.1005531111066108  0.3662877245245612
  0.1185788315741212  0.8843486743711599  0.5959240889915278
  0.9303690488990048  0.5289802036791637  0.9946691949673699
  0.3955147461237670  0.5393275664610460  0.2469192908256063
  0.9494909159507919  0.0400706532515797  0.4324262113833861
  0.8258194854641610  0.7564145914407477  0.2991658479458354
  0.2437376636977321  0.0778857946741886  0.1827894682761029
  0.6922234669175892  0.7144450253090524  0.4352348227337522
  0.5500368214653107  0.6599543523445098  0.8781938132422251
  0.6266440093979644  0.9311407084738499  0.1943179928755633
  0.5499155566429633  0.5244433935983294  0.9458602803356843
  0.7692542203701148  0.1118055307953426  0.4671992841709466
  0.3919354658454622  0.8916453310562051  0.8242813725377920
  0.3543665717898015  0.2277728296672044  0.7598383089795520
  0.4559253833473968  0.7072859737849047  0.9920881462465750
  0.1760010045891716  0.8501512833551317  0.9268782082081372
  0.8159213646299098  0.1396426752393945  0.7093473887353556
  0.8768421754627568  0.6708334936405836  0.2794876382374742
  0.1785121438563381  0.5309617636851157  0.0884034035998512
  0.9711935669320699  0.6019984105355334  0.1810091324927096
  0.4380423728597119  0.6385990315532873  0.6987927628617375
  0.7710538962937983  0.6962010770475267  0.2196105471225560
  0.9479214510844185  0.5821715819476428  0.8866455425511961
  0.3146052984910961  0.5749252499495613  0.5504536183682609
  0.5331849434093732  0.1173332771810491  0.6778433672259400
  0.4886691578676385  0.8974300952092491  0.8147307149730593
  0.7412221874153295  0.3953486097567450  0.3412767859075277
  0.1579100552741791  0.5617959366168480  0.7529966662349823
  0.6259693626963722  0.5873596413303862  0.7448442105775198
  0.1326562768306948  0.4544824402059400  0.7921927254768497
  0.2252564012332093  0.3933725615601527  0.0367847674781332
  0.4960612821630878  0.1737326823493490  0.7560357745840913
  0.4967015453642606  0.7616734443316541  0.1973064766556138
  0.9492219988326299  0.5171424932236236  0.8958561253312446
  0.0975085308649081  0.7782475511402115  0.4900795847331861
  0.3182425806009381  0.7941633572269086  0.3776525823331625
  0.8669866281082250  0.6672519112760978  0.6069443854509919
  0.0408017418204893  0.9658603285655656  0.7298360844106597
  0.3805305170097367  0.9412045191975497  0.8693796223320926
  0.8910878175802348  0.9249077102785066  0.1762656239136313
  0.9648737285028883  0.6364035673738204  0.3923524917233827
  0.5523607519826330  0.8517861633470022  0.9524360336287993
  0.4259160571737819  0.9929274468856656  0.9063113426983149
  0.6873354775370769  0.0839925978685197  0.6417757375706538
  0.1140106306388856  0.6307925281094424  0.7219947058896979
  0.4078720367624369  0.7572291570521917  0.6818682455944145
  0.0147692436239862  0.2305603387350491  0.8492962996566173
  0.7809400730752348  0.1883278858062117  0.8746174653031998
  0.4053003626212141  0.9089598433870140  0.4752711956951811
  0.1165996078971697  0.4628292079639954  0.9220549813997378
  0.5597154064259321  0.0922230170850461  0.1345690104779560
  0.7452865589834157  0.1119504038071448  0.4264267145888903
  0.7178125055168102  0.7264634342845815  0.7847510932478226
  0.9734842643836402  0.6644831194109934  0.1331123436152311
  0.2867194681287190  0.0360327009625516  0.4616616594844116
  0.4127568988944101  0.7627801772689387  0.7848300571822463
  0.8901707878909541  0.2453871502479260  0.4913397652760390
  0.3093292250290567  0.8397452452651420  0.5108458513295862
  0.4730766849576710  0.5169766415006822  0.8071178872059843
  0.1949239412434294  0.5756815390065011  0.4689657384079077
  0.4086783451030404  0.8947005569965680  0.0736996809298837
  0.3159523651059586  0.6383465534770468  0.7447354308919873
  0.4799184581581091  0.8471069729751275  0.9308229945002569
  0.9779345892228158  0.7793041517232306  0.9641735163172004
  0.8024498776566343  0.0703353954561929  0.7343910954749345
  0.8432182717904185  0.9354458926945246  0.6618162188562696
  0.9376879097962546  0.9767029007423798  0.9313518370337425
  0.4725327884470401  0.3563376339321464  0.1197439953482285
  0.7502676053796044  0.8849372638907401  0.7479291446919517
  0.2671314582758191  0.4031649800717770  0.1566869287251555
  0.9610487123122383  0.6649204005206780  0.0496954915716061
  0.8949904097901219  0.2361567387565537  0.4188621748969202
  0.3458910043804200  0.5791133282526919  0.5053557126172442
  0.3940453431168972  0.1389745134109207  0.1876332960763056
  0.4032904562756363  0.6692896378130301  0.3385105498883866
  0.3835560474847464  0.0528654301723951  0.5095755415123731
  0.1187691883628010  0.2811644408217809  0.3744777289060148
  0.4881996905510692  0.2604470470130018  0.9181716608405995
  0.7235484229182311  0.2148293628385776  0.6687118503931495
  0.1176798118408379  0.5990887422579410  0.0074502990994029
  0.8453006792692627  0.3950768058527024  0.0187137517302560
  0.9487526390877781  0.7374991047848550  0.3099695391542722
  0.5633836139830970  0.1485334270605460  0.1833739052038988
  0.8750931038019653  0.5251991035576627  0.7550125098475293
  0.2350776718224444  0.6258092712277872  0.6824487986335799
  0.9426972288359767  0.2063468674370331  0.7792418241286910
  0.8084606827640837  0.2622939158843401  0.1224851226084458
  0.9268776693628854  0.7059460485054736  0.3897115994736953
  0.5069579982972802  0.6481722942896861  0.8605148870629930
  0.6667023462763471  0.6681369575749061  0.7097634230764839
  0.3842958443195870  0.9001175122902757  0.4933403969747808
  0.3449088549892182  0.5133091347362838  0.6090672865323999
  0.2818213849361403  0.1030870060460230  0.0985817853383325
  0.1876643914532971  0.5124102873207446  0.3398351425349027
  0.2210823135810152  0.2308175482951775  0.8024383384736709
  0.7907561187770498  0.5065968937172546  0.8093661820631374
  0.6703410671739335  0.5027114745895821  0.1522056409359789
  0.4799204234876314  0.2021451112751226  0.2612022097544092
  0.7929920626730049  0.6508282451915186  0.7756219127089603
  0.2233478060921405  0.4002043220293573  0.1320365272671701
  0.8479347610880106  0.6079316946295052  0.6082003134588350
  0.5209304778280505  0.9201891190155651  0.5596476770694211
  0.8307296474197015  0.9245605582782275  0.7442016237339042
  0.7359635017644796  0.7920843923631316  0.7803943711302075
  0.5312512740988237  0.6457723319501284  0.6584852257852505
  0.7421528413858660  0.4895981722842426  0.1625554014355593
  0.7042566771689336  0.2774535734343456  0.1978249516847675
  0.5727706926231630  0.7812210421062827  0.4944417855400731
  0.1955166297589348  0.2584660810395627  0.9364393190879977
  0.3359872592755163  0.1041237931516344  0.6923505063638054
  0.3640553684894948  0.7966233753689125  0.3606727841109628
  0.7833503063640712  0.7499815929398908  0.3622401533011069
  0.6327642372550728  0.5826707023016957  0.5987604938385834
  0.9849374048309960  0.0273160651562098  0.2809194643749965
  0.4305130761532766  0.5675735955103127  0.6875069609991357
  0.5176268712256260  0.2536282965130820  0.4664741449414456
  0.7048196868727018  0.3181133968381112  0.4026951329272871
  0.2419173224568195  0.5098684680863100  0.4677495413986070
  0.0342652696510089  0.1736760599956619  0.7391982622628287
  0.3268512138045440  0.0244752373297446  0.1125827667966854
  0.0804731942559072  0.6773542853690637  0.5790072406890344
  0.4112408036790388  0.4828882694652639  0.9223944021021322
  0.6579272174748577  0.2769505540564745  0.2118292841647113
  0.4393681519112523  0.0004518301165712  0.2724598460735142
  0.2040164373298365  0.0057859084417509  0.3577642921946593
  0.4759672951923812  0.2250066770917904  0.0842910892310856
  0.1172507637364022  0.4772392013816505  0.0750982018772922
  0.6941010325827489  0.2582245413122641  0.4943624635606039
  0.6127321220900812  0.3060182005000128  0.4419938110796022
  0.5731201409867437  0.8503974222636822  0.5815594177774999
  0.4082731715685034  0.7473185208745413  0.2431370229798729
  0.7095189465727085  0.0798609163135080  0.6243221757444285
  0.1290098345939915  0.8129024894399047  0.2250855059251191
  0.5533097252864123  0.5824338523622974  0.8660405582456621
  0.6672815500978929  0.5940045658299492  0.3325637137191046
  0.8670383094290967  0.5605292905629016  0.4269435976177549
  0.2395636878615513  0.7550447214739534  0.6775783998904965
  0.2647227634665554  0.7840711279478594  0.4420869507974761
  0.6642524677465501  0.7264343412815878  0.3418266670878777
  0.5004730437170999  0.5721943470244226  0.7161643543753078
  0.2225757258137545  0.3352883992906497  0.2097987227005166
  0.9046651922270652  0.4661653230954544  0.6343205456356851
  0.6948488628235978  0.7170135633213314  0.0593086960053374
  0.4755234873759357  0.6408320916571006  0.6676526551361818
  0.0930026478625690  0.6066906042680319  0.1066210587563788
  0.6375372231035646  0.5906789283830673  0.9159242040888881
  0.3450670511898035  0.4972470047619748  0.9698434816534641
  0.8183720069629035  0.8706958521193271  0.7287692921979219
  0.0459752585174282  0.4053399499504768  0.5662285970125505
  0.6527363379097278  0.9435779311090647  0.5948109589490446
  0.9756386455183705  0.3032297965725200  0.8097891552772426
  0.1647809996147905  0.6635415553617097  0.0999502136998038
  0.5472287377657615  0.5128552743198340  0.7207170951539589
  0.5264158607869591  0.6010146511470846  0.3232503620097348
  0.9674455814465434  0.0945420364357368  0.9088862066410051
  0.4810001543367987  0.8571238850581449  0.3907352922641106
  0.0533807890412827  0.5133427853560381  0.8148216804173886
  0.1156741817953396  0.1019520975880933  0.7326446517554895
  0.9936099363196355  0.0955233237310722  0.9196311764617257
  0.7600253866052263  0.2132251632847256  0.6340288349356688
  0.7679015612966451  0.5965353211692753  0.7458277363145327
  0.6629826181281648  0.8620248324741911  0.3607537702998055
  0.9306546286333826  0.2558693752131126  0.6699171240281844
  0.0051615335091407  0.9864229046447298  0.5788226174616538
  0.0271190940590476  0.8605574098750585  0.9697722646936845
  0.4388537167589299  0.0929814542079255  0.1665703981608278
  0.5660493198743335  0.1701918132399219  0.7355836215061982
  0.1036221055013813  0.3879240676094199  0.8861497621772487
  0.5472138657550910  0.0042946067534704  0.8832021653411696
  0.6446732244541808  0.7146281940739105  0.4237721586201754
  0.4135077836611732  0.3570625756062576  0.6969358892491478
  0.9769520529930078  0.0551648728699565  0.6697164387800467
  0.0302417067564218  0.6470584694727618  0.8675777216356255
  0.8762180303873578  0.7842452268719590  0.7098627255696942
  0.4861520841974757  0.7874021736893677  0.4052315540334982
  0.6877195522661225  0.7915133091975939  0.8973784368527000
  0.0799382527112795  0.9650347567502551  0.7595352268489000
  0.7981012683797246  0.3971860686592070  0.8506529563370978
  0.6749360064546748  0.2901494776330659  0.6375374723560584
  0.8969522009220675  0.2551369132498587  0.0712315962210498
  0.2449735547918906  0.3943670707263442  0.3711081349786361
  0.0797257247584091  0.3232590699873599  0.2641260876064116
  0.0459407440785417  0.4942103951652113  0.0673703208354068
  0.0509741553125339  0.2846604966025520  0.6853543701824729
  0.9480195116829050  0.1287028233990165  0.1379011590943538
  0.1741738570932839  0.5609039850379000  0.7760793122542297
  0.2219413484697264  0.0773702034921529  0.3133012203118592
  0.4707068004548990  0.9271477164961630  0.2588529401936656
  0.1665541062361784  0.0144390705238980  0.2935302249301664
  0.8471202536907477  0.9775299683353105  0.0272469529291756
  0.9153665290100488  0.4039945192027530  0.1578498534322873
  0.4640295863124110  0.3502501470895737  0.0724889450076405
  0.6551554006192117  0.8477714240870610  0.0205043428438686
  0.5355138577214402  0.8341496044578195  0.1983512647000154
  0.9182670327765937  0.5279568235202787  0.9678390894816187
  0.6925962410110111  0.3846973404342459  0.0486194187912834
  0.7657735291045076  0.6616064004720495  0.5969257210064850
  0.5965034081024370  0.6552185280552986  0.6231687566331923
  0.1807734870766086  0.0509093737784799  0.0173738194738692
  0.6828206434825307  0.5087062414799374  0.4470664772698790
  0.6271612750534186  0.8474729528957365  0.4827548892159240
  0.9219096765167200  0.3858019690633556  0.5017195091478166
  0.9288543492434643  0.5852841052446524  0.7774489945734611
  0.5501043900654459  0.4526812939573885  0.4080816446023495
  0.4851621609043676  0.8968916356351849  0.7864100959663475
  0.9472212427293059  0.7023093493066156  0.4102522996916719
  0.7389583645825312  0.8844345724017977  0.7217358433222930
  0.1466359191575955  0.7192854018253060  0.5303242138952515
  0.4244114971160913  0.2397634898651151  0.0267415869492667
  0.8231048766051959  0.1242022219074425  0.1108492831077370
  0.8477115245874087  0.1922017333317806  0.1314567911307790
  0.8368631461878143  0.2534774532231630  0.3060843343580787
  0.6610741973551766  0.3695889223637320  0.5349965797238863
  0.4153880779988507  0.9547736792411647  0.1470701506418246
  0.4032141906935139  0.9068646035797844  0.9896189415968417
  0.9854700045257855  0.9838523238899939  0.8432414739012052
  0.6759038824267940  0.0081343120762123  0.3454923642678984
  0.0465577653378500  0.6044803848987118  0.2761392549786019
  0.4477497896464424  0.9734949843724847  0.6832597306566408
  0.6482485389096424  0.3848364860549263  0.0267161191451716
  0.3856021852204322  0.0554222557231752  0.5375200391993993
  0.5667118092960999  0.6988793629473685  0.7904996184676766
  0.5763855271937781  0.1477490170023416  0.9539289974580323
  0.1327616947726192  0.5981361956409154  0.5620494052299619
  0.3323494072136662  0.1508607436739935  0.5737993834904264
  0.0085776208767892  0.2378015570710447  0.3749789359626912
  0.3654464652560648  0.5799420766544237  0.8786166644409796
  0.4449974856274739  0.4874279565856333  0.0277862131733096
  0.9305744136023594  0.9595592956856828  0.3208014099079672
  0.4210725425798933  0.4117743930403941  0.2317684707064723
  0.8497924652066113  0.5607222422225802  0.4490405856317295
  0.4475812950282782  0.6943293092362098  0.0670414154559413
  0.7931883547646350  0.7371237756175892  0.6575409809901585
  0.5979263264129949  0.3531183928069486  0.2712900949075481
  0.7636572011689396  0.0072027697383973  0.6653588365517052
  0.5407967240038472  0.9226717001844890  0.6566771643136985
  0.0718916507829684  0.1498299629425492  0.1610817672381803
  0.3986855666531358  0.6001402917752797  0.3387052223800616
  0.1827250152713752  0.9568629609530387  0.6269954880728741
  0.6041331091271461  0.9326252210478119  0.5354158764754572
  0.0017413178422304  0.6914987540310449  0.4983453566469254
  0.3293296157685249  0.1052900196389343  0.4168380842468163
  0.6562253416029975  0.2351753394412198  0.9473243645315810
  0.4043253407858491  0.2589854585985423  0.4461399407026526
  0.0226164211654317  0.6642237801174690  0.2843874966868724
  0.2558549399403127  0.8843347470211321  0.8343552019225798
  0.2700654891414055  0.6345511839460106  0.7271566473116590
  0.3995713820744303  0.3125889332378252  0.4446011771113684
  0.5945824877140032  0.4452218485803636  0.0411096997962852
  0.0191235093385457  0.9512816761781077  0.2506220686707318
  0.6791000728670857  0.5853169080337985  0.9894149499327252
  0.5019578839153812  0.6053273320665038  0.2727548091827150
  0.0413673571679498  0.9699888126269105  0.4135836768110079
  0.3206407374760622  0.0971799016092013  0.0072940883065802
  0.2978895381281074  0.5679398973244232  0.8057569959927589
  0.2807518750923424  0.9739455158903053  0.0227767797383226
  0.3782417655660695  0.3037121100233609  0.0274370214416256
  0.8438670159825373  0.5044942553549757  0.5283123307809733
  0.8906064295356491  0.9925472673877244  0.2223216462049393
  0.3060231256051886  0.3623295380444615  0.7999580044237520
  0.7409520992164451  0.8714539621538491  0.6255964680626787
  0.3568894394916313  0.5042739405900600  0.5620483731001100
  0.5049767969177319  0.4019879498245960  0.2828010831007597
  0.8723759688981430  0.6929237824405511  0.5080587086801895
  0.5330726256432587  0.7702590426563702  0.1554197186979258
  0.0067347845160495  0.3709164362339895  0.4558586054043017
  0.0414060835787362  0.7236688314268539  0.3541443907761867
  0.7127338428389319  0.5165902098127515  0.5262052416888657
  0.5666094694592865  0.5985547688634282  0.3505221990695738
  0.5580299998059624  0.8667987977189701  0.8798418005749082
  0.2631274129844385  0.7394957811583778  0.2123959274538961
  0.9319794952690638  0.5481315584790802  0.5405299118703785
  0.2239798117470399  0.0498934905102302  0.5367026783675322
  0.5770316170365011  0.3752751946303958  0.4395185816718963
  0.6225898659141440  0.1579628316795307  0.9447172785350459
  0.1161484128122540  0.6802638641613952  0.6212379257160613
  0.9657782226887022  0.4036795292103632  0.6682259332600927
  0.3500765944463909  0.1583597516321937  0.0611106439077435
  0.7396098126939381  0.9812124147530650  0.7843469464022560
  0.9688363565804660  0.5519409082389867  0.4981829122098502
  0.5186598061688531  0.3547841230010707  0.1366761147719760
  0.8912230606689535  0.7497848843553512  0.2278407985674780
  0.3415934106380907  0.5333182438854299  0.3127313906217944
  0.6718485530434167  0.9707012379262978  0.0667008960153152
  0.5267470034215853  0.7808157081860874  0.5113876694955314
  0.7910354766546973  0.8734666215368690  0.7256813997112983
  0.5678297479039730  0.8519612251230040  0.4364434467903024
  0.9331727811047236  0.3069775220027766  0.3947478590836736
  0.2637379432624108  0.3226405017063523  0.0703419200912215
  0.4792374036493795  0.0631324428493373  0.8963076121326338
  0.3944232999784759  0.7828715541582787  0.4392719606445952
  0.5394803854602597  0.8527017517598695  0.4375118272028511
  0.9360407582514346  0.8976603849548197  0.3588280860301724
  0.9757439579278543  0.3177253383329198  0.6768498342299174
  0.3572477997574831  0.9733697744377997  0.0168861987264814
  0.3387401803527119  0.0182236891804238  0.7994810084130585
  0.7278363406415903  0.1169857128406705  0.3831099669247206
  0.4324429688373920  0.7794490818390785  0.4706435314904413
  0.3650460558671769  0.8936108847565855  0.5683536883695163
  0.0605768968144755  0.1234256727034494  0.4946965015858056
  0.8381630929371737  0.6556494962366254  0.6856908865194702
  0.8598523239269877  0.3331639059203849  0.1374329749922833
  0.1304520170646525  0.6079540919693222  0.6125542452253969
  0.2282539528041262  0.5023365919846151  0.7156457471295200
  0.3280680326056225  0.0848100720964078  0.1692691304873541
  0.0911241406432777  0.4092811362032330  0.0641250987552046
  0.5341820115430274  0.2081826645140934  0.6243989474030428
  0.9041142458247168  0.4907963466696283  0.4105622166822150
  0.0796376433146491  0.5124595977284131  0.3193849697061438
  0.3605982241153345  0.5127581575577691  0.7858736364745751
  0.8012808929484231  0.9208003133136778  0.1415041141808146
  0.2350239681550750  0.7730175144634073  0.1189535507026769
  0.9433004715355318  0.4154465454594549  0.1059805751773742
  0.5914726386670414  0.1692221007968486  0.7476454770038237
  0.1843276611143562  0.5716627500527487  0.4432612125309149
  0.7992595978769381  0.3684747169874861  0.4801146630500364
  0.8804150676987200  0.7784183206224705  0.8113024636660171
  0.6556418750976682  0.4500868292866289  0.3785099181942734
  0.4062524588160873  0.8313543219740185  0.5921674903752309
  0.3246207932362566  0.3921934530891569  0.5165107260253984
  0.7581576682468758  0.0482688463389029  0.8073098493566722
  0.3612529287631081  0.6625485419040806  0.4148597033474395
  0.2767312528411350  0.1076846524333888  0.6169105732934368
  0.2692096123944111  0.3492011001159157  0.1853155954872427
  0.3411367249735650  0.1767694538542372  0.3864793108206430
  0.3167027375847094  0.8854741982583781  0.5455590245812080
  0.0213243121456628  0.8926672945816566  0.0415561139594877
  0.0318839089306195  0.8081309400752221  0.0671800568983705
  0.8693765854147908  0.0507940048661643  0.2357504856823190
  0.4877943010057582  0.3109112161155950  0.4800300043991625
  0.3173742145278923  0.5080027426088175  0.1901114200481755
  0.2086050532034264  0.5203717095239441  0.1674490000974159
  0.4917490110098319  0.0741890602587745  0.6077674409993092
  0.1540080677293624  0.7384560056750084  0.2282500780587810
  0.6884154121058709  0.7983796655348815  0.7711022840961387
  0.6071538866453705  0.8606564491168958  0.3625148838648586
  0.5264254111788034  0.1712515896277718  0.8281817592440160
  0.1808650302629048  0.3999696152529255  0.9485298161890129
  0.8268522235525226  0.4155586986520217  0.6773180711386315
  0.5705316276455280  0.6462317659349349  0.1218660427222319
  0.1466548029860659  0.6440986071047134  0.4347568746032728
  0.8875211240536326  0.0460141638144129  0.0329287709566221
  0.4537458856429025  0.5763191542513583  0.8390382891000636
  0.9942193404834649  0.1051760333159922  0.3824035360489106
  0.5917192752110103  0.4305110001066298  0.4648584056658787
  0.5753535352188519  0.0041571403403944  0.8856575602535048
  0.5445045623682421  0.7129710834639623  0.8745631384683606
  0.8538445611927614  0.2020249162194885  0.7436902373965764
  0.4675984604868399  0.2543465891896001  0.9006120876771266
  0.5853419575795780  0.7976161236456683  0.3230514509848116
  0.8271850886294850  0.6765745639554761  0.9735916612105623
  0.1930613445933120  0.5279391822894611  0.9152480110172853
  0.4036444526255810  0.7109371631747101  0.5026116273848854
  0.4898688275036129  0.4203069974189805  0.6858094514360789
  0.8773951757392300  0.8280970680287397  0.3522302999651223
  0.1875520430374784  0.9852386087474365  0.0719639123534744
  0.3245429877681521  0.8655315497861856  0.3673125814614372
  0.7751251105708665  0.3297798282586704  0.8944911236008765
  0.8233837298462136  0.6042185781168203  0.6231108693504144
  0.8540326465189036  0.1958379861822968  0.1582984062645549
  0.6301915445027735  0.0887498793992733  0.5614646036562899
  0.0983101879008447  0.9388510397799105  0.0735860076286873
  0.4749428289867660  0.9964242255001337  0.4354389244117096
  0.7075255276584177  0.3434114526103960  0.2536041818492993
  0.2101538948611182  0.9244501597333178  0.8527148077378679
  0.6787831370061130  0.7950741275832447  0.9690681721120544
  0.8144899739998395  0.1239002468084257  0.8393375947555987
  0.7885582106658675  0.2652087661971280  0.1426752271181046
  0.0338738463194435  0.3016331522658262  0.8560904664282523
  0.6734215312181934  0.0731072033086750  0.2925012094701080
  0.8078737329593113  0.4071959347227220  0.7769725086269385
  0.1196195839955847  0.2141747199777884  0.2339994273823152
  0.9902082420137871  0.8936863847007739  0.3087407965666169
  0.2617741524480525  0.5091659115751065  0.5205135516194213
  0.2141374565522247  0.8031493889454732  0.3126923757133431
  0.4589167243135029  0.3020010569804439  0.7965002814088850
  0.1025224639027372  0.1770383766550011  0.9770523585996344
  0.6082035280880204  0.4483778755904428  0.3675839576031704
  0.2307091938758524  0.9406867174917652  0.3176345574874233
  0.3340843691346043  0.1645418084814455  0.9875995195340912
  0.6706661884366331  0.7270626952383185  0.8271515356319604
  0.9226159523974943  0.5917655666676912  0.1568192119676618
  0.3119251198154050  0.6900574898094368  0.0235077491013106
  0.8377321270351225  0.9183155404054588  0.0627138748096365
  0.7498133094479760  0.6681459141068501  0.6956289708262194
  0.3690417098445152  0.9527358596139929  0.1141321495239593
  0.1245215054587516  0.4581136461283201  0.7438944870931558
  0.2044013496224102  0.3849677840229143  0.7326235671028369
  0.1465352732050242  0.2777003791027917  0.1636158976562007
  0.2813187576076218  0.1602388100947635  0.7734239461835961
  0.8081758623112661  0.6067044758827910  0.2293121996839140
  0.1022051119181750  0.7092541649450539  0.3924157736848631
  0.4894190946815946  0.3081049225482081  0.7470126073827281
  0.7132774766945223  0.1385670261094417  0.6971331440657041
  0.1908331276602724  0.0349625689845299  0.7064007860243471
  0.3782847297895484  0.2839420983539397  0.1001816118119156
  0.3803595065022068  0.2306613386622867  0.3267030703937129
  0.8407201583973505  0.7721717897878176  0.4398513755405711
  0.7244930258679710  0.9382984882933485  0.5826246057884137
  0.1658209575338939  0.1449957901788533  0.3082493867425268
  0.0976256378661819  0.9499324872005857  0.2171454369879522
  0.9011456973532999  0.9697317223579749  0.0767105621277452
  0.2167593772863775  0.7942336053753956  0.9620349312625973
  0.7828643226548236  0.0632430294713333  0.7525053764259911
  0.0073701257142734  0.2999859817863343  0.8472613416392939
  0.3896032199768685  0.2907455122099235  0.2775283097350724
  0.1986222911039616  0.2030991651499221  0.2603816825241787
  0.6034641543647199  0.4212623119796570  0.2119645511826052
  0.1990648981527422  0.4709108075024217  0.0581146879876258
  0.5492486163403180  0.2834033866133287  0.2755876575823353
  0.2320423767605428  0.1640000170618834  0.9065480724812022
  0.4515532016986708  0.7734834623943532  0.9521250465036228
  0.4692386161289880  0.5480837814909406  0.1586876994413870
  0.4416134685629691  0.2499248112963588  0.9113268196936400
  0.1416722989463161  0.2386255418328800  0.8287402335054583
  0.6881115342223263  0.8718218421770288  0.3115670141320144
  0.6672286767277629  0.7985956611885220  0.8545471642659720
  0.0699437629675301  0.8245712394900322  0.6554287172470300
  0.4891449530730214  0.1380672273065201  0.1775036140647192
  0.8038644367308609  0.7894815654343215  0.7085183584353570
  0.8853170974766377  0.2593507842658980  0.5811618777631361
  0.4145424353312762  0.3546938527201944  0.2039082756255260
  0.5775236616649564  0.6024373487007665  0.2043691956137010
  0.6668426642831197  0.7213109051419322  0.5454367251947669
  0.1944755747837046  0.1864875092362426  0.0109276563844502
  0.8229724389657724  0.9526099201636381  0.3812785165106142
  0.9359805662222559  0.7949617947794627  0.2202142590753358
  0.5075706294337647  0.7118406409282371  0.0087597461204533
  0.1426683734259813  0.0608540503000845  0.0795738839612171
  0.7661184991240609  0.7390291879257105  0.6660353896686053
  0.0205036701552297  0.0968207074516209  0.3015749510342132
  0.5070641749459253  0.9048088270549308  0.0675324526331489
  0.8558179825294413  0.3942813038005549  0.8971639658701841
  0.6719835458287069  0.8538809468105204  0.5540334547461654
  0.2383056077504417  0.4960657621142827  0.7423067693429668
  0.1281773150434987  0.7424416843855870  0.6092898385315856
  0.3952585820499922  0.9532288710916514  0.1030513366509473
  0.7108921913229649  0.5072381937586007  0.4533834820099333
  0.8215626764559770  0.1931250515693290  0.1220850844797953
  0.9286839148918183  0.1168022634183107  0.4936344079641958
  0.5673767207145693  0.0043946239147942  0.6208935383888177
  0.6427990177328020  0.7274166736052228  0.8971368284560359
  0.3979695202180734  0.8536284075320245  0.2449474387476181
  0.4744174630012898  0.3432066513665379  0.0483587025906737
  0.2465783439059509  0.6563639379102706  0.1548033529531770
  0.5248874097366594  0.0672604409416465  0.9871237156733816
  0.7731331725123649  0.9314854870294569  0.5863600517435021
  0.5040708880483742  0.1518694142073680  0.1070781730657628
  0.5862871218894173  0.6040657931203788  0.2787653673688406
  0.5057908265208922  0.8356414863153981  0.7838040701031874
  0.2002526785900857  0.4029864454727154  0.5890733871072311
  0.8602531833795612  0.3940199273440134  0.0424310142303706
  0.9856636615443407  0.5327317667110585  0.2053668091230915
  0.0857033047974581  0.7902224537886260  0.9701462557453618
  0.1405811966979056  0.4460261389272435  0.2495330296591323
  0.5347284161725933  0.0256527183759548  0.1499858736678713
  0.5871016610124530  0.5211859205223335  0.9016523845564963
  0.5268002437047816  0.2150918802238004  0.5598752597015086
  0.8148505164019253  0.6042894977563623  0.5786338477126007
  0.2080007942481424  0.3359898517158093  0.1530758930220753
  0.8499178447577360  0.8277580110041223  0.3472500394003634
  0.7570298362543471  0.9434072489162989  0.3488231473124941
  0.9588828400997758  0.9890147072839178  0.5983755454083624
  0.5904116073905953  0.9659268429282094  0.1260615183534855
  0.1831699779530170  0.2695935357572932  0.4113068223607829
  0.8470165277704469  0.0178768824254964  0.3118784633153222
  0.7105783624498340  0.1987410842829000  0.1875409002520207
  0.9996512225690285  0.6109449643170189  0.6203286833246088
  0.8226458395934201  0.8698263323481551  0.6788748449957808
  0.0440062344426659  0.3228814736529463  0.3304898988132104
  0.6873625828279919  0.7247738331474699  0.5643926620342428
  0.0460280164211612  0.8436268772022032  0.9015467812705855
  0.7137767110096097  0.4919144853378829  0.1642576711974950
  0.5190106646400843  0.3166336056440117  0.9146188438619958
  0.4678913061040877  0.3202581792133626  0.9817299930911176
  0.2914052209638908  0.6108706564480628  0.0637864595511303
  0.7428659081013155  0.3988582040064177  0.3907024701347706
  0.5960892222406425  0.2209937183898132  0.5821996283221541
  0.6124240732557957  0.3054370319719582  0.7782518295778390
  0.5279451382790253  0.1516676824159383  0.6045772576435089
  0.2247539694200514  0.6289687146604729  0.7082642324638616
  0.9470076381645165  0.1475168091160277  0.7796412523806133
  0.0243141564277634  0.4781132961711586  0.5038348652799973
  0.6329228755757873  0.0182882738704080  0.6572874930989395
  0.4929999771071286  0.7105312362979861  0.5509653627506343
  0.2459531180489415  0.2053687421342661  0.2485547365804382
  0.4424333994604912  0.5404726543785650  0.2296379186624994
  0.0004754247060791  0.8074653678009507  0.3376611450250717
  0.2690844765336716  0.6869487210452668  0.6720165721589854
  0.3380632169328623  0.4814901047061045  0.0743147923168222
  0.1543989979229506  0.6946306509320049  0.8109065098512126
  0.3984444247394163  0.8376777323783439  0.9818867368109876
  0.8728574558023088  0.9201331970790616  0.5913827036414990
  0.8457915204843859  0.0955901693266453  0.4057595904655685
  0.6094162774289859  0.0176640897757983  0.1477298020323246
  0.2984122509696074  0.3752583552171216  0.6570197294116881
  0.8023451580982041  0.7007249834073829  0.3782043377493094
  0.6962130480145040  0.4865728429767557  0.1866804075937543
  0.1778553610043542  0.6539087758585703  0.1839574378179235
  0.8048540977644406  0.9822594764425165  0.2010879828055186
  0.3114651503075840  0.2797150922601886  0.2104378031029882
  0.3428634410062537  0.8391500744874666  0.9851397480711437
  0.6929761497543602  0.8632123467875908  0.4096830540750892
  0.7006710750282134  0.1506467654999270  0.6126548618839419
  0.5469975745820447  0.2568122775322135  0.3984928382381304
  0.8759719438388746  0.3942353566483175  0.2336283406960350
  0.8286996071629010  0.3291674012838037  0.1003081839359082
  0.6302776492295540  0.5843903458406093  0.6473782244174736
  0.0892443318330948  0.1031953726786292  0.7217405139098979
  0.4706250977101004  0.1121267824804055  0.8628675630522981
  0.4353683456716563  0.5157149045905519  0.7750086055490110
  0.1911300114564610  0.6457699312878711  0.3970578276999798
  0.4974873355388304  0.6442836278607940  0.5401789617174682
  0.2090918578614516  0.5227043729622081  0.5872492496131606
  0.3968431147427542  0.2369110960420449  0.0351573163290998
  0.3115340464111857  0.0861380629298545  0.9519107095379677
  0.0294088377071615  0.0465310478137196  0.4552269419349518
  0.8269860923268044  0.6975298601521938  0.3650454322322225
  0.2300602787703810  0.1135181834142460  0.3682858039021963
  0.0762083514764466  0.0177626163622954  0.2069030143925142
  0.4092964827013020  0.2310821593344367  0.8452386731681140
  0.6511216775669328  0.8588763497937034  0.9227871535140435
  0.9683191493976319  0.4366630783125831  0.0329353589854596
  0.8647303230316922  0.1177463565669279  0.0487222735314006
  0.8440542077558024  0.5184703528832021  0.6756114664313180
  0.0504426475183779  0.1188190491270703  0.5962727848608275
  0.1002891746078036  0.3749796279119638  0.2402147053241583
  0.4517635864687625  0.3190509401756552  0.3916474390209603
  0.6788664423344829  0.9844751452821240  0.9839761456787526
  0.7512001560662339  0.9467200981548668  0.3977155684501028
  0.3306664661528053  0.3156198668292514  0.3899236661537268
  0.5840037079666627  0.5122313649907819  0.6771934754632952
  0.2703763389722140  0.5102283740021619  0.4722764589284446
  0.9343507911401272  0.0045348779771864  0.6923617277755671
  0.0847741673633991  0.8189734735472711  0.2425010989745066
  0.2696620322649066  0.8645883892073628  0.4445593018430562
  0.0943712892949156  0.1739094746923936  0.9290369077933419
  0.6094673567341208  0.5112490923727043  0.5325183279359359
  0.5840383228522028  0.9874147653898249  0.9708109433694685
  0.3536053354100966  0.9084029984680277  0.9932669745545329
  0.3035594685685180  0.2744896008624629  0.1833720025645285
  0.5151401623378979  0.3190375261558560  0.9634820613255010
  0.5761716068935560  0.5204878241819562  0.8002736281322552
  0.2378967330637471  0.1951888157340568  0.4954746254812881
  0.8226101951284112  0.9876984301408639  0.9777727792354908
  0.1450921947262913  0.8854582401571478  0.6060115580923233
  0.8775860545430106  0.9563156550545082  0.3894555152558336
  0.3823216511975657  0.3927957500527740  0.0648962457729287
  0.5617215177563181  0.2167439176825949  0.2814869997764176
  0.4052176131956944  0.6484725360407337  0.5052951289952409
  0.8222222094001830  0.9175261486255867  0.8026939906371761
  0.2462460633245963  0.7359422688830087  0.2954635601623644
  0.8407322925118556  0.3135655810173159  0.4494926085005612
  0.0705134169015152  0.0566405930215126  0.0969816958316573
  0.3419483324522037  0.9615770409047109  0.7588930240536014
  0.6672810204374806  0.5815934756180395  0.1140703293463853
  0.5854515138761808  0.7805839036683557  0.5968817334724295
  0.0749871022281673  0.1730519919374296  0.9829394712551228
  0.2411782778821034  0.8754753510820321  0.2671425371048190
  0.4249804416289391  0.0569103407631028  0.2335765461797859
  0.4656591125964110  0.8987488330981609  0.8310973260504088
  0.4288127459575951  0.3609552756655908  0.7204215759747992
  0.7601699870577101  0.6889293487443141  0.2915911449752270
  0.7323702697858064  0.2026430740705772  0.5142232542394102
  0.5743560599479218  0.1615815904599132  0.8219905103252555
  0.5207452503143926  0.3453017391218652  0.0629817169067527
  0.8418200936755487  0.0521553590693368  0.0161409428461119
  0.3012986579153682  0.0911991116159570  0.8382749690670497
  0.9889884118808054  0.0241856327439919  0.9652090525976409
  0.7192963687120737  0.7901163904570044  0.9316080752709812
  0.9759837167538028  0.8486629907626486  0.1461669788141075
  0.8476888197072431  0.0865529837741580  0.3603126648044846
  0.3321815584015993  0.5159883255703998  0.8556433901817533
  0.9662582360087698  0.3024713765598396  0.4331236371262636
  0.7450010221633653  0.9466862522484646  0.6541056587935301
  0.5740939098007000  0.7849718256403881  0.0402482090124450
  0.5021076488541810  0.1262573989063596  0.9270994500424914
  0.4444314428588665  0.5339276060695762  0.3051999910991770
  0.0839486491272017  0.2835488715931560  0.4905312995632636
  0.7898764838323853  0.7733885334296614  0.0318491079246112
  0.5844094450877582  0.9417024286007893  0.9105490378411899
  0.8232687567630212  0.2577699129863617  0.0762960521784002
  0.3338570618230912  0.5360593603697685  0.6179023620700198
  0.7074837724579434  0.5817791234017929  0.0379902557401702
  0.1649723890851959  0.5858301993864697  0.2600241095380522
  0.9719949302767165  0.3050772506695338  0.9147002921089699
  0.8575210668628530  0.3948546388264378  0.9457333123618898
  0.7007877971655927  0.6356519697289785  0.1200863120149630
  0.0163905831033857  0.9859294399601748  0.9243338641051370
  0.8304002902307526  0.4068692840042636  0.7260432672377194
  0.8340335272917048  0.1971834350034645  0.7970361008201290
  0.7655693137322026  0.7117311996296480  0.1271407811351411
  0.2280018687375784  0.3234570802839874  0.5855057062586093
  0.1893850201438522  0.5912054221962746  0.2211509889249754
  0.7024037735887076  0.2855011717078578  0.6395371039289747
  0.4389884514226177  0.5964690125348759  0.3659736310085708
  0.2669110824097903  0.0788760475731926  0.3302736436062219
  0.0775233709899460  0.0424858552842802  0.4447992900358829
  0.3400379431981354  0.9600178910983430  0.8430833880124773
  0.9137986635067205  0.0595867888995012  0.1767551817047179
  0.2658237609511893  0.2771445282960588  0.4987074241985115
  0.8955125513921302  0.2597720939521069  0.2463635169038926
  0.0469966402861841  0.1201582068633485  0.5676636875607671
  0.9953159976541011  0.5806125574582780  0.8829810135181397
  0.2247673454928581  0.0296767484208195  0.7410675634389254
  0.2491468481986960  0.6327338555497052  0.8572340383006110
  0.7016147895181941  0.2841325748035517  0.6924575678331696
  0.0707030370707255  0.2768459976817518  0.3178848429757489
  0.0613330580780466  0.3763924917978914  0.8655619940376742
  0.9205905861376824  0.8345130290600180  0.7758854598657317
  0.2304281364183687  0.8700671723499488  0.1965723212917962
  0.7270836605748151  0.8465279032764571  0.0924096652261602
  0.4539593505693846  0.5151826588842716  0.7535161555917481
  0.7949639606863962  0.0555662145404527  0.2246491650292307
  0.5983836058014566  0.0787399065280985  0.2562511788670254
  0.7376041976003315  0.2003135064597069  0.1961016560775779
  0.3424550074773715  0.5757498779445430  0.5540664829014255
  0.8669894485306413  0.8983992565003728  0.3840093120710042
  0.4664560990342184  0.3557101259134141  0.6436274605352423
  0.2183708284004445  0.4831478947049218  0.8157159249219624
  0.7956061949950807  0.2599370673033281  0.9807830439557934
  0.3649156568225706  0.2204227513071424  0.6042616279342506
  0.3103372101966563  0.8936945909863158  0.0824897502052821
  0.7482971687047684  0.4833551164495458  0.9872298910312646
  0.3145958330772926  0.5062768822090055  0.8037258664570953
  0.2790681180106078  0.7893283495679777  0.9722833946180212
  0.8747536847380154  0.1858465202083413  0.5407605748900086
  0.1248449046629710  0.7900152187646343  0.9372823551500562
  0.7456243839411371  0.9749418345525140  0.0629416024599689
  0.9313801570937277  0.8113539088438891  0.3121584865449422
  0.2202193086176553  0.2645496849601186  0.4428630044324998
  0.3675282392215066  0.0878602167561387  0.1390947230561990
  0.7147150417554571  0.8483433040203205  0.4796099935577522
  0.3982883638182196  0.6718108734446960  0.3112916874932708
  0.0667278620729972  0.0967477914859252  0.3175619783562693
  0.7209132648401765  0.5287145181211327  0.9691541549295213
  0.5224989109184837  0.0521792128880737  0.4108146764440853
  0.7245205603092225  0.8043870838476302  0.3492456524677131
  0.7801715527549520  0.7774699444154602  0.1575168769406367
  0.7929432579685219  0.7064138972013764  0.5326618479921417
  0.7173977278487574  0.3522029243850542  0.7315302815569826
  0.7177754569792842  0.2839300989379498  0.6151591369458710
  0.2667364588957312  0.1733464605750981  0.6768137836944127
  0.0924036715731612  0.0321483193714894  0.3998397576935741
  0.8601647444559766  0.1277293308323071  0.2328832529568192
  0.7838901922465265  0.8666687975922180  0.6032548992780868
  0.2627020658920786  0.4839587572214157  0.9458145445816857
  0.2931975016751130  0.3597306210692165  0.8245590594734837
  0.5514205483946185  0.3014520693242624  0.3248138567124311
  0.9815405308556507  0.9703970722232312  0.1271864598819675
  0.9606974635776757  0.8013185467364948  0.2603501025511138
  0.3598925203925440  0.4623135251324051  0.2964176441953273
  0.6205456804560604  0.4296088824091698  0.3120648327623941
  0.4332620081263611  0.6365106604743458  0.9228179073831766
  0.0247570618601013  0.0463429346995741  0.6600429157576558
  0.5463475082697020  0.9759731373229411  0.6927546792126436
  0.8153563312314011  0.9610462518025665  0.4297529450607285
  0.2360841371711635  0.0107832681421977  0.2641403213971596
  0.0413606595086269  0.7690614126641211  0.4853287150280073
  0.8847131160644410  0.4624317017802739  0.1144910856815858
  0.5859305340009443  0.7209457097362754  0.0358327683074660
  0.5846205849499847  0.5141064291315670  0.0245516150297010
  0.8319692180125671  0.3380836023308265  0.6826469675651406
  0.1133026612542290  0.8086508373368040  0.3225182479027269
  0.8581176717144147  0.5368800691791203  0.1359151562360611
  0.8200247786720869  0.8300169016118065  0.2675876211006736
  0.0979623815244304  0.7418270181481761  0.2172380546401451
  0.5462405651986378  0.3068803257093622  0.4757094588329061
  0.1388697951947835  0.2779588909791685  0.1362792062370585
  0.2369432926793194  0.6504546512198647  0.4581678579305168
  0.2452717232077102  0.6503489693577197  0.5059290067431683
  0.3701010632837654  0.1630065820431276  0.8109464368744168
  0.6810124839234083  0.4579800232203030  0.4211977447341066
  0.4123748391701202  0.1876654929228158  0.3719583619453796
  0.5070116491251598  0.2641277017193120  0.9869330436850084
  0.0234066044794348  0.9653013291125770  0.7520266061920833
  0.4157266634328685  0.8427017144644412  0.5153615474476620
  0.5605069288937190  0.2575275544393525  0.4406769874104983
  0.1333953364044228  0.9506573056435982  0.3085496165143245
  0.6076653646626334  0.2954005978092484  0.3224521635886836
  0.3065165908258130  0.2301796985956286  0.7508887610402013
  0.7430689562932213  0.8523060277002602  0.5292484005475679
  0.4543333555384781  0.7215641664433989  0.3812159866437546
  0.0320705321601445  0.9676616002144773  0.3872773792253368
  0.9498856278978561  0.2389949089010623  0.4326901545899844
  0.2651602671591413  0.3635390983313980  0.8254917788185633
  0.0477621296045041  0.7595643158660589  0.6298956709438196
  0.5106871508139300  0.6760572241818078  0.2506242769485544
  0.9115019096677965  0.5241442910249271  0.2923495243866632
  0.1749172794990998  0.8270704412288706  0.7803360977988612
  0.9811736297879361  0.1710101998274806  0.0226042928378088
  0.3589060079678689  0.3608275993033297  0.2551353144805353
  0.3421275000565346  0.0226814202225457  0.3027039170690168
  0.1641689422470615  0.7151649471666779  0.9355500392080214
  0.8309598640559573  0.7272783711166723  0.5943127442688380
  0.6548014119911419  0.0940128757888521  0.9075611419350995
  0.5090256521250960  0.2440457539097208  0.8384084158559414
  0.7002425378931831  0.8552232772785591  0.5534916905870148
  0.3250291864082507  0.0155120271214288  0.2138000781095761
  0.7953180726193972  0.9505142235998957  0.3775095223348365
  0.5063244795261083  0.0699670519550057  0.9025509376031262
  0.9302020878326678  0.6797765738091414  0.5674806685352105
  0.3788720749498999  0.0379345529440872  0.0467426146712440
  0.0480051243709424  0.8839942662374738  0.0004727959122807
  0.7430200219570606  0.9609632782002652  0.4435208651977219
  0.0141024397614623  0.5515954477931726  0.4836960656249835
  0.1038958294629215  0.5610552077991967  0.7233902754657955
  0.2951171768417477  0.8051843637378930  0.2506086009763661
  0.3949949460661665  0.4044897225722834  0.0860833257117013
  0.7987559325128371  0.3264434492782604  0.0624387613977189
  0.6957679614134750  0.1366567614979707  0.3278989068414587
  0.2080809753522101  0.0673213152178901  0.4146605402908082
  0.1632679342717745  0.3848373573918857  0.7584402850946786
  0.8745070149744580  0.6104400509775716  0.0134313774166769
  0.0107969164998317  0.0897933566769058  0.8739551799813259
  0.2221263939592358  0.0545517695583207  0.9788640965337208
  0.8516824901875086  0.6170787804358764  0.0304966471720189
  0.3977920722883875  0.7114520271784316  0.5307112745912160
  0.5365819582536326  0.6765271298425224  0.2395215461180522
  0.4578830361419803  0.2201963045876888  0.1048025043647164
  0.6641447102190995  0.0122149083940196  0.2911433686406502
  0.9562463786701099  0.6638326384424204  0.1788301073503539
  0.0589769181783988  0.2245228156799620  0.2913533690607262
  0.7292362438085266  0.7318447467906756  0.6012235977207815
  0.0473393308016289  0.7504928460157670  0.0521873256683418
  0.2561446694827676  0.3991155598921268  0.5883990362673988
  0.4540868991911559  0.1382327313849751  0.6181468648308226
  0.2661882910125694  0.5269219879828330  0.2524256455780824
  0.9764636574771705  0.2372792063149846  0.4406517082301339
  0.4060163185803746  0.5368210367026444  0.2734281858999933
  0.0478732089383231  0.0141943942689666  0.9137757437918845
  0.0998028174142986  0.3834166791384606  0.8369563051664269
  0.9868856695266388  0.5015463271613747  0.3517021655207212
  0.8974749791638162  0.1646487105542584  0.3648661576777564
  0.6282746918683240  0.6650973241448871  0.7403732060820807
  0.7115162860769236  0.9152652627429549  0.0974228369314576
  0.6616366560039664  0.4467323539801846  0.3215030541815764
  0.3166983120112115  0.2420429578318141  0.3627271525703067
  0.2297777646213426  0.1182137789055125  0.0463512550344313
  0.7752811299025901  0.1753451352724294  0.3633319806635077
  0.1110554897372081  0.2600035900739412  0.9917623352564136
  0.4803365232591480  0.7721629721794900  0.0651522731836435
  0.9403515226851842  0.9016493939366585  0.6975699710227438
  0.4260058623732078  0.7013270246567124  0.7538214480004742
  0.3873318424014937  0.7474372534699506  0.2238938079980391
  0.0069586444709289  0.4229568831349595  0.0614423802433705
  0.4294016627061265  0.4791565213001948  0.2559829611226491
  0.5295728534860463  0.0756046009397247  0.3064738893678519
  0.7705328130519277  0.2114387448645971  0.6829146392408161
  0.6690974392391900  0.7923449158501168  0.1917743360590302
  0.5322705878197806  0.9342346463648882  0.3368350730972647
  0.4260885611394556  0.3888339641470203  0.4516749750632996
  0.7125329586392435  0.3940872088776453  0.2935977054198621
  0.2104885156308598  0.3099860238153177  0.7610917466740895
  0.1989450597365713  0.0087415786430670  0.3299597681176616
  0.3648458970271052  0.6323317461888837  0.6869312225656941
  0.0020005765991240  0.3540402395544186  0.1115261608654799
  0.2684459084617707  0.8810593376428462  0.1694930010524280
  0.5191329196922778  0.5360896290878889  0.2940672504931560
  0.3740226146387364  0.6054026958239703  0.2883267022768859
  0.2585544278951917  0.3928600605085328  0.3955820060273953
  0.3547902627794802  0.9411228819416971  0.8838996770948681
  0.2228339300425035  0.1194860368702875  0.5942849247688768
  0.1539547242349370  0.2057448459757522  0.1677112044852540
  0.6548836176292353  0.2211026911430903  0.6400483482484355
  0.6224395464926497  0.5897737848191706  0.9894544649040893
  0.1830441193330698  0.1750644550252965  0.6911827914540200
  0.2040835548240928  0.5700895575026016  0.3482155748740280
  0.5654201540173799  0.9449434094046275  0.8897819871461425
  0.9989210493547874  0.8949058764030718  0.0241920483927540
  0.9136644097318566  0.2018914855192313  0.2000446435433879
  0.5776627240453304  0.7912059666821244  0.3712718815795360
  0.1390255953674915  0.1109768086762843  0.9213746978135088
  0.3160656327098299  0.5350965188164876  0.9589837093894903
  0.1168559000045150  0.5201016012467989  0.1504148346352936
  0.7701764496037883  0.9830602864478123  0.5188804941650607
  0.3471541857347790  0.3623997099925405  0.7742122393584719
  0.9470342472326192  0.6633118215934211  0.1231005214315465
  0.6211725670426939  0.2449313136779947  0.4816366905357573
  0.6672969205227568  0.8871530184272954  0.6981738649984238
  0.5808797011416027  0.5812570734916269  0.1601570182958543
  0.8725992841261585  0.7878946568991492  0.9686526758386205
  0.8264452062276244  0.6117285426498477  0.0152272156704303
  0.0445507588547221  0.5966408334453531  0.3028303589766270
  0.6536764649768551  0.5781890772661705  0.4773712759055038
  0.8692212151804125  0.6505011308358273  0.0887237513026785
  0.0935100013232151  0.5895973904646222  0.3044063072461019
  0.0486452260997901  0.8353651277296069  0.3742196844415352
  0.8479640305013535  0.6843404593854679  0.2418498010349512
  0.9967558905807604  0.4334735698453791  0.0368077355677401
  0.0454943032813897  0.2301773258598621  0.8114555149213396
  0.3669954975268725  0.3841465565635881  0.4944295820047508
  0.8965093874115527  0.2527636180896618  0.8426709941293539
  0.6603199292123375  0.7995623024197157  0.6553081240752472
  0.2682143198189389  0.1108198223171757  0.4174936507233948
  0.3810233076399475  0.0729910176404430  0.2354807017409001
  0.1591873002313506  0.4159885306231662  0.4675962581140931
  0.2255461144675729  0.4036590153377783  0.1799552881089333
  0.8284204275332722  0.5618222957244361  0.3952885611091975
  0.0982964395887909  0.7894224764176033  0.9445859620141625
  0.3213597648529867  0.2265074536252172  0.9276938168195581
  0.6690657449602146  0.9620863339696737  0.6893835830962749
  0.1830418140886572  0.6976641419687654  0.7173172134160817
  0.4781712923516849  0.1515331778219383  0.0964146150874364
  0.8382802740167276  0.8702790386498023  0.6549269661219046
  0.0112493352699433  0.0426279526614350  0.7075921619109113
  0.6848575718294340  0.7395057960202134  0.6919316336655844
  0.1053199845645325  0.6952925428090948  0.6877492914866457
  0.8717407444266011  0.8459632183184173  0.5118003934201772
  0.9855214377358766  0.9609508745070664  0.0800656516303276
  0.6728544491766697  0.3843013963732982  0.4148323479058614
  0.4599695218403723  0.3369344466495363  0.2938746362604298
  0.6136459700249145  0.7283739106145133  0.8998053241785061
  0.3375327095958332  0.6941467016602090  0.7024833911783352
  0.6758553909684665  0.5874042551485722  0.5763305419345438
  0.1070892044213875  0.5040190569951952  0.3993701586134857
  0.0022057466747275  0.9882246294858050  0.1707891515206440
  0.8655762628777864  0.9446437607559011  0.7071212286629717
  0.7534345596499481  0.9068916238212654  0.8021244409823425
  0.8390545338633051  0.6389555119103443  0.4109563562687721
  0.2548038945891434  0.1132236634819602  0.0586487747808897
  0.9498221256748599  0.2656793099322388  0.2620425174732158
  0.0669800502376048  0.0822271584755487  0.1676396424820646
  0.1311565411756173  0.3332055803975517  0.9911867628438591
  0.9161731293785574  0.0392747042089848  0.9532618955301828
  0.8499422420699747  0.7835167263582496  0.7183607827071524
  0.7992082689613326  0.7847522533158514  0.8372153877615134
  0.4967529190416996  0.7700108637277392  0.1211738480374720
  0.9015143619159741  0.1980367812410651  0.1443470014434206
  0.2129513218210358  0.7839146249412461  0.8878442233567896
  0.9323439039739898  0.5568017663823174  0.4652079856464080
  0.6816484707407960  0.5798822168907075  0.1390221503258504
  0.3317966880652981  0.4904181386074269  0.2639948850998723
  0.2418402026751443  0.8213249338833127  0.6543627231347008
  0.8358521461714330  0.5429408192712314  0.2302974436370951
  0.2362392814301476  0.4688924469097309  0.1015794512735866
  0.9452346779807387  0.0522039896721963  0.8100207044083541
  0.1280830041580601  0.4836649631776816  0.1229502951316307
  0.2697576383535485  0.5970896811680213  0.6153168987938312
  0.4126791559372049  0.4688183512961658  0.3802326329283836
  0.5392297176034007  0.8432128629612524  0.7059919165846325
  0.6092880006853931  0.8555807905603110  0.9491397009183874
  0.7491461034006193  0.4829782068043719  0.2138423594289734
  0.9344961780951703  0.8646117281120562  0.2164865740966530
  0.4262537479503737  0.9630810970122701  0.0358475477668643
  0.1614242576768904  0.2590858667608338  0.3604265531327335
  0.0028145196991736  0.1210048899858753  0.5072679671972931
  0.0776453784683271  0.6360061795887928  0.7534478369966107
  0.1707058606745576  0.8466163420661158  0.4529464850315034
  0.6246114473092516  0.5805027108529911  0.1378222041610626
  0.9888231666444967  0.1828200543758323  0.5227695614471920
  0.3790469236658884  0.0574634096462703  0.2973273926504476
  0.1281156035113209  0.2326787451494917  0.3562348297735519
  0.4658855296412415  0.9671454189122362  0.7549291773635000
  0.7000892123536784  0.3219136066469573  0.0765427106104073
  0.6113753300011460  0.0820780122287446  0.3951941672335386
  0.3458826612704944  0.0419199421967477  0.5994401893508271
  0.3385224249042074  0.7778360348943104  0.0167592855995874
  0.1405698323862793  0.2844070675248477  0.4276317221904555
  0.1396839821920163  0.2094172378029333  0.2147687919831140
  0.9072498841615756  0.8033905303505467  0.6826420229430594
  0.1632583015614911  0.8587449355233506  0.0728546582178856
  0.5784927833923458  0.1724491910260721  0.4054586466039314
  0.6135232437548062  0.7872197157420452  0.1786568439521492
  0.9872334839740815  0.6407117472637298  0.3743042110758001
  0.5611049889109521  0.7127025269003379  0.5806643851737755
  0.5234731622897616  0.6434192041210764  0.6102670514743882
  0.3100979086379321  0.2523526708132121  0.4089079445588446
  0.5150895663373916  0.4449186684786438  0.8751687266571889
  0.6873565094942391  0.3161015123529257  0.3807562728073250
  0.4611205556714373  0.5425707794231720  0.2076478921053066
  0.0927827167536216  0.5898841650945501  0.9372216295101856
  0.2321234600947933  0.9507158517765698  0.5593779951408363
  0.7216660457230720  0.7953470505090249  0.7332241726648029
  0.0705880688171481  0.2978439485315305  0.2479578574872979
  0.3315886830151203  0.2215554803225895  0.0969662590895664
  0.0813325034071958  0.0509872361657989  0.5738861504065403
  0.4381222915956176  0.9644241044999399  0.7941588568351162
  0.6417660012095261  0.2335940448285015  0.2985659664749671
  0.4105929018514312  0.1811727310353164  0.9784199006495991
  0.3689523672315877  0.3556127676437076  0.1848958398779432
  0.3373535616321708  0.9474140169939343  0.1814422053774507
  0.4571421672730415  0.5710574143387145  0.7389663730889366
  0.7271279372325797  0.3266075342573616  0.0875610360218946
  0.9906411566517822  0.9816045711286951  0.4788145114784430
  0.2787083129790299  0.2942964636931019  0.8950030260031304
  0.2269363156173038  0.4706465328136330  0.0531379446653699
  0.3176656556474331  0.7181932242160519  0.5563364584862230
  0.0503909244448587  0.4873822403254402  0.4899630600732614
  0.9589671207267411  0.2117673745994555  0.1887768769497967
  0.2686516079530090  0.1451654691538536  0.1639413369996054
  0.4663061814467867  0.7086785637391421  0.5598944601171060
  0.8631170660280157  0.1873168168778895  0.0857785077626667
  0.9022775690836614  0.2526286395289734  0.5407663836208029
  0.2110631316674496  0.6926967380092871  0.1194432737145498
  0.4178037300618550  0.6067550572993918  0.2665647204099121
  0.5758762355515187  0.4254959112576482  0.5997723771432517
  0.7457553945792380  0.7025019759209122  0.1827167567282897
  0.3296876665318363  0.0081688700424665  0.8409696800876569
  0.5022657838708473  0.2527832210515003  0.8649829171842273
  0.4947075113289821  0.5960828828846924  0.3700327676870707
  0.5254252998434342  0.9926838412546098  0.5565743844195976
  0.2390330407953082  0.5380390014020282  0.8974992280493962
  0.6197760858046102  0.3038602558911908  0.4899940599733474
  0.1423735828752236  0.9111244224804730  0.8494319347208151
  0.1343663388115723  0.9694511673021377  0.5699590363377567
  0.4263716198788874  0.2423591270160225  0.8648859669869583
  0.6064432045929325  0.5116729174420831  0.0764664992222804
  0.9190199147179832  0.6478209110519518  0.8013649514312400
  0.3481638670648851  0.8086118415930676  0.1819496468184727
  0.5083731303909824  0.6175209771539114  0.1773446402642835
  0.2689168297500549  0.0084606475688897  0.3007190613550459
  0.7273793363978325  0.9043937747197983  0.4780448286449274
  0.1289431939137419  0.8775792823715142  0.0452376873368869
  0.8962974107325705  0.3885450563119308  0.8711905261612406
  0.5120975414703981  0.5745152274448878  0.7918331182347942
  0.3054696317843701  0.8056183481070425  0.2769862535391808
  0.9467888826706041  0.7736681991671933  0.7377996363022086
  0.1592650286456117  0.8724892156971515  0.1682272102037446
  0.8568477774949383  0.6931186730617361  0.1376100604713426
  0.7497020481149252  0.9236365807024173  0.5441215497330234
  0.8191513339456878  0.4740898303630779  0.2249106879313313
  0.3161582239537115  0.8814812794897244  0.1685007176136117
  0.5529926896234424  0.0289839981508370  0.0207728706272507
  0.6168230287954501  0.3830952829089998  0.5120842451314571
  0.4263676522401478  0.5175134467339866  0.8233081801008076
  0.0026534193407720  0.1919543558606387  0.6192052139813419
  0.9457624717161736  0.4790858713428995  0.5107504313248303
  0.7409720541727360  0.9406174426082846  0.3723375696533626
  0.5365888146561631  0.2150509087526263  0.1990166732148171
  0.8593782626774377  0.6678791291535666  0.3258145806131388
  0.3763948873135349  0.0300264035143754  0.0990589979762798
  0.3054086511905191  0.6831882336587187  0.0995175698690418
  0.6710634476195108  0.9229335918804230  0.1723524608000123
  0.4167713473130988  0.4783415203404703  0.9498119034879466
  0.3280958022217313  0.6496536826975239  0.5651933727713676
  0.5215340360437039  0.8634662390351062  0.3164118116542175
  0.0976257213037580  0.9187822098396565  0.9108092365766975
  0.9941488888267329  0.7388384627686677  0.9622849867219833
  0.0199694622563255  0.5921389881240381  0.0104038604858799
  0.0341199788462974  0.1192196023588485  0.0400093785652739
  0.0868805287754872  0.5247992091277633  0.5449631616159064
  0.0437801179297515  0.4414202751519463  0.0247863485614407
  0.6602576948799274  0.3729122036798302  0.4875423495245532
  0.6280181801756469  0.3783731680883561  0.3342409867362091
  0.2676380187613319  0.9818248339493187  0.4236395499367255
  0.7147253224096534  0.9837605411036672  0.5069199914185877
  0.9326500777313009  0.0653923610387148  0.6592439352382090
  0.5319272970175698  0.7897149772826516  0.3882144011117174
  0.7267299397136927  0.8444918455928572  0.0430729863966538
  0.3691757895906595  0.2205777193007844  0.3035119667294489
  0.1476066740577500  0.4329242800741950  0.2275542625184826
  0.7339433835610928  0.5203454693335836  0.6529559021430668
  0.5435127762948569  0.1710357881491697  0.7524371718451979
  0.6415780019334508  0.9239949094503591  0.1717671561630501
  0.9736288663244573  0.2128474510846723  0.1426932443848503
  0.0749969501082656  0.5384404009180611  0.0943835575608323
  0.9591677236286116  0.5279561220498773  0.9992455947225481
  0.2754102398380052  0.2216561367912456  0.4914266062014641
  0.1890294751470726  0.8295563574131858  0.9764869654677313
  0.1469382715250601  0.6566445130868455  0.1459258600790477
  0.6081454947057285  0.1560922104066865  0.3075909419038226
  0.2464727151897237  0.1469085069791378  0.3376725724627533
  0.0121106853618361  0.9862723817768909  0.5302859570821759
  0.4616434569856820  0.6082498850463121  0.2449297265192491
  0.5503542040703211  0.8488211793898572  0.6809684243882378
  0.4416014873141508  0.5020811931865933  0.5781487506827210
  0.7165306539352759  0.6386032996522366  0.0649286946553107
  0.6851207798313534  0.0567941881382069  0.1669563481170506
  0.5124246065843499  0.0680326402823094  0.9307592044748570
  0.0717069512754158  0.8289386887110822  0.7066588304888266
  0.0656446664670523  0.7366464157185602  0.3114406062286824
  0.7619164112056180  0.2814155085209969  0.5923993295428317
  0.5766962929777476  0.9376317276268777  0.3145663754805679
  0.1434354404232216  0.7928868040592286  0.9577909033229955
  0.7204615578534415  0.5763312021770306  0.0131774593513380
  0.9709324585354498  0.1236213872215861  0.5636346526693621
  0.1332075813287119  0.8373921278449835  0.8538591057015760
  0.4353442731725055  0.3846712083758787  0.9156449489559022
  0.6778610948003115  0.1338376271771184  0.4395725784652131
  0.7980328969302387  0.5156560574653956  0.5413731839621316
  0.3430636660299869  0.4406834308803275  0.7773933255697640
  0.5407224925029505  0.9382346661194217  0.2400495645478576
  0.1188853142698768  0.3860737411785623  0.7361835709856225
  0.2994805204778919  0.8383557941819270  0.0093055389264465
  0.9241575401596622  0.6496905495779844  0.8289898329074677
  0.1634114659277660  0.3292085112650422  0.8993529692679004
  0.0780020461194132  0.8628473435014424  0.5403832814228555
  0.5879001024254349  0.8716188305207013  0.8795155675316485
  0.3335869327835108  0.8282308812422623  0.7964114502330673
  0.0411864125540339  0.4543134815087528  0.9113481023712059
  0.3799243525482465  0.4998104756085707  0.6911824294084711
  0.1024200567422453  0.1820018843166711  0.6290248413850715
  0.3789601612114589  0.0917831832576379  0.0872117836825856
  0.8523482433715405  0.3346287446342328  0.6646992075640237
  0.5742522829094987  0.9349949750625648  0.9362712739462999
  0.5461086252669588  0.6504134565693830  0.4834397173739038
  0.3270616046522566  0.5127268130958040  0.4825813753862126
  0.5687233032854435  0.3044903735318490  0.3478106439298141
  0.8644589459029088  0.9867679821923320  0.7612787161966568
  0.6957803541374936  0.9514918698751340  0.6486245152128625
  0.3194453866082588  0.1627957056309290  0.7423685451149540
  0.0622183485980885  0.6558609623832120  0.9030973623486235
  0.4610027518375813  0.1905257515352642  0.9672555400654801
  0.7442952193663464  0.3763442846574944  0.4830413632571182
  0.3974495779828512  0.7701688686460751  0.0409264455411345
  0.3998608584059342  0.9759606732258592  0.9956831645345100
  0.2253436850341505  0.4002155186546825  0.2278808116015032
  0.7800397066447063  0.2101550913356388  0.5798260837073749
  0.0154173849925605  0.5814834553129390  0.3378139542499443
  0.5948839787904490  0.2274642662398066  0.8876204051983090
  0.7529083933892322  0.5353899455796376  0.2892013303135191
  0.9655089055953575  0.6001315795006867  0.6525313307278925
  0.5261064996069759  0.7654140362890226  0.7380378422708143
  0.9949218565157909  0.7019207517716787  0.4242537572099177
  0.6889988115256886  0.0166142927564769  0.6710154822122254
  0.6198531483841637  0.9369563743614167  0.9548967432097710
  0.8171105512054937  0.4243357699211166  0.5734750886910164
  0.7891207261670123  0.4287251940462222  0.5706575782210553
  0.1384632282040367  0.5757302645880955  0.4632701158437175
  0.3697146143631665  0.2236652720398382  0.8063890195074059
  0.3501962002176109  0.7605060698927061  0.8436820833341167
  0.2184102608361071  0.7760850677598565  0.0303212699078695
  0.3063528871329135  0.9502395489511747  0.5523032690721390
  0.8981414442732555  0.7192364421316990  0.7744249561202899
  0.2394282582368027  0.0350869623005842  0.6941026047946677
  0.4387912182831141  0.7735229175356787  0.8953659916677077
  0.1848719440196190  0.5282624836589398  0.9635450812540151
  0.9249215949439723  0.7377226756294737  0.3512592978036958
  0.8818300841355524  0.8763504402519208  0.6318153364562351
  0.2946512102960971  0.2116846249210833  0.2385599031341004
  0.8555074313254480  0.3303719222905804  0.1096662518710100
  0.0316120999063463  0.1658410553484558  0.4190947481568770
  0.0956609757525588  0.2926591088165953  0.4434384228256772
  0.8122436677690701  0.4093763830876426  0.1408903969692768
  0.1766452489837950  0.0299123404642378  0.7538921488953280
  0.0319191489746035  0.8900951703930613  0.2843317856778907
  0.4548047493932286  0.0347380269239589  0.1026322195219747
  0.9024368807943662  0.5370708210366006  0.1925637965807695
  0.3607504951265461  0.2795884040845353  0.1218282183635632
  0.1853980849257613  0.0492459995320561  0.5782820394517322
  0.0689231927751342  0.9831632826289627  0.5368679771637133
  0.7294660643967350  0.1988907381899025  0.2698196239081299
  0.5072973165741276  0.3623687697250521  0.6140727122631793
  0.8834241067172365  0.3213685228623653  0.9615274734195118
  0.5909554975106605  0.7142459494687377  0.4406038582101404
  0.2210927541214753  0.1206022871494776  0.9617842297219283
  0.1395996256571684  0.0882194936396396  0.3283913847999304
  0.0170849450620366  0.1387505913714970  0.1113428628048180
  0.7987293657955962  0.6151571081863725  0.1841753758366258
  0.8535897954833669  0.7556055488283906  0.2927310183822831
  0.5922823500991227  0.5778120093535185  0.5724131230855122
  0.1442216765841363  0.4739957524957795  0.0688046134832398
  0.6207725037547203  0.9951185962534697  0.5323969246622345
  0.8419972937666731  0.5798599713138340  0.2996987349881591
  0.0228245545505850  0.4506674341220641  0.8899865288794632
  0.6424652777223906  0.0964326013616047  0.8243767165329852
  0.3483612474498755  0.4084117983131078  0.3032858262788015
  0.7386355625413773  0.2686831553416348  0.5080303551130376
  0.8870474034883302  0.6387464490074016  0.3867122821306782
  0.1365215220071970  0.3957058107124496  0.9318100486811820
  0.1582714670399666  0.4087911688805432  0.5653928378659981
  0.9468555808291188  0.5313056847712015  0.0984414390814213
  0.9300179224121650  0.9906598619514037  0.5962378624672540
  0.9333336641151424  0.1998366948048742  0.0841341738896239
  0.8296739272187029  0.3376430952530978  0.2080565755216177
  0.9357704378416917  0.0387000866655143  0.9016946818779068
  0.5424542671898617  0.2137444370723676  0.3020259897792326
  0.3324261494032347  0.2932215512049613  0.8044432447101908
  0.0730185884676494  0.4757762083397871  0.6831533292703214
  0.3000031886443125  0.5685846443807417  0.7564467342867811
  0.5904860767435336  0.1560844764545633  0.0373417623534546
  0.8410168487818376  0.0548000077068175  0.0908491841026011
  0.3071565320999675  0.0367484412741696  0.0313373969464403
  0.0281476067580381  0.0618444057302551  0.8248359743120383
  0.7172419131424926  0.6585739183531203  0.7763940498512516
  0.8446679378477177  0.1671187953637923  0.3713626289964353
  0.6585746490598505  0.4438473254260196  0.8903312422477260
  0.7488950113901079  0.0515905559221395  0.2074441264696266
  0.2847554443152820  0.3658477127870580  0.1992346910435603
  0.2404809701766102  0.7319932889702168  0.3229634179094026
  0.8424379862309921  0.9023235288301922  0.7586950951522387
  0.3841662088167914  0.8293870761446110  0.6934573256123299
  0.3016981037160547  0.1036322919877941  0.0523775860049251
  0.9903829655158017  0.8623084593778620  0.1658228379105464
  0.6786872855793872  0.0318949055358767  0.7153686802718401
  0.4116227977754017  0.3866257865476205  0.4751737434347479
  0.9563724352737771  0.6279979949299274  0.4437256069562076
  0.0236849249015482  0.5585604509920699  0.4357312751922543
  0.2676531251855078  0.2234299352157948  0.4650600410335505
  0.5818224619495818  0.7246877433085480  0.9373583787145530
  0.8202636743078207  0.3363076992073905  0.7567688568128983
  0.4379671009299539  0.8557826970208787  0.3669668639668459
  0.2256177459155258  0.6938500698316210  0.0741044924590740
  0.2671962511141084  0.7627948757292017  0.7717410304565845
  0.5488748952926704  0.5748864829303599  0.5948048161762246
  0.1045638333491227  0.9780757684069360  0.4909242129955587
  0.8478467174231950  0.4691988063628486  0.1452335199759927
  0.5444657088433006  0.3505615191847442  0.2070531632826911
  0.5096005074059838  0.5082790114493565  0.6891959514904112
  0.4023963012221790  0.9271244389943167  0.3566138774614027
  0.2961051637156152  0.0096683560075346  0.3098921814219242
  0.0667231795630450  0.1717318958120191  0.9341692534918759
  0.2715560946319677  0.0312210055741581  0.0982993280024784
  0.3889692735681759  0.7900221063920940  0.5628392185960924
  0.8338551598698413  0.1427331423548664  0.6629749086306060
  0.5614399202150292  0.2336859962989532  0.5236975962029050
  0.9064371778810022  0.9706540562691838  0.9794783518129524
  0.7588861594256617  0.8176597622352206  0.3077043961774633
  0.9908071599710271  0.8348303146219919  0.7564288060312339
  0.3865738575478737  0.7822725964452760  0.4878349303340377
  0.5599095351655290  0.4052886224185669  0.2838250819296776
  0.2695385756409510  0.6936076094641880  0.7653805782504204
  0.1876043319517584  0.0018084894091731  0.4054120907467560
  0.6366179550879378  0.5233515569246657  0.9586301929137119
  0.9145295941492220  0.2369526564691210  0.3987428656939931
  0.2859865172864637  0.9422559315415031  0.2346940367708681
  0.7039877651050879  0.3429088007136355  0.1279894659078617
  0.4173520379701391  0.5652214907872367  0.6619356898868761
  0.2478991497441805  0.8415592790147686  0.0153131455212334
  0.4271323919284502  0.9902310775963312  0.4449683593064259
  0.2720199280589879  0.2446107081408663  0.6874216882710050
  0.8500001696332818  0.9871285127337901  0.1955191347907880
  0.9942545052204802  0.9169890846071169  0.5372649871113895
  0.8994653893108185  0.6657790303681497  0.9749286274137912
  0.7777288515681663  0.6630649935681139  0.6936139553178557
  0.7972559114909615  0.9190868002757018  0.0916525553744468
  0.5083504145989612  0.5735150755852355  0.5678911401764974
  0.2375026244984935  0.7019850219778992  0.1278137926064680
  0.4659420737451707  0.7729925001099393  0.9038734839922034
  0.3932495008621106  0.1861488196036359  0.6051973556578131
  0.1836646746505214  0.7769017652271458  0.0659929189449791
  0.6222374968474081  0.9539787240694266  0.8771800156967270
  0.9634127716027696  0.3913310707270414  0.3297256126586490
  0.9269471045975823  0.0418811129041062  0.7689114284653936
  0.7896585770759806  0.6300467178251578  0.9388742194219175
  0.3727052759850772  0.8987207907142875  0.6540658337831602
  0.7098382831826771  0.3640129634837690  0.8050307466235914
  0.7293783954472377  0.7919085278992517  0.8080251753515738
  0.5696715694378023  0.2565686626299456  0.4146487168032996
  0.2874881455116791  0.8960187849233201  0.0996004514963490
  0.1387217481722587  0.8957065696742095  0.7653811103173594
  0.1014280685499394  0.8151578078726349  0.2205324371051973
  0.9292415460770347  0.3229636830884620  0.6879244055176779
  0.0077417121779233  0.7833140959266706  0.9270919070935157
  0.9737992493805775  0.9773538130269438  0.8178857559076046
  0.7483041063257621  0.4862376581339125  0.3256969638158125
  0.5578541884903961  0.5467278126553545  0.1786159288046295
  0.3009319516199479  0.3020050300888916  0.5893200801435917
  0.8063992255290053  0.1898416957684602  0.4493840468424588
  0.2715841455929801  0.9499234031437177  0.6595849061356329
  0.6307038456352559  0.6479781466835189  0.4699200364677973
  0.9309015885607719  0.5304092787150106  0.6900751180980405
  0.4983725734654558  0.6006211826742655  0.3212844266761301
  0.4382362486257411  0.0636577538536742  0.8783348189821056
  0.2776739089192781  0.6369374918058173  0.7758015533094785
  0.0148807591118339  0.2391448695316429  0.7188689906446070
  0.1987646283595553  0.1412263674388489  0.3470391888733358
  0.6588175393252033  0.7138972735265594  0.4710712633032241
  0.2041413703544277  0.5317036417782005  0.6360132905993094
  0.4448004193236134  0.0378633981971717  0.7126643420400369
  0.5582725285377418  0.1000719968402461  0.6836095966731562
  0.1897262402722693  0.2382633167307174  0.8384303626170553
  0.5137194699738661  0.7763654146452300  0.8920660745063375
  0.9030384079931061  0.8422016623805008  0.9006116436212601
  0.7494474295287258  0.3243059112025730  0.4191247939369255
  0.8728876113640711  0.9919075637063836  0.5889540280907168
  0.3719149976569930  0.5682492464025424  0.7344019748436640
  0.1537458051278993  0.3986988284585335  0.9540972906309347
  0.6650667896120336  0.9365987429438627  0.4422670974616619
  0.4252265841489034  0.5767805090141018  0.8360103081508887
  0.1721908223921375  0.4040504053773141  0.5895346711412066
  0.9427066248084428  0.1769662728012233  0.5065425499328124
  0.7629987136941605  0.6340763338125581  0.0829448242579821
  0.9553880951052727  0.8387186558914688  0.4621324107094509
  0.7161593758991336  0.5139315171450559  0.7488979345750523
  0.8921402628807115  0.3193318931583765  0.0176773933263845
  0.8859222997696679  0.8178325512421628  0.3050384407745898
  0.5047802394454666  0.0585600726024019  0.6590744899203557
  0.7152568638249488  0.0557491091402462  0.4977427868378382
  0.9227499159675079  0.6614375987128372  0.2708834297451529
  0.5211393498558309  0.4102119975563648  0.2084217754672892
  0.4502433558884195  0.7604065228444185  0.2122094359914734
  0.2012380275813250  0.1920811893646445  0.0598404241018547
  0.2175657164105981  0.7682888436120523  0.0976010775558453
  0.3881590271120432  0.6450539089765459  0.8308685392668272
  0.0530418561334237  0.1494086549279048  0.2072178219983439
  0.0191491126066014  0.0487011175839356  0.6319704739740295
  0.8718244902313209  0.2440633671505313  0.3386334353485614
  0.6689711625526776  0.7973595613307881  0.3384955099962232
  0.4866720078806844  0.5146464768118021  0.4868003281711183
  0.1487533807758013  0.2582938357185945  0.6026452625799170
  0.8171851234015114  0.5133359252332722  0.3224585123874237
  0.0381898643488420  0.4737741064549651  0.2424884193792913
  0.5943201597057609  0.5910041938690321  0.9402973324632483
  0.7883780474183377  0.4069453183361045  0.1911244680993800
  0.2447774755328626  0.9089201304689414  0.1349265212562561
  0.6077943497851350  0.4257774601885432  0.1106369671963498
  0.6582107505170787  0.7304330821925467  0.1979934176794126
  0.4119296192253338  0.3458850696472076  0.2809985043189829
  0.8443046229481745  0.2495200634374559  0.4847101252034479
  0.8984720134946459  0.5931490334612051  0.1427563389227511
  0.7121283363052036  0.7295699694451686  0.3546254933035196
  0.7708966811436619  0.2037650395911967  0.2318724497880425
  0.6200199390474215  0.3668182896390544  0.6101592919171979
  0.2697413744207736  0.7152725952455999  0.5458480489432571
  0.4535710702549408  0.6173388724204526  0.1701431192435597
  0.9042033899669430  0.6700263734057443  0.0026569307874899
  0.4637856960201080  0.8418380233838667  0.6377538995846889
  0.2567945975622158  0.6118031922145347  0.9997966360488557
  0.3029703781261093  0.6724486931364111  0.2008840231454284
  0.0798660277192056  0.1869330046090140  0.5568473107563602
  0.8263249199561948  0.1903827652527267  0.9936749838860376
  0.3714907931197969  0.4929065117769925  0.6653376938917550
  0.6046235418928591  0.4273173029359764  0.5997783538951846
  0.3158719244735225  0.3129991390292349  0.3421909209145184
  0.4789492415526957  0.0680139487850420  0.4966594745467154
  0.6591537036943368  0.0329143430164456  0.7361040849855179
  0.2434319992284848  0.0944001607325177  0.7594991003038325
  0.0562933563645450  0.3718139227448196  0.4472697388421430
  0.1895492348818707  0.3179403978522715  0.6494452004629733
  0.6876812845596618  0.7891432538435229  0.5872571026011422
  0.6104075087077169  0.9264602978925511  0.4389473598066825
  0.4060199661431074  0.0389784537222028  0.0416485201850811
  0.6213266299405833  0.7343644219965042  0.8427826201729854
  0.2239662006591076  0.9215677637670671  0.9374804580733124
  0.5934693622689255  0.8032728410493865  0.2744907115759598
  0.7620820581864781  0.5222577883220073  0.6576808045813132
  0.7694279859947799  0.7902052747109548  0.7437525852405357
  0.9451807146251427  0.0601425542067013  0.6342829469054027
  0.6802759995546118  0.3112213067664467  0.3325770593981197
  0.3417973244385646  0.3660304890274070  0.6784221900474274
  0.0823815689874104  0.5746752941560297  0.7657383892664934
  0.7720764702895399  0.3955046230400286  0.9482560437458020
  0.5667975003565012  0.6512354107056201  0.7016022123175453
  0.6372063066411929  0.6756369103651663  0.2492273572025925
  0.3077770936462914  0.0805982269415599  0.2227310617133546
  0.7450638377028441  0.0540841106768746  0.2826073987334004
  0.2968686443333091  0.1679673168405232  0.0212011311065449
  0.7098855816531540  0.2601613635101387  0.2987977996418129
  0.5757339247585708  0.5353147081656912  0.3047416414343734
  0.1701516190048841  0.5203480473709867  0.5576816577252469
  0.7425996981300514  0.7624931983738237  0.2209701461732150
  0.9813097602685258  0.2662918532557998  0.5661055755352635
  0.6887371200451151  0.0304053269612970  0.9488967783563889
  0.2243967988910842  0.3306563745085636  0.4291268862965045
  0.1906919670681848  0.9207174020249180  0.4381451648828327
  0.2405569254230765  0.9553538012744767  0.7625355163142195
  0.4612789260061100  0.9143956055122331  0.2096582670298401
  0.3272330265406728  0.7380909613544336  0.2689797942494679
  0.2532732739033877  0.2372488017183787  0.8954966921110827
  0.6262860046391852  0.1592030568329746  0.6031598873246677
  0.1496421766295614  0.0049437551295716  0.8475716846834388
  0.1196841831618087  0.1875713197615762  0.5272019430835034
  0.3212383777261959  0.2935939366050345  0.6641867650938241
  0.7722000504513603  0.9195591676030255  0.1432817070191190
  0.9077250060988177  0.1856465391762450  0.8086545545335383
  0.5753919351130440  0.4386438882427403  0.8205071677064636
  0.2198047107952357  0.7655132332507719  0.7593266466074962
  0.3233049619666355  0.4606651586103919  0.4260848175749520
  0.7681442784842505  0.1078868799658188  0.4404045071298540
  0.3420997411675011  0.5187089233492906  0.8812687240956342
  0.0923650566683143  0.2851504703769392  0.1497191493113777
  0.9533889624907406  0.7531487529981585  0.0808369696695678
  0.5234019564678493  0.2578435947826035  0.4158406387585645
  0.8325874833328767  0.5585498496097966  0.5467073750547607
  0.1141860178162262  0.9905823344133324  0.0747131230306635
  0.1044286131113127  0.2777941884726834  0.2773759045610332
  0.9766422054625364  0.4474591573068645  0.8742799468401256
  0.9044232732645294  0.3993280744541617  0.5732981844347566
  0.6575067102780622  0.7864434130975854  0.0632615317101507
  0.8196749816438189  0.9831016785606308  0.0256181598113096
  0.4538345893222792  0.5217256434510893  0.9036976758738483
  0.7979357586905694  0.9826694784492476  0.5244975808486805
  0.4447339600882663  0.8428182348234776  0.5641696659791907
  0.5470855274987372  0.2200401842128646  0.1506643340247205
  0.4094498325538245  0.8588893562133528  0.3180033558858148
  0.1388060424098376  0.3831686073587413  0.8087960863396031
  0.2284574803835147  0.6408153114725949  0.3014016932367131
  0.7622466321415184  0.7178118892526059  0.9466970256063004
  0.6585376439074189  0.6021483409907800  0.2594237160027612
  0.1810291093849115  0.7382555915245452  0.2395201879471812
  0.1946697029474088  0.2337498912339638  0.8112556837806569
  0.6517008965166640  0.6576244651461238  0.8848232512893994
  0.8724012693766484  0.6981615255927404  0.0640293007028867
  0.1775142124492532  0.8504356141810822  0.4061366239000068
  0.0252365377884651  0.1700823384861240  0.7660137179054887
  0.7329915268192131  0.1279604149698426  0.5249660837908641
  0.9085495557068705  0.3359932170455658  0.1277597312050228
  0.7876879384591794  0.3284646381906185  0.9784552510970259
  0.6651814244447092  0.5868747962201407  0.0141245591656190
  0.1622300865695367  0.9471005390363412  0.2690614865271435
  0.1837838606837601  0.9343897965269892  0.8458768114520578
  0.0116381204403403  0.6828348391887848  0.5480800217469387
  0.0593367265326838  0.2206611012527483  0.1912071525018745
  0.6116576297353309  0.8941417145362792  0.8125918678854900
  0.4773684589320270  0.9157972097207749  0.5520277264062170
  0.2952946073560077  0.0930989294932740  0.7817879604571708
  0.8931328698381169  0.1104705068267784  0.8711219675359051
  0.8292171777600775  0.4806276382241769  0.7869021678737340
  0.5127659491142613  0.1014400162615463  0.7755267367349058
  0.3834423444634241  0.4228758914641552  0.6838686652664813
  0.8426305715998811  0.0485193093596781  0.5213370292208369
  0.2180222497704292  0.8492069327496661  0.4353732801530294
  0.9442276607586664  0.4043746183213716  0.1561706769757119
  0.0180366009144656  0.4858220204551760  0.6681122749607837
  0.2018203377425328  0.6766422194105169  0.0359772064791795
  0.4883969756370938  0.8468170206651368  0.5865452650451197
  0.7092711973245835  0.7202934830233425  0.8602856222192670
  0.6020859428104148  0.3080212668814387  0.9289932463003056
  0.1928385281842412  0.7787066005936454  0.0923330549878541
  0.8783671752934433  0.9882033328646870  0.1969839562794434
  0.7018586566935944  0.2612480180060281  0.4675567151392059
  0.1161771291908551  0.7230119985936379  0.9463383524817659
  0.5730788337330479  0.9971450051294161  0.5453689886728599
  0.1142827374681995  0.3493321756569723  0.1746910012109255
  0.0328018091383949  0.8929989785122744  0.3807575269651102
  0.1170423794313487  0.4159924199822451  0.4432679053729389
  0.9450116396575805  0.9798787349435114  0.4984293432132446
  0.8086442206364538  0.3226226155304504  0.3352524779915537
  0.0733006941615417  0.2191771316198179  0.1444920962977511
  0.0143350057569716  0.6390270128774468  0.3834598829475273
  0.8720104762221484  0.5322829921858869  0.9907357320998462
  0.3911776249402801  0.9893097245890214  0.9368009305822074
  0.8446418055605965  0.8389811036783922  0.4636488174880327
  0.7134756747931603  0.9314936294576673  0.9285287518624302
  0.5534493239188908  0.0096042362498388  0.4627470540375030
  0.4153090609250751  0.2338692836353531  0.8175458191402842
  0.1784161419417271  0.0814640563032118  0.8372611395175250
  0.6794424960412958  0.4482894990178483  0.4495157494119108
  0.5238776225803690  0.5755362843152406  0.5441078720122343
  0.0409836819418175  0.9019281956268661  0.7740165887437398
  0.1801669230401972  0.7771530097680573  0.4278323354295337
  0.4874555873977312  0.1028380724099105  0.7641481592002308
  0.1984091318856355  0.7187680161853059  0.9708018982315031
  0.0175999982082350  0.3228524877170907  0.3217798770085550
  0.9134620120156781  0.6667690628905242  0.2144642456682536
  0.1425798782219209  0.9763258774561751  0.5214889563347315
  0.0999669974330121  0.5021869514439858  0.4478807597144553
  0.7346444108869781  0.6461636650884236  0.9457002702048681
  0.4290494277028700  0.0924544831689856  0.0793232286263612
  0.1911719735724809  0.1411100129629648  0.1322760075961027
  0.4862231766406943  0.1960326873410899  0.3649617237008828
  0.6338196748407803  0.3682847139018669  0.5852717948302981
  0.3340683969159919  0.6998008645459556  0.0068403699844442
  0.0124135173733729  0.3282361437725435  0.2945780707592667
  0.1179629369341298  0.5047059633852665  0.4255571511894372
  0.5154426931860031  0.5737154968613630  0.6918755946153321
  0.2134543902010718  0.8964592361198503  0.7707059182294941
  0.7590484936648159  0.5540519229362600  0.9398568510464426
  0.9472176759184987  0.4497868917055126  0.9572157229597645
  0.8102746146322352  0.5857705890583815  0.7660740474955323
  0.5983386073015298  0.7953252480645381  0.9435392763310199
  0.0036168078044799  0.3960358405282955  0.3036565169152548
  0.5958117738788362  0.6600318876604254  0.8946560783537736
  0.0503452341110730  0.0508916390684720  0.8424107313857933
  0.8326053753338406  0.2660013303906796  0.2051414147663100
  0.4379726705195157  0.9862645160224202  0.9313439320392179
  0.1880163209298996  0.7854746660547985  0.3803467212817976
  0.1950223107455829  0.1992548092043578  0.1273096305780277
  0.6916595072464550  0.0565321886994540  0.2132482306818532
  0.2354554248009597  0.9998511008830221  0.3932910478027795
  0.6457469833280519  0.1024399308028111  0.0370683765588878
  0.6037760793597144  0.3879652851727017  0.9559338316854926
  0.2358857512701323  0.5169619431913722  0.1728941033438625
  0.5902777537337102  0.8569735039158082  0.6527103272473791
  0.3958295035490209  0.3757920695342284  0.9429529125608085
  0.3882514513819811  0.8918010070461891  0.7957942445826504
  0.5196741091197725  0.5184115123237224  0.7904984983267520
  0.3315780545758253  0.2167316529049624  0.2714690654237633
  0.5005810026092933  0.5136761297798155  0.7372088899806301
  0.6219270666243260  0.0105495047075360  0.4318877096346782
  0.1238291449082217  0.8620579998569095  0.5243718670326712
  0.8925121491820820  0.6478255994326663  0.7918386889356420
  0.7845695744801561  0.5849714430724663  0.2940824824094778
  0.5906063754530061  0.3606093286708475  0.2981278933611490
  0.7326537546774917  0.6703711642279419  0.6740511121237136
  0.9783374095233655  0.1244777183403520  0.6202297368761923
  0.1342729970432218  0.7931091617923257  0.9853546191039897
  0.2134780007187786  0.8217182362423955  0.6579413473601048
  0.7389222748432450  0.8792175431165160  0.6738341628294022
  0.0330010266288089  0.9494131990123632  0.0078443486946382
  0.0824194346361960  0.8577526399263141  0.4935837815949108
  0.3947580570257966  0.5623348135883632  0.9737394478035396
  0.9766216613836468  0.9874677873416905  0.5758184595096414
  0.4449348980500540  0.6978084563295556  0.6708366157090961
  0.3270312240726325  0.2738942579961208  0.0898383675321384
  0.9764546762134354  0.7777842128190042  0.8320692343258332
  0.6506903416429998  0.5913717184384308  0.3554187751060128
  0.8858691156407033  0.5974349467001057  0.6926746551448449
  0.7589993906375334  0.0721600355291928  0.3734027176592433
  0.6313759064759763  0.0774431977585742  0.3516426000268082
  0.1539951001846788  0.1465804722314127  0.2223459192587234
  0.6864762557401491  0.4537020985904425  0.9589078418446223
  0.1638354638130797  0.5901211879309364  0.2324197786472860
  0.8956162369964759  0.7553316389996781  0.0030013507188354
  0.3035771975131785  0.2185043376233153  0.2653708142050094
  0.6894632376979523  0.2365546659259756  0.9121130046032758
  0.3318686214765038  0.6461895958469194  0.8407941420032748
  0.1411021829748293  0.9161379480348720  0.5223081934026472
  0.7521849830610601  0.6300931897582964  0.1275963888549816
  0.5892817903149383  0.3893220381751179  0.9318033098333702
  0.6204406495879957  0.9681570967203933  0.6865111037106948
  0.3440873679826276  0.8303895714489123  0.0326873217799896
  0.1963783626880881  0.6622515200596854  0.5633068854330860
  0.7709641069225175  0.6038233154393424  0.6539840314916439
  0.0881514891557266  0.3830136130472656  0.8629369317795522
  0.1618527023150068  0.8704774057715751  0.5618567469916995
  0.0033952843622849  0.3795979153541707  0.7702035470263568
  0.9030096533502490  0.5265741935420166  0.6838398196374232
  0.9472046504763434  0.4022071216770301  0.5466591749907284
  0.8031189756589615  0.3141765601965369  0.4800445342271548
  0.0548887899990456  0.3407185183481907  0.5753420195689068
  0.4594095274731611  0.7636754418955070  0.1631434660197494
  0.0830960132841086  0.1485896154593509  0.2459082496268832
  0.8343732946847721  0.8344985950491702  0.4379931237545941
  0.7608385785661529  0.5449735707963785  0.2401013350610870
  0.0487117574506881  0.9453556405097359  0.2129378596341853
  0.0168443365364725  0.8727594645000277  0.1635012206287259
  0.6329576684762522  0.0908201077940280  0.9252262943814633
  0.7928565983579956  0.6864694649717668  0.9450017843286157
  0.8929432667061596  0.8995801801150582  0.7557610020150550
  0.9498410965739875  0.4582813845646339  0.7265785625830308
  0.2813438971478757  0.1660821366588099  0.0959195119986980
  0.6560807748874523  0.3450373527911849  0.1871337930340106
  0.4853869497807788  0.7099934201525373  0.8142752256681166
  0.5516068345109642  0.0096657091625092  0.2301527434324153
  0.9752819051668089  0.6124678515816133  0.2619933572883908
  0.4210124947557635  0.4299687052601518  0.8393691567263986
  0.4691904379085001  0.7676765190457969  0.1140326360041997
  0.1336883728717475  0.0087372255262298  0.9865977835060482
  0.5205627311576306  0.7066217675268724  0.7785184651231594
  0.5758957640711204  0.1653442530531373  0.3574861872063725
  0.0476286599582551  0.7074688569239252  0.7735260670313827
  0.0899463384738166  0.8330012274409407  0.8299484055051355
  0.0394176212255324  0.2881677971387920  0.0602299221044558
  0.5077525143450400  0.1487178970801092  0.1344505367728225
  0.1872572224467421  0.8967101941217579  0.7597320056055633
  0.4082302008097772  0.7021611475761269  0.0041584704956511
  0.9690105730487244  0.8421477081014681  0.4874960176955627
  0.8618026616659538  0.3236387598914970  0.9798945081694315
  0.9573606595057386  0.3083205924454803  0.9630342709891626
  0.9306769920254097  0.3159947366808858  0.5232451732837431
  0.5104930171532560  0.7171462911023746  0.9112719227870804
  0.1042092358287442  0.6617473961987695  0.1827973816716843
  0.9704798353785363  0.9919040154090889  0.8651543087469369
  0.7602799999358560  0.3375887480006760  0.1522847028827335
  0.8932037872487859  0.3874777261586584  0.8210754372002406
  0.2194822870152491  0.4715299452306793  0.9315195101286332
  0.0183220798231324  0.5941902344483866  0.3143939777912777
  0.6419265414604606  0.5236929615831353  0.3402610901232129
  0.4199527940672992  0.6725771368400828  0.2930213449081571
  0.5298485082160392  0.2761109334635595  0.0300947674116734
  0.7476266687594209  0.2105395553264920  0.5355248501853997
  0.2130812063964075  0.7664625097110543  0.7869564226995138
  0.4683685563793291  0.9698734639891362  0.7270437651099905
  0.0145521095081118  0.0520350801225903  0.5020743797939626
  0.7405900954524649  0.2152745043211675  0.6124639338633576
  0.0879034829812072  0.5074700970526161  0.3457893656335315
  0.4804692635284219  0.9085753007816593  0.0264869749166200
  0.3525099659393894  0.7224053819669815  0.3893501620013792
  0.3929979253152572  0.4874438152259423  0.1295858089431947
  0.2528666373656872  0.3657104037023541  0.8504054391970569
  0.4998258914814222  0.0348742659394190  0.7263229544250620
  0.6263612229642913  0.7840996583735931  0.1308822726508193
  0.3953930838689618  0.9865337516933433  0.4084600342074073
  0.2083938466160223  0.1651238561111132  0.7609816268199510
  0.4679167647977028  0.4333839719913727  0.7251047811671303
  0.5852396271907521  0.0826626497387104  0.9326682766545293
  0.0473683154034844  0.8325785983206772  0.7580293733980284
  0.5665379319610111  0.6566343311668104  0.4312398501277108
  0.3247774774338588  0.2818863584292486  0.8884280188038810
  0.6291997132101588  0.3940992563716317  0.8553600705374125
  0.2504037555130894  0.5143937726986909  0.4198874618879013
  0.6283471523828195  0.5198365635589173  0.1675667837157299
  0.4604870229721978  0.3168650358353745  0.4412959072765802
  0.4522267743415375  0.0377419151015264  0.0416757060053192
  0.2483886957683471  0.0423956747054114  0.6187074353559953
  0.3951596321010388  0.4953519238771352  0.5947822293345822
  0.7543366934137222  0.3970036771877801  0.3160966079985609
  0.7077630473846547  0.1318937187205119  0.5121249362507919
  0.5574420815476459  0.0187670790099693  0.8380397694766754
  0.6947960323929206  0.1374108097916836  0.2983046776023097
  0.7662806785973358  0.7139115683264938  0.4391169451421515
  0.0974892445922458  0.1558871807288756  0.3819500009898308
  0.6437114093800156  0.1669255278210800  0.4384174191350406
  0.8514852726700156  0.5789621038474664  0.7891942622412875
  0.4535554954933949  0.2646701271797438  0.6733728507919037
  0.5877608379750210  0.3875816601249876  0.8823016460471668
  0.7229395592291898  0.0373359163173947  0.8407435776417910
  0.3819285423653528  0.3696844533201633  0.9191307074979085
  0.5076564945601519  0.2093590392941904  0.5797378186027744
  0.4882109178528666  0.5056934916551935  0.5612534130864817
  0.8661168008451056  0.3796538299601864  0.5529477341520548
  0.1356748075563497  0.3497984043461949  0.4729831878417505
  0.0552779066916944  0.7712575678128488  0.7035749505070149
  0.0115625498900621  0.6201308646065646  0.5187094006398468
  0.0337027737759946  0.4429097341436680  0.1758202482810860
  0.8627822363255273  0.8699455349986976  0.2402410306361361
  0.8566369102052342  0.5982916340151019  0.6925452568652947
  0.4877953040729062  0.9295635744579096  0.3585355312239593
  0.1035245048906518  0.0907887593217303  0.2853519840286718
  0.6752807853190608  0.3647074291820623  0.5592079397462294
  0.0728691146877482  0.9125933031228115  0.5720304969474578
  0.6525071193743426  0.1673249355135829  0.9823858676064503
  0.8503933764096937  0.0023435281307141  0.2573783086708134
  0.2485191300282151  0.3154544554243717  0.7229023660820946
  0.9081460129986143  0.6678503874870012  0.1862864194262472
  0.0311551190478835  0.6645611118821273  0.0227576829357608
  0.5376293492415231  0.3578882466861643  0.6630836823153835
  0.7699090381650406  0.4308533889625813  0.6170512529922982
  0.8372157450990021  0.1215002249546706  0.5341397099214101
  0.7808953273137443  0.2434193246885930  0.5042367318386820
  0.2800905278103583  0.7984855944121821  0.3471299082867120
  0.5411876260318735  0.1851516578814152  0.6958194567911890
  0.4304300840340444  0.3711945611649510  0.7687040323729671
  0.9309165048272461  0.7183011695470785  0.8130243582969504
  0.5867644530731139  0.9696200640693174  0.7828462315978756
  0.8359487500691388  0.8273675544524163  0.3716642949489184
  0.6148362091954603  0.3064288467615237  0.3679775431200202
  0.7523235881688478  0.4027239617879695  0.2675994965947252
  0.0056592363282680  0.8358914472838959  0.7337759160794399
  0.7965579792054005  0.4810159599824173  0.0814420793982013
  0.6553886185592459  0.4360121971296801  0.7446974161093615
  0.0785978888195209  0.4622958517121929  0.9543353265781501
  0.6352334234854844  0.2993112226218312  0.3197556863458686
  0.6897335963720742  0.5141667094939393  0.8194103057106573
  0.1682030930474200  0.6578073966309074  0.1276769797940981
  0.1303733379574583  0.3525340561144855  0.4440804736018504
  0.6663462360681258  0.0964909464054331  0.6847957118978787
  0.8468081946566685  0.3333991879574207  0.7660261514697508
  0.7200901739470436  0.4336206840958998  0.6219207676241518
  0.1270602945356290  0.3288366806743309  0.9639313378488159
  0.1853550277766217  0.7628675072987415  0.6922173296088866
  0.6322083605688986  0.3752773589678028  0.4884947113408447
  0.5601108813051924  0.0992866923306333  0.7703310630691035
  0.6473936491436613  0.2940940969262938  0.2964563210612497
  0.5434760993916620  0.4541493669787837  0.9544806048555571
  0.6473940375022915  0.0134036338964453  0.9369308049216505
  0.8865527446539718  0.3854211345000310  0.0419560728781729
  0.3255146993768117  0.9601890371123634  0.5352905107032353
  0.9958963322078294  0.6581952449577610  0.9581818645096795
  0.7865518704155688  0.1913198962211666  0.0573947240092211
  0.3633981673550711  0.8838190079261237  0.1343946581427525
  0.0034457841432141  0.6461904615755630  0.8585923851937364
  0.6418130547589380  0.7253781105446410  0.9705192406704588
  0.1468465342388685  0.7304315663798443  0.0538882586620992
  0.6051473305080084  0.8660262753578126  0.3137361350283205
  0.9569563982779942  0.0556632237013691  0.5875936069366294
  0.3690750824390129  0.2230895789126086  0.9421728284187081
  0.8001081723338449  0.3970674570851146  0.3854954730443723
  0.0232067266448957  0.4451939973229114  0.8136940785542109
  0.3512390502620842  0.1780812314598726  0.4390672288873677
  0.6646381642007086  0.7807111338529507  0.4601380297971183
  0.2535099362280909  0.6550490483705192  0.5539699987627913
  0.3476081996966042  0.5497343089901529  0.6377686714431310
  0.3818388467340512  0.8938781523736322  0.7388577254200132
  0.6192601241348697  0.3717597209211095  0.5608637140585896
  0.9412638804262631  0.0614629242026071  0.1714829706097697
  0.7346732514389083  0.2494785283046553  0.9231044074276423
  0.0332462688086333  0.3289702103930459  0.2757348661025854
  0.1189491374185230  0.6583691181557328  0.2669468184815306
  0.9912444428161361  0.4796313208883343  0.6705462991844804
  0.5561801234893110  0.0950153228121591  0.1064741406726685
  0.5461795886903152  0.7123029138770727  0.5334104801772829
  0.6465597145282245  0.4369499226868870  0.8429117884235959
  0.9411094339033319  0.9064348769664491  0.0736911736595871
  0.4050962261600158  0.1377850325777588  0.5351802568322360
  0.6972657657248520  0.9387236342229136  0.5734765168706951
  0.6602071124795470  0.3120562093096153  0.3862237426677071
  0.2979992779776576  0.4001079311646330  0.5160208743973443
  0.8321448292653502  0.7805364084582785  0.8011320061244761
  0.0677609011014191  0.9767955345946306  0.8551239288285106
  0.2013258407965335  0.4139499806366548  0.4918113426050102
  0.5126425208565955  0.0429924398803850  0.6802143175143280
  0.6893867139229325  0.7228434465475844  0.9568647408028279
  0.1714051815188282  0.7209176240728664  0.9619521808517985
  0.8827667610690814  0.3731399617990724  0.4788238766566726
  0.8827400020794066  0.9959794898809486  0.6162112013057029
  0.0039293064146304  0.8351593887319909  0.8293989363766254
  0.0201087250139429  0.5978892232038788  0.0950330366715616
  0.8209748076074967  0.2461768286604381  0.4295063800404735
  0.0377077118049390  0.0268868738189525  0.2835123365833000
  0.9720762321669777  0.0534226960003253  0.5405097053282008
  0.0027202067556895  0.9120160293711803  0.6207095912464951
  0.5781269157370903  0.4537326457778051  0.9873927575214380
  0.3845911006070306  0.0376842188592316  0.6655653265301339
  0.7878379999966808  0.1266456526290770  0.5447280060310683
  0.4961082771910724  0.2030115083883146  0.3163359561108594
  0.7581922221757644  0.1317589344601395  0.1897955843129972
  0.6743431490402343  0.8012839677415167  0.7258043651815391
  0.9987538357664216  0.7204626404334781  0.8881506599094602
  0.1900206231997583  0.6535630312631213  0.5164526007126740
  0.2301992657544164  0.9790308541006673  0.0460400450812210
  0.8937483746059455  0.6019409043421502  0.6645900998372205
  0.0364856637447492  0.9790345569097125  0.4600275799014573
  0.9063023342372890  0.7850488598460383  0.9326951760387310
  0.3171066853071912  0.9615087209647004  0.7996686900252133
  0.5901310008537988  0.7451955558673008  0.8087272856838177
  0.5606744455295938  0.7072947075914733  0.1285023978396403
  0.4295613852133431  0.4614919435571412  0.4026401560106614
  0.2772824320477193  0.6451413575065726  0.9256794253897096
  0.0615836475426890  0.0344593144564788  0.0528241149825723
  0.4449970656561912  0.4889811547452684  0.1535302661865969
  0.9057951806658966  0.0700967248431279  0.6632928906358057
  0.6138032539828250  0.9464137267587827  0.9052461126821165
  0.4599626416630272  0.9913335871744524  0.4811106963606226
  0.4664311308535473  0.7293810561953812  0.3252901846390732
  0.5957232071137372  0.0937649462066443  0.0161278075135605
  0.3138490882396994  0.5022531301333542  0.7275297462511000
  0.1756440690282935  0.2668293235445605  0.5334068677228013
  0.1982361537241215  0.7372093520583790  0.2859454106874625
  0.6258732144494221  0.5222804780198589  0.9322868106624326
  0.1951551269670899  0.2590724525315751  0.5854947508803172
  0.4733753826137383  0.6292176778038983  0.0937966287195296
  0.7832255943183364  0.6611465108679225  0.6196365282448315
  0.2120277375788134  0.2671824050525659  0.4903140782347278
  0.2952202470543780  0.9353615325190944  0.5950022330131646
  0.2521089468571522  0.6630661019381465  0.0003812135563380
  0.4520390290584411  0.1728313686343777  0.7883198102267996
  0.3575966781769625  0.2270491104067924  0.6542794326559562
  0.0812431742752526  0.2543340152248972  0.0299340773953212
  0.5096583132333995  0.1433224161474099  0.3463674823661860
  0.8784863215288671  0.3255329166252776  0.8024041081671686
  0.4590189235474901  0.4572215760980773  0.4003852763250734
  0.4589144057080156  0.0448261480829275  0.9922495825568181
  0.0054537529983409  0.9643311132751488  0.3318366982535551
  0.6246826222087417  0.0120777092456982  0.2298793990430578
  0.8452500976589231  0.9307574044059956  0.6331906314815989
  0.0799298659768604  0.8206503346384613  0.2900277922903979
  0.4444116648169084  0.9559886207276036  0.1081522371933776
  0.2204542931112678  0.2616854321544400  0.0587354630871138
  0.8074504827499769  0.4074786144533443  0.0927428449433784
  0.3793905418074155  0.5185776358940726  0.8388469110228578
  0.1052425456448723  0.3638926328908081  0.4385267928953134
  0.8819683134657664  0.4044312221735832  0.6723276052899496
  0.5893588320392706  0.2318306236683628  0.8121497442620788
  0.3221104406922276  0.1664768563645611  0.6664642036175312
  0.1307089711318988  0.4041087793173081  0.0357744491703567
  0.8871706486241778  0.5853529706498133  0.2818953011446633
  0.8978008268074358  0.6666028153220214  0.1298351849170948
  0.2810666875180809  0.0846053584096958  0.1497114367410620
  0.3851333219376014  0.3899436388111106  0.4239422980253517
  0.9487296079854937  0.8602548409750540  0.1925147060047021
  0.3963756474064629  0.9659010129407098  0.6761788778171367
  0.9418339208489426  0.2397425112776185  0.8519274546812680
  0.1428937820101567  0.1468738871408100  0.1376492311993976
  0.1475193681233372  0.3104363951621166  0.6856099783404417
  0.1591149722307626  0.7280089540265086  0.0077350686861604
  0.5267566477476311  0.1536604257706756  0.5758077601635605
  0.1225527183749826  0.0444315552482267  0.6366204549864387
  0.6049495269551279  0.4304637475566884  0.5516945504894768
  0.5108740033710940  0.2284669926902704  0.0422271721850775
  0.1433735966441957  0.7564819198400737  0.6536699539776667
  0.9068991694855156  0.2390130209351498  0.3717527860819554
  0.2270449174582053  0.6619733274904825  0.9966322359368358
  0.9981404408393869  0.1629203155732503  0.0425441256608782
  0.7458408623675267  0.0594441696645967  0.5353660722096008
  0.5774797417983062  0.0812661449567208  0.3006951723495789
  0.0958373359971775  0.1706728528507422  0.8543298869303900
  0.8746929875543188  0.5338670320173473  0.6014704987833137
  0.3699761891051454  0.9804568866783188  0.3992796252235131
  0.1738638236413533  0.3366912626498769  0.2194975749095633
  0.0945625767835658  0.0887692824025020  0.2370720339458224
  0.9553025190319726  0.7830164806370067  0.9449686961658061
  0.4114295084996573  0.9635849045407634  0.8349120659814433
  0.0835978075128995  0.5332699852570585  0.0458432055169075
  0.1279816901761270  0.8059689230018802  0.6130046358888815
  0.8452966927096484  0.2615339175318601  0.8610449077447010
  0.7948935311006218  0.8719313393205401  0.6765988006474744
  0.9139797243904614  0.8257786907493067  0.6135155961726078
  0.2170520436392917  0.8273134847773380  0.7544343151050605
  0.3894884065383902  0.1427169194250640  0.1592399823238943
  0.2170320216561879  0.5538955003510213  0.7054358866307076
  0.0584199061066501  0.9837270010813310  0.5105858306164754
  0.2200879974640868  0.9264773790395819  0.3985076280988373
  0.1649681203291332  0.5243164732673360  0.9108023637120249
  0.1920141762469166  0.9564047939938253  0.7763193684556124
  0.0530668461323691  0.5680975668568146  0.3959990824996337
  0.0316744212265236  0.6511740465876131  0.3390981238108468
  0.9060765598004659  0.8776806229922148  0.2629979956815794
  0.5881681082080182  0.5197590958468105  0.4050094200869077
  0.1546539879219731  0.4644531677969065  0.8887853797633326
  0.3359342182801461  0.8151396816781727  0.8432171528413815
  0.4648806766941230  0.8422928923869307  0.8582639158691310
  0.1618479408940846  0.2394068772985686  0.7205028882046610
  0.3080790102609336  0.0829509098023975  0.9237820846859701
  0.0822224373471971  0.7100451493510730  0.4732217638569117
  0.2313498249882906  0.5450507612735256  0.2903963246553198
  0.3829133321648515  0.5748327505977646  0.8084575377469284
  0.8977220135441343  0.7786344774768857  0.7273462731684185
  0.5649000053696589  0.2329331488416435  0.0261588486351727
  0.4924107871887131  0.1898392175763508  0.3931386686320119
  0.5875302780280919  0.0195911237218402  0.3971433124547855
  0.5656053540888640  0.0894020475165242  0.6382234426577310
  0.6299456029476218  0.7270706384475977  0.1984482585027702
  0.1455702094231500  0.7928954362673793  0.0335157824083180
  0.1557716999888897  0.8558866388457008  0.9985410500840450
  0.3338425358197923  0.6062200356812345  0.2613415072793798
  0.1317752856587918  0.1463773608137480  0.2396116194501452
  0.7737364474785380  0.7737759627723262  0.1854213179881519
  0.5963075405738475  0.6656909552295488  0.3531372400669246
  0.7015885338960434  0.7341821233090046  0.7383523978449359
  0.5127775410729658  0.4297914210377132  0.7542306034761749
  0.8989527122964787  0.5858250987111537  0.7693815596124212
  0.0011494232149854  0.2423130703886957  0.3478565056996666
  0.9880112930475328  0.1625387721864356  0.7971807090132328
  0.6824647991216376  0.7855529735162585  0.1460998097635938
  0.3302480380098106  0.5628387992899331  0.7090530177006434
  0.8424796008531283  0.4077203856007407  0.7001405604276560
  0.2743005318960619  0.2496890915575683  0.4542901640792726
  0.7864421457883884  0.6584947045945144  0.7204080722759036
  0.5924794889179339  0.0301760267908725  0.0839020628878238
  0.4044211199379812  0.7804084224918847  0.4658363166965075
  0.0434805994167635  0.5130995329779312  0.8637544246280283
  0.0472147298470133  0.7730687493880553  0.4332169128612497
  0.8432793530456782  0.4689110084994070  0.8275653516940078
  0.1589117426065464  0.5718526106861787  0.3639793661108340
  0.4343247689939948  0.0591169036603277  0.3186446585678705
  0.1697042376876690  0.9941058692164313  0.9428272507513422
  0.9100529247759335  0.8110041130715260  0.2911142709798841
  0.3849699313242116  0.6974075776843058  0.7142875982613079
  0.8941806769853391  0.4551302779158597  0.8144149972527286
  0.1903128923214908  0.4706495527545004  0.0851109463770131
  0.9901676117757706  0.8817213096601194  0.2615578504974409
  0.1786265314299325  0.1149699866622249  0.8920604117939137
  0.8261778973731633  0.8415296571145787  0.0191828634890346
  0.2888357190633339  0.7313104124812800  0.3330630785440106
  0.2410195296661538  0.2666000448123372  0.1400780921735078
  0.2105860994277761  0.3215065820226688  0.8916276493482288
  0.0977166423285475  0.3452298827531305  0.5382801148242355
  0.7742386726271431  0.6639672688847947  0.3813506835899281
  0.6683138882913472  0.5172347239415439  0.6914785346613647
  0.4725900789697855  0.7733744550444399  0.0370898556611658
  0.5152629798432760  0.2518548879254713  0.7114894002210367
  0.2163285912845125  0.9435379354296954  0.2199034279697882
  0.8369515903152652  0.5258356203138090  0.7223154042366396
  0.2637632104473233  0.3175055659053238  0.6998623774295548
  0.3107815296169080  0.6714235432739655  0.6127962416708812
  0.9669075169804778  0.7551295373621977  0.0309775628758476
  0.2473595943256401  0.7786111305506181  0.8528469383611732
  0.6267312813594694  0.5127767170780198  0.4359327185357676
  0.9036996706368736  0.0268497645690824  0.2980246643739479
  0.0193628242146620  0.9021706926157419  0.8185025395049232
  0.0225762682007391  0.2818007646867597  0.2596082352170561
  0.0479694230866399  0.2974404556288097  0.0138231516256467
  0.4942576183764923  0.1047859613268480  0.8486059828081074
  0.1213426419202650  0.0971242182275927  0.4580917483551989
  0.8244966935816399  0.3887179319502887  0.3350914537331507
  0.7864895394160901  0.8271731553996737  0.4166679948479313
  0.1412579844033163  0.4214220866926734  0.1808092941511210
  0.2363316349925720  0.8551941061779227  0.5470129194951949
  0.7788640568795004  0.5716088059721611  0.4619634814565234
  0.6238476628860579  0.2326578276935713  0.7751444386381222
  0.4124264503247219  0.4577134405898675  0.4236398079691884
  0.9225496945094138  0.3410460639161900  0.2119608547175544
  0.9651759149132642  0.2729856959404652  0.1420447311956433
  0.6018760030567969  0.3531037932861686  0.1225745302567893
  0.8673098509635943  0.2383097516755900  0.4133074740620412
  0.9214003394689091  0.2447758977113816  0.8331848246778470
  0.8359226160209052  0.1211829556080962  0.0090930483730878
  0.8779017157738425  0.3896791736999869  0.7967337387800714
  0.3145958673184336  0.2317180470922678  0.9555767387597623
  0.5687772427777020  0.4188202601116121  0.7755747567762897
  0.7452938535362835  0.6434738723889513  0.9195638859959367
  0.3733758524946129  0.2489709488380142  0.3694410012371502
  0.3368279983361247  0.6080329740513849  0.2126537578914491
  0.9447325384342407  0.2416614854963908  0.9832313439755228
  0.5819491505059293  0.0994809482116278  0.7536812483620091
  0.6500620356395966  0.7320490516194182  0.2948438481966288
  0.4789518050105868  0.4133367431435149  0.1831730079290863
  0.0883593095060779  0.0486651014164920  0.6012385075965875
  0.6227753611733445  0.3074842837746317  0.4158649918224146
  0.6227249862125990  0.5950102511754007  0.3541107165396433
  0.7356725375739620  0.5424645873966439  0.3118025857691959
  0.3502896046295510  0.4166975578869166  0.2066223870868956
  0.1322534864695558  0.3867182281098240  0.7111771989431082
  0.2191921347283350  0.3882447866232682  0.9212377905892610
  0.7616483306919216  0.2583792249312007  0.0148352319351001
  0.4047086133200397  0.6788705339482222  0.2092466252413373
  0.1223460031690728  0.7520043299480268  0.6350254783230085
  0.2520064973137051  0.0280729383711138  0.7486448807384417
  0.0975028256329823  0.6628360797233669  0.9673883747773666
  0.8885795957008232  0.6041245521303660  0.9252875800917961
  0.3279350639517615  0.2978156712515940  0.7304019916072370
  0.3951197972173582  0.8582147040627862  0.3424952011959092
  0.0559807364356703  0.7678604351099693  0.5098917032885704
  0.1347193956277158  0.4663493245378693  0.9441625587459523
  0.7769405697461512  0.8534504578628113  0.8676692031448808
  0.3106482341917888  0.0995324903028085  0.3965313414629389
  0.3703539338499089  0.7635037118053302  0.8237485455030178
  0.7903262466739578  0.6612685042635320  0.6685461275436184
  0.6371310345488184  0.9391454301376524  0.2677023355328543
  0.1974086530847676  0.3318835109699341  0.5484819443126696
  0.9797791232199966  0.9777480900762043  0.4531383151655823
  0.2068188527962221  0.1232486476907229  0.0620862542489235
  0.0517801465175254  0.1883069473076006  0.5614440210668019
  0.0728091873996219  0.9768162063970719  0.9407560881791371
  0.2539426027453914  0.2478223114912632  0.9957657049188856
  0.4827685434770604  0.0655191516980352  0.3128084323143816
  0.0696600259658798  0.6650918848065364  0.1164913649359867
  0.4224450240240002  0.8366842618385711  0.8357208217307081
  0.2619660407919760  0.9024850017229428  0.0890207218644362
  0.1191634522779120  0.3458759844418068  0.5197077342398317
  0.3510336373563248  0.8027737705167857  0.2587696157106429
  0.5061549905418578  0.4082811697980276  0.2329527036943911
  0.0932888048426805  0.6014929427811261  0.5319684887608706
  0.1376937449466357  0.3461765698689132  0.0511607227117995
  0.8703143158147219  0.9030542152032767  0.4828227997597246
  0.5831958274327256  0.9975081122199848  0.9113115057670005
  0.2045056824055672  0.0753252584743992  0.8473765501336324
  0.0177131174807575  0.9693887225476557  0.8000984700956867
  0.5281770618663787  0.4758068193281156  0.2433393204308412
  0.2586634566297912  0.8272421476906041  0.7272734900115962
  0.9694122044002002  0.0448324858294752  0.0937216636882065
  0.9717693686971977  0.4779151981622043  0.4989629263431428
  0.2297185160168981  0.7204644172496902  0.3773193264063563
  0.4183620696473301  0.9808629899582798  0.5172598782759688
  0.4133847327566653  0.3906538116745705  0.4261099647387075
  0.0945649174630701  0.9149923968454896  0.5549506981442216
  0.4200459196671638  0.7937259697197429  0.3697614335506223
  0.2072228827441963  0.3814046683991375  0.7807835780961935
  0.7546513983755323  0.6903581519058307  0.2640252609214433
  0.0184630250499334  0.9857455057809441  0.1474559783826714
  0.0664225797037333  0.8989615620351538  0.7859107591449647
  0.8173358817496118  0.3969617515958114  0.0197699948158120
  0.7016460688876921  0.1171688499034554  0.1134169933504228
  0.6701319070608944  0.6753801205705218  0.2934821948875244
  0.6576565065848599  0.9303537649392133  0.3671962868304523
  0.0327450841948857  0.8325999493043030  0.7818090091052934
  0.2266131696004969  0.8676686050539790  0.3394567389280834
  0.0873548181345220  0.1495404936603763  0.2739435047320670
  0.0176364335103424  0.9023848153491184  0.7902335629953350
  0.7563670160342324  0.9172184134328970  0.9462206076683339
  0.9374281197275115  0.1536795598996369  0.7058666628265030
  0.2033966723018528  0.2656898431376289  0.5381579774581782
  0.4804814758274948  0.7706100492115704  0.8559506628396140
  0.3710034961104418  0.1627329534926314  0.0145615357614846
  0.5768651090380795  0.8352995455135507  0.1724003486247619
  0.7776569181025405  0.1305425372916644  0.7733391575163651
  0.1154951295222853  0.5212020697475598  0.2010576609907421
  0.8713588619818423  0.1970208062020956  0.7655925469181208
  0.4615717506959531  0.4013020530681521  0.3060512681980372
  0.3814251649019634  0.7353362791839588  0.6117299375195462
  0.6791542193762600  0.3696391131070217  0.0679112988956585
  0.2430029418299496  0.0603251855535167  0.9606199732472473
  0.5814765483375504  0.5863670099603236  0.8662376930471193
  0.0240383193289922  0.7775973300204424  0.8422377516232726
  0.2529178108167590  0.0863974114453214  0.8427059485269539
  0.6582695238151328  0.4441710048808031  0.2928530277322348
  0.6836300461833078  0.8471365736383462  0.0195813980685242
  0.2648518932364801  0.2549985871623554  0.4267261802645573
  0.5116618389835336  0.8396753609838071  0.7084775773046980
  0.7170155598763397  0.7541253177710429  0.2289440333650441
  0.0862828776765542  0.2183109956825414  0.1990406218277833
  0.0598681802704926  0.7080598867496035  0.8299795774268636
  0.9956710046998536  0.6804655052172530  0.6038452135453088
  0.8430583519391560  0.9349909957709168  0.2300719052621947
  0.2058620386803632  0.0713539682083950  0.1434917900495881
  0.3914751310021669  0.4093798789348726  0.2801308391583466
  0.8813926934080754  0.5333023936329222  0.0645367783484636
  0.7284010329216534  0.5702827560059246  0.4078145269963813
  0.9746721687682526  0.6597523669059050  0.2917371293414667
  0.2600274567604156  0.0416967969004678  0.0424590713602278
  0.4936100318983255  0.7046541377648022  0.0566780200409572
  0.6095401766724299  0.4183951759796688  0.6936394065198623
  0.3152665140519010  0.8322396270433332  0.0328898258569534
  0.9631448569317826  0.8331125987355285  0.7526966864946409
  0.6796484270541122  0.6544107941312968  0.8802060083957609
  0.7103717729784484  0.1332294701913439  0.1948042848557793
  0.8070113650119130  0.9876493691740535  0.5509942603862353
  0.0790872506171065  0.6472336075677778  0.8585346859346137
  0.9521273953331613  0.9048729934004329  0.4327437373312094
  0.8229738297373863  0.7734926934395107  0.4614690252491689
  0.0746773645158083  0.7545612692612922  0.6226417243274507
  0.8516492413712664  0.9428284400652734  0.2583355170968551
  0.6317084524369939  0.7224278711069836  0.0197043938225750
  0.6808048427563560  0.1357556232107868  0.3790976021305743
  0.1841037808119268  0.8076359388451191  0.2334869089025528
  0.6861022539418311  0.4172906781769624  0.1781623529404160
  0.9978522400286526  0.3472093215165507  0.2138156000623873
  0.4677130649677448  0.6732672268819706  0.2850712787132388
  0.1014451935947323  0.0420913016420579  0.6558105892902119
  0.0170062051776160  0.3244971418000831  0.6389892890085801
  0.2915379552387868  0.9599621461699634  0.1509203206303017
  0.8325502838872597  0.5441420662952388  0.1317644542377619
  0.5700905049247360  0.7855208636307356  0.4194739438633500
  0.1475729015784272  0.3174853377682492  0.8163704312651658
  0.5194935076361173  0.7797796266174383  0.0247955343170973
  0.3851522259265529  0.2201810385182378  0.1100658181402961
  0.6048807491565512  0.5793460798708688  0.5975804513778734
  0.1110177594517609  0.3203206862957203  0.8814787885237628
  0.0335601038422573  0.3364557162909717  0.5936410477629465
  0.1302772637711119  0.6581342207056223  0.1925540217510017
  0.8843687500238654  0.5233864230083629  0.7824787693675869
  0.9620619864659145  0.5855389834309959  0.8155918413110488
  0.8357111528621669  0.3272051171713877  0.9702000545137651
  0.0625195397100393  0.2357589924038681  0.8571586228126160
  0.8420570223054754  0.3649049494977273  0.5529178943979263
  0.3526825968000534  0.3603263655089931  0.8712489295089445
  0.7176255723341787  0.9395306474861527  0.3215492559942096
  0.3846847603226908  0.1101478328424187  0.6885266092807130
  0.5413704459300691  0.5646397171576035  0.1374752167066979
  0.8177756734479003  0.9226019101639127  0.1653008292368262
  0.3318202446614674  0.9438555985806765  0.2658084912690006
  0.5275423283897174  0.0335041335443709  0.7319553610360763
  0.1269812875475505  0.8945253227366028  0.6509266688459684
  0.9396467562073427  0.3432782587569396  0.1657633138218425
  0.6173994629477076  0.6000714948003272  0.2326518158398002
  0.2648819052963450  0.3008739676031507  0.8119631647885835
  0.2916149879248189  0.1632225839784234  0.7470508541945456
  0.0468201349922645  0.2368339640688606  0.3361920501987892
  0.0094948030807499  0.9774047683014405  0.6522330612027126
  0.3397914697677338  0.1572738576901936  0.3252389301907699
  0.1588175403751119  0.9473254218458564  0.2970228863406201
  0.4228808963798190  0.4098206624207567  0.0851720690668363
  0.8703614041778621  0.8531904533402562  0.5603297988869173
  0.1458440752363431  0.9194353943016084  0.9051924299283090
  0.4604893796647371  0.1999666035291543  0.2818541039616608
  0.3386132628939370  0.5739636380793747  0.8314610078050773
  0.2618820197619101  0.5386028319742218  0.6373960285610664
  0.5486055830469454  0.1465216465032956  0.2569166725925474
  0.5772510837008420  0.0284205059258517  0.1101354927060278
  0.4812728126195061  0.7227771507115043  0.3721703506155966
  0.7673940957996693  0.1393708822619478  0.7176574942266860
  0.2780033064413185  0.8354882497321023  0.5485024868971247
  0.0298907689682892  0.0846378587493340  0.1998066087963234
  0.0859066968415287  0.4654661918283192  0.0045797636183846
  0.1989919314478485  0.9900307742273419  0.0984256704975815
  0.3785325133973085  0.6475495616054394  0.8572944118961909
  0.8529396502028297  0.5385649725820297  0.9013908836571638
  0.0869251772935652  0.2145611244461989  0.0721501099789295
  0.2121156929367075  0.2725049808035200  0.2748687831410050
  0.3851616360082588  0.5014292550166144  0.5684523027761588
  0.4517419763943327  0.9791572050638464  0.5524902625977259
  0.9305502152499383  0.1678710051767070  0.4109761847633878
  0.7021434489656014  0.3084528715362743  0.8636168513199808
  0.4144514110083313  0.7634658015926514  0.0999130544248090
  0.0141168044007386  0.3012083781479751  0.4226456528949024
  0.4424840217013732  0.3544641394469358  0.1993286262615157
  0.5160502718971132  0.3937617162602552  0.3581272958640181
  0.2466933315426431  0.1443457283819055  0.1816665129975103
  0.3805019003715889  0.1664904896911097  0.7847453385238230
  0.3639416600247524  0.9811816464471413  0.3717314934031313
  0.9853919978525022  0.5829854103870866  0.7996811295902304
  0.8214576676585836  0.2636624040170695  0.2525729861149414
  0.3505384600593321  0.6494987085912279  0.8619540901286039
  0.6006556110407608  0.9571996034182824  0.6453219857228359
  0.6078586500074701  0.1007773384974171  0.7624170194061669
  0.4736849813508456  0.2756348053413356  0.2880538619509443
  0.4910576148989529  0.5915686910955439  0.4189202061978169
  0.3324718719495937  0.6457065280528732  0.9873602954373950
  0.8065230360869772  0.0532350451582939  0.8235935260000709
  0.6721637243581154  0.7867514249017739  0.4121572993589828
  0.8494701682773180  0.8576952358846983  0.2184948547577079
  0.6974612536403266  0.8485542689425685  0.9947882879504146
  0.6227455766261405  0.6526397808579200  0.0377746508149935
  0.9823635995137260  0.1741383299928321  0.4759977931081358
  0.1184850041738167  0.5217204981101030  0.9273769429537730
  0.0181774611076283  0.7796673777730697  0.8700197288636612
  0.7517445897834188  0.4918938083837498  0.1355393289533682
  0.0317935403122507  0.0890482685131761  0.8289922872162434
  0.5015500055585067  0.0689777436751657  0.2672494445548061
  0.7582999515346863  0.0439659614983560  0.4640933374129217
  0.8720278880934887  0.6288673136158026  0.4568228487153997
  0.3975071152795897  0.9747432051017850  0.5351536294822590
  0.9473578572337763  0.5968355130271532  0.0282141404106787
  0.0969577775185343  0.9793384404258365  0.5401659940860152
  0.6098396713370158  0.7240366369047412  0.3573348081614302
  0.3496499980503993  0.0966892637339946  0.0478764039128535
  0.5809407195752729  0.5889048076945670  0.9153175157616518
  0.9914612270315805  0.2177683327203835  0.2230921231383603
  0.0784545747729134  0.7991588798260841  0.5596630990096497
  0.0069662630852713  0.3064415488697986  0.7139750749428637
  0.3285681815219446  0.8725613299138647  0.2607440741165323
  0.8906335206732530  0.9791245905258031  0.8110627615091764
  0.4524650132534512  0.3558439895217585  0.1726726172787817
  0.8852196604574595  0.4539448896990690  0.8419355976093867
  0.6231082259097381  0.5176392745903555  0.7834328453995433
  0.1097624182953595  0.1873031021806573  0.0232350213895370
  0.3871963026439091  0.5658841713624840  0.7103951265508668
  0.4021164123452413  0.0602033971869026  0.9446773255085703
  0.2595517086332213  0.5553447137093305  0.6823075108582165
  0.4745485713596835  0.9169905336124115  0.9417792829068914
  0.9179409952743606  0.8412809077668018  0.8761322238744212
  0.9096818396717300  0.3175175351323043  0.9713536196433719
  0.4943964305807955  0.9737669905446872  0.7163152133548208
  0.9031389857098509  0.1817086451202414  0.5367862868862894
  0.9984149825895170  0.6435899416953033  0.8311850990931031
  0.7213822453321922  0.2710277758530843  0.2522134248786739
  0.8760325208362528  0.9144937339747644  0.0337968615707846
  0.5875119871235711  0.7091423628970173  0.7014545957459584
  0.6876384567673617  0.9656905845138483  0.7343355384853300
  0.4431421627077173  0.1245500812067896  0.3675971232595368
  0.5144841614925765  0.6463647403696772  0.9090461687657816
  0.5368192979262486  0.2930272737884181  0.5768169291267384
  0.4035550559853001  0.8219654832177112  0.0794251180450316
  0.5423240438219611  0.3065900671014737  0.7970073091978654
  0.5272617122166795  0.7784923027001514  0.0526016939998699
  0.5456382598531778  0.8898947870268480  0.8635615423615810
  0.6204347333784672  0.6467321849932013  0.4963326574299735
  0.8678672400932523  0.9528148621053947  0.3625301677877233
  0.7125379165833213  0.3185402211717850  0.7897306197202255
  0.4719562620936945  0.1919762452535479  0.4133247142310206
  0.5576447198831906  0.7793995562353102  0.5917310054612235
  0.8229598756057313  0.0571958975422714  0.2199404786311183
  0.4724369105764926  0.8335734276616671  0.7360734551319873
  0.8825231387318134  0.6299857992095699  0.4310157839380255
  0.1160189395654367  0.8771018741209662  0.1899266071969383
  0.8188196426979145  0.2626688288005356  0.8700768680523214
  0.0128718327981931  0.1670663440984004  0.8682183242296034
  0.9475740794986603  0.1015449182740313  0.3670187344926577
  0.4472710564431640  0.2116548754876402  0.1516114975870216
  0.0744683444803216  0.9057769396971851  0.5997006381177912
  0.8990904829103753  0.1957086654381809  0.7610981734826439
  0.8154815769361090  0.4297615672599188  0.4728206113880664
  0.7342587074175874  0.2528384110300296  0.0512161434842666
  0.0051021821064596  0.9112443588431588  0.9441389337737032
  0.2205493128586102  0.0449504438704038  0.6116881302597902
  0.3919199356441474  0.6462817345339444  0.6080614859930022
  0.4859201834170466  0.1049506641630240  0.7361259297337978
  0.3873547210500151  0.0248903168676832  0.1544127354097268
  0.6394810557596107  0.3628662727502238  0.0944900409574695
  0.8191642402351391  0.6587669365052012  0.6647691483632501
  0.7579605370635563  0.6260087487050846  0.1549575209489961
  0.2597939136051847  0.6573378812946331  0.3679181896527821
  0.7921917567011214  0.4159022634781783  0.7550147741323981
  0.9820251523371128  0.1612735122940568  0.7483718483883416
  0.0732030167433430  0.9138225898918285  0.8984939391936411
  0.8802771675736607  0.3274154940610587  0.6297700591406447
  0.4496866831286072  0.2013403387588265  0.5348188953694827
  0.1652910166334354  0.4053278566178809  0.1326439974927769
  0.5788599458966585  0.3042514443292385  0.8740846722727037
  0.9415645044635887  0.1634873453871577  0.3855529942810981
  0.5172055392021854  0.3414789084175256  0.2865392393968352
  0.2781130001090038  0.7152251471193560  0.8934890055247681
  0.8443990348319791  0.9923678965379199  0.5833319047734401
  0.3789295065324743  0.3770792247335634  0.5180187917545958
  0.6070403429184980  0.3856832194827056  0.3757070835706752
  0.6461548068537313  0.8048464119088330  0.8351986300339619
  0.1906995565897996  0.9133581583240522  0.5217757764194614
  0.6458986551088525  0.4229199920159468  0.6319316810935114
  0.8468291635751320  0.1782096432270703  0.4204851210791854
  0.9276616712763841  0.0816534145084798  0.7232729747082300
  0.8340182552687047  0.4712017736609616  0.2004323003143443
  0.2732356533749353  0.9713665983222374  0.1068796286869672
  0.0234643313883641  0.7037804651879344  0.4255106873438378
  0.2034019518346505  0.7357306207975530  0.6145959920968236
  0.5580548233891632  0.2698255375740928  0.9375539993255103
  0.4853973185420034  0.6782423150840554  0.2378192499527947
  0.4418757203325516  0.7144046784868625  0.9392664127636183
  0.1850551022119732  0.1487671321756821  0.3729104697297114
  0.2060469302072446  0.2456042373653897  0.8836368920339757
  0.8641733725851954  0.8541335133977884  0.1942552851863318
  0.3810355381572752  0.1387005060666162  0.5210235077768188
  0.0737618097052181  0.8778365661268543  0.2130188218200083
  0.0706019837171243  0.8053716536596862  0.0259943317373620
  0.0425235544693510  0.5007104830035943  0.3613930227239190
  0.7115494644162131  0.2182082946490930  0.6203292513960776
  0.1751005748862573  0.6959544708022642  0.7913995836919721
  0.9938578191235944  0.2825659627097906  0.0743306205081611
  0.2879324801204757  0.3214950065198292  0.3795857895492548
  0.5005104955811762  0.3832487009794550  0.7876227905350073
  0.2580430019402803  0.4012990885584330  0.4433921670062495
  0.8292601263218682  0.5560292706525294  0.0589720786556319
  0.9581199205742837  0.5651253027910175  0.3952747313692830
  0.4232508836120655  0.4977624218171622  0.5997018882750730
  0.1896799666743012  0.0542416968252570  0.5049458270496909
  0.4214929056749991  0.5769976894910777  0.8847984381676697
  0.7259703852094604  0.4774807164210566  0.2553040617105625
  0.3355070271901145  0.1781401911560022  0.4149742597597398
  0.8260921413869159  0.1270267250561728  0.1387672472565885
  0.6651049443365711  0.2971467580317285  0.5624085524141377
  0.4701146907185050  0.8387297266677237  0.0040901997065281
  0.6098466302690343  0.3490968768814876  0.1708645158021967
  0.0548240433698569  0.2358736575190087  0.3635908132271379
  0.5595710354536590  0.3094732645829651  0.3738957956932103
  0.2788579426595166  0.0193454131539782  0.1231688230245449
  0.2589596622992547  0.2326057593186064  0.2836402746791450
  0.8620418122934027  0.2723623573047384  0.6194361670374613
  0.4087563734544754  0.8221555548699973  0.1780888478927729
  0.8389476197131092  0.3302295074687233  0.5902474828197830
  0.1159420425214008  0.8822692136124589  0.2379614478426592
  0.3926365758978559  0.6333225953076138  0.6818734682514750
  0.8034968248550671  0.1293937570996704  0.1556516338750893
  0.7832620313114034  0.6368499968229576  0.8890960008424568
  0.1208777629400314  0.4088026115322322  0.1106830285913171
  0.2681881689169388  0.1308878362740082  0.5763214367890288
  0.4247522336246454  0.5192885010440944  0.8989259155404272
  0.8596173896180890  0.2732377678473198  0.6473215592884544
  0.5657039174548277  0.5381087978351398  0.2781569588251844
  0.7897137901328248  0.3409970684666351  0.7199299201197559
  0.4779469599120187  0.0579001530740630  0.6502903407897686
  0.0382049833500138  0.9142572075794357  0.4764398247199710
  0.0935769280074189  0.7071003252576948  0.8658759615378105
  0.8084068081207373  0.9888184970795826  0.0007429076829437
  0.4054437806452770  0.5540885253324958  0.9986933272419786
  0.0179175785773005  0.8746392659361739  0.2129993133656568
  0.9159770393628207  0.4808756614308791  0.5519298720952019
  0.4090136632600558  0.2054485196061840  0.1916942795871548
  0.8285921775854953  0.5852948543207408  0.0521319613029712
  0.2579400852163899  0.1820736985395692  0.6293741933369127
  0.8587762603575756  0.4673671923069696  0.6974937974393731
  0.3957866988065740  0.0460689840948011  0.3805017807897775
  0.3118542121973440  0.0092034979907655  0.8611649728500480
  0.0888410177291523  0.3957849700397088  0.6388708661098386
  0.7244363873034889  0.4324516568336514  0.4726947395521768
  0.8109041749377418  0.0743239254024404  0.3191747492583862
  0.4359752712129350  0.5181866386268973  0.8501986511811324
  0.8268394682201377  0.4714812783411010  0.9260483218004320
  0.7952314773180557  0.5742543134224015  0.3177011958711739
  0.0150752368462386  0.5829008344674633  0.8399085785908659
  0.8760870869525785  0.3059145406937557  0.4766724239831992
  0.5180048088524345  0.2104523506407922  0.2199630654727606
  0.6453417546818467  0.3827933067749834  0.9290182094409092
  0.5988825358574650  0.7810537293736165  0.1235555164743063
  0.8269343216197265  0.7805819361316999  0.5342222683080504
  0.2269998452705021  0.8750513133652437  0.2431115257720786
  0.4119438852390345  0.2176968242875945  0.1176359813397576
  0.0117359464731260  0.1003293018359848  0.3285472504093257
  0.0557789609370448  0.5305562396653187  0.0405591783353817
  0.7306194630957222  0.1207233429815100  0.7801769437757518
  0.1092171477190729  0.6627181878135130  0.0512717924854471
  0.6615901235912345  0.0102861848530458  0.3930106185220744
  0.6115575206532387  0.8484486288182954  0.4591223140102869
  0.1486820138373690  0.8508965458447211  0.4038113853625975
  0.4413596078702767  0.6304608468811547  0.9710332013316614
  0.9554249206765179  0.3070378290460559  0.8292647474943714
  0.6431795981399477  0.8422685562959418  0.0946167917039345
  0.2772665747771217  0.8910894112371979  0.4504611043466691
  0.3068036676042615  0.4171717784646679  0.2304169306697150
  0.2221418205958610  0.6908261875178927  0.0464504215105294
  0.9597144163506229  0.7825513764512725  0.9165905619231234
  0.1457714797408777  0.3990409700275823  0.9814893608172593
  0.8479730854790115  0.3380619270140207  0.2298269384430089
  0.3873619907204080  0.2621568168244163  0.6347006094513746
  0.9695961908337249  0.5190837578776475  0.7983525564429291
  0.6846786167529714  0.4433893669273224  0.7818598054959687
  0.0166792136760327  0.5272530613326019  0.0090374268353625
  0.2828422639403241  0.1798304017923176  0.4670416003328007
  0.7194066127364556  0.9515166655213173  0.6658252692334302
  0.1658545332791008  0.5951551706315643  0.1775549573241959
  0.8259546387659801  0.1229957885373408  0.9240792640740002
  0.6355141772662067  0.3652848628846199  0.6837105773775017
  0.6757246322554564  0.2336255888630238  0.8652581558118982
  0.7958562610883096  0.9350909388767273  0.6299807876523216
  0.1629575670917995  0.2669609204259860  0.9708081190141373
  0.4672919550316315  0.6396168773358613  0.6192360218572694
  0.1682953295106395  0.1848924509365816  0.5945288034511647
  0.5118398972927535  0.5782773834737305  0.5186279903976541
  0.2247689192141463  0.7607321581019172  0.0723950673969326
  0.0995678279838862  0.6416388436253253  0.8411927201482453
  0.9128143167512452  0.4616200490499751  0.6820565512850845
  0.6779054175766860  0.1742192704132564  0.9921322357934648
  0.3409803057557189  0.0958790738742774  0.7483547542377328
  0.0326532578447908  0.7420239386886153  0.1756828105901004
  0.9582624440001420  0.5244147716074341  0.2753623652383880
  0.5023355733192669  0.3901856868147621  0.8367954749324341
  0.2526322613608915  0.2311719040277724  0.7664087696067986
  0.2867246799191391  0.0275938383944013  0.4353483230131808
  0.8366089163703481  0.1972158851596058  0.5709953647178508
  0.8409533769593740  0.6720853477687536  0.9261264276268975
  0.5917712972779945  0.6985128591931494  0.6747783116124151
  0.2823021777332856  0.2523401839028542  0.4051152333992418
  0.8635541785645972  0.9347143034485099  0.2108980510066085
  0.2301111284983971  0.3787569545927513  0.8982135859224988
  0.0434332469341654  0.3921152944195737  0.2778535686557782
  0.3811411608871984  0.8292299646725122  0.6444170698757044
  0.5230239391913161  0.1784868571775153  0.4311585879041402
  0.4674529282234363  0.1296779388945158  0.1929873346659410
  0.2209104729620352  0.3273796858916365  0.9477095649935102
  0.6944980792947923  0.4366021476629003  0.5782689458044252
  0.3668253342844507  0.8611038520597094  0.3420341211876021
  0.6139137539986943  0.0808708608067920  0.4230181117538152
  0.4713557784430727  0.7635593839236687  0.7237586078055523
  0.1673868588837338  0.6653776525183867  0.5658948870286196
  0.7955596758711145  0.1935389359575168  0.8264759966426474
  0.5840033271569118  0.4475144306289577  0.9125535720309027
  0.4571576127822290  0.2587505381725236  0.3807390986466502
  0.7651098017869101  0.1867722753848269  0.3004697119844928
  0.2271388834281237  0.9190576506924035  0.9653850087346180
  0.7502055845481241  0.5736794646500412  0.1130384151216344
  0.2842217662209955  0.6007352973984554  0.3297665198051621
  0.1378494140582771  0.9644637409129403  0.6447457412257267
  0.3379094191359034  0.6644853121522282  0.3983960060557090
  0.0913545844665307  0.1870929851797843  0.5297886265131990
  0.9138023363302430  0.1773860375347077  0.8569101195485113
  0.0712568732304194  0.1753656909067333  0.7078682366437724
  0.7587628287300232  0.3824040161327549  0.4591519877435284
  0.2098877745565367  0.2394523796335252  0.7269848977039036
  0.6203197806511032  0.7177015071728320  0.0682810346119737
  0.0203860083088131  0.2951457271011069  0.4503054587649555
  0.4145961651549038  0.0602036134132304  0.5761739322315345
  0.1272293072445114  0.9667591154451516  0.6185609569275977
  0.0540376722561439  0.0518302591422941  0.5657994970276384
  0.2119373834955218  0.9090310870760843  0.4797796248990092
  0.0760967529220852  0.3985718284628320  0.6639514354870923
  0.2896051407256054  0.4688807645265302  0.3610796733015429
  0.2556756739460901  0.9134139709109890  0.0044690087643570
  0.6315783137312738  0.7985728283736939  0.6512739885421321
  0.2183599815527102  0.3306304052194701  0.3712730017204605
  0.1575858014952067  0.8269794632798232  0.7070791353672295
  0.5431099796482795  0.8481934189011633  0.5346950197847408
  0.2536809007568930  0.3169355517148676  0.5945518863552164
  0.9949050305466103  0.4492644243825666  0.8960167875440987
  0.4782735977265343  0.3271059642847715  0.0068779759556376
  0.6804837889241279  0.1889280773326290  0.1479702896879885
  0.7456896771654922  0.1772342393032887  0.3205905513799330
  0.7026057854004945  0.5143580373770023  0.5000111182157786
  0.7179430347897611  0.1348161294049570  0.2808391522709601
  0.1487509089189772  0.2793486780134560  0.4541086792467323
  0.6711530322314954  0.1062472155742717  0.0475626622411286
  0.6741438289227439  0.6030200448266517  0.2360483191526389
  0.4046502083495677  0.0312653612475205  0.1069844116696759
  0.3646270712642444  0.3840518852255291  0.5873079329960955
  0.9951088596359661  0.7381414100953608  0.2930980265554471
  0.6195434555718531  0.4318886744139209  0.5760519308825893
  0.2608778350078546  0.2046274873175673  0.2022236236800813
  0.4700838864626990  0.3236587388900735  0.3386531458283296
  0.9195475131390414  0.9879376389016871  0.5699099521624945
  0.8797884447025813  0.4902388524240521  0.4817645386202780
  0.5020601051530396  0.7207936142872514  0.3915331206386064
  0.1939444169811817  0.8952190530142287  0.8166565312593014
  0.2044422163607787  0.8066472096944627  0.2863886524515467
  0.8280301664326263  0.6146605343858237  0.9643169723653532
  0.7761566879322228  0.3274047501778769  0.0801510945798738
  0.9857137321297138  0.1639201826399048  0.4029444262907940
  0.2845169599187479  0.6906705579980814  0.7203028930433429
  0.6883581965428232  0.3151422131103210  0.9629691587974216
  0.8569554126803888  0.0649921059452294  0.6032527130030324
  0.4184563049096333  0.9540171699099217  0.1192645044236507
  0.3153022429324314  0.0963644964781904  0.7367629518773205
  0.5054553820666665  0.3949611334678889  0.9360343521392541
  0.8444454326412123  0.0527130567298648  0.8661209823637909
  0.4611241775940690  0.5694802567497850  0.6394683612804873
  0.9042530370960419  0.9817161418414285  0.8843635554552348
  0.1593209454263780  0.9120406247807153  0.0662097514245940
  0.7734499746268930  0.6312137395011875  0.1087675800094321
  0.1730921255217222  0.8275900526534025  0.7311033458443569
  0.3286980283917966  0.1499348869412289  0.2405524018096295
  0.2813251727547370  0.4611268733520594  0.1167997247306197
  0.4762900405363309  0.2020807618168362  0.5424438126575361
  0.7311366710697302  0.7791342941733325  0.4958190388118031
  0.6140398405022255  0.5276250511083890  0.3357542211156725
  0.3880828718585256  0.2113006260136474  0.8509330935810620
  0.3291268541224694  0.0191005060484171  0.3758348636466398
  0.2447783281091557  0.2539865399927246  0.3738516641410359
  0.0120098499360346  0.8483269219618839  0.5625840844977649
  0.3227609011058003  0.0887535665355613  0.3213669270554725
  0.8281086535047087  0.9163075315896383  0.8816918453283615
  0.6490832729997067  0.0050375641045659  0.4392041461128738
  0.7670779935439127  0.3422475453092134  0.7369315150841959
  0.4645808703243515  0.1029358281422052  0.7806655012409875
  0.4784480232536772  0.1443042557887352  0.6043626366421192
  0.4503708239699284  0.3491647608920437  0.2480694255236317
  0.7673188188583655  0.2697044092335498  0.2386897874748018
  0.7708816254592257  0.4157561889713642  0.8054403761589334
  0.6592635517167149  0.0082588348581312  0.9818321899484668
  0.9967685034508647  0.9153329304738020  0.5652249067386445
  0.7198286755731658  0.3539865032422533  0.6322158728475720
  0.8693133610707494  0.3704971645511603  0.5039493476829865
  0.9162513961579055  0.5175217692220168  0.8595086064631989
  0.2186445619296431  0.7514262469908473  0.6584476010516965
  0.7548991306118493  0.4301792696781276  0.6610343144851669
  0.9129308922939151  0.7559086016036611  0.5485191269906087
  0.3854541830015878  0.8046890340117071  0.2160781867175863
  0.6890339752037570  0.6413708982611518  0.0721648844376988
  0.9771369848492516  0.7996903393288589  0.2370815491429258
  0.8170920177806257  0.6194412869901140  0.9894283156142567
  0.0689622315857973  0.5636686624849965  0.4421293941372570
  0.8987475083909013  0.1290940901311708  0.5818085231173515
  0.3035293012677971  0.5424866949689154  0.6644863487843385
  0.5984473800736607  0.5805867062914136  0.4742865798210184
  0.7787510410154500  0.9052384619563180  0.2395363039747328
  0.3961840598513444  0.7959659821874844  0.2418036572296159
  0.8163961389258987  0.4304481886860052  0.5216847929728673
  0.5979917674903763  0.6459323571502211  0.1157817972655378
  0.5005712451467886  0.9267581571330161  0.3836089957073491
  0.5033066698906768  0.2238605493310334  0.0903090155441925
  0.5765657528363657  0.6877952140919859  0.1787975080490478
  0.8115561578049106  0.5975437134494506  0.7177327636963106
  0.9439380159850538  0.7809630158243418  0.8687784226953864
  0.7589473740830416  0.3575691986783228  0.5547819089089097
  0.1311673222670161  0.8272011433141152  0.7561086637542511
  0.9812209263038320  0.3357345724520778  0.2581075244131791
  0.8610185801292254  0.6078407806728057  0.9331388738601915
  0.3544777091671282  0.3821566873256736  0.0698159829232589
  0.2468399656355720  0.8863316166120709  0.6225870034430363
  0.8813928842376447  0.9827892536697280  0.5398673345117635
  0.8167952086663937  0.2549408408066327  0.4795764313353013
  0.1124431644295612  0.6971820720212997  0.8476037867221845
  0.6231609603876921  0.6544004727648771  0.4220478556862544
  0.3801190286574630  0.4089533661770677  0.1097081867468214
  0.5414925230769101  0.5216444222222130  0.4219259143448589
  0.6960031998731078  0.8860700431020714  0.6983658431511249
  0.7184995000849763  0.1433535758674155  0.5676415787792694
  0.9517888615301874  0.2138695839429366  0.7520545637094083
  0.0296073951097936  0.9591220780956683  0.9584287395689403
  0.8126498164462987  0.3956436457961393  0.8745168686471713
  0.6619073164665952  0.3736767182214334  0.2926490200661050
  0.3047288029771765  0.9114697238460507  0.9983735030050084
  0.6454404867507859  0.5856348317793735  0.6236191132923987
  0.0135457909254035  0.7675655810378242  0.6646713300567647
  0.7568797569008285  0.7933991714769800  0.4276795562084358
  0.7806229308465952  0.2657827867382369  0.8046377051751906
  0.0064606790522982  0.3932285767727389  0.3534055378213669
  0.8095042486796005  0.4865520016677566  0.8565443055255830
  0.9195472655271536  0.1202965263203437  0.0991668409439641
  0.7453091805336001  0.7421320787185594  0.3212867309660319
  0.3326672902711256  0.0308490409672949  0.4321800884187460
  0.8925566270291376  0.8846296391072737  0.2864115013261552
  0.6949310421153846  0.5878757073750031  0.3332091689235878
  0.0273333816300918  0.8037458899389318  0.1155428232002982
  0.5414659242445539  0.4963048544070168  0.1128679562762694
  0.9639449273647079  0.5312090353282131  0.0756859364199599
  0.4449147690263039  0.9999347598322114  0.2993059995782609
  0.4290362956101970  0.0365633116216589  0.0597924396649502
  0.1352858184500056  0.6581167870087377  0.2206013237718036
  0.3481359200655414  0.2819782688459121  0.8724897336140548
  0.7820893752858104  0.3956919442797572  0.3136901832471437
  0.2094517798083024  0.3280548985555918  0.2860051642050307
  0.5637273890268287  0.3090775031880429  0.8971725229467469
  0.5558815407643004  0.8407057567130539  0.7289531893339533
  0.5822442105125357  0.9036650065213389  0.7749371265562651
  0.3638690224787444  0.3799476277935016  0.5407816255383829
  0.6616672654485501  0.0873073910274257  0.6300236750479691
  0.9989303797518041  0.8432030415615431  0.4393598557026402
  0.8165172298874193  0.4728329863555021  0.6640478476166671
  0.5073566049801198  0.3283821989217256  0.3090250163242006
  0.2655193676675550  0.0007262436084203  0.9277189139770223
  0.1677220141643874  0.2026278179269349  0.1185353250858651
  0.4320807700705495  0.3345193187942256  0.2983652772263262
  0.6753244561279681  0.3145030295718535  0.0344827186582137
  0.1349942391550825  0.2215626945078552  0.3807223385380671
  0.7043708375037185  0.3612726103107546  0.5068252414981349
  0.3239116013773117  0.0914495922566671  0.8218302001566919
  0.0897803201456536  0.8972041222366233  0.7697543945186444
  0.4192389936222696  0.8320934985540172  0.7885234538471290
  0.6430016639163089  0.5880762162485547  0.6721382034613750
  0.1847562223919741  0.1071969749754277  0.6826424970027007
  0.3630852607516775  0.0513251230605943  0.5546701368469075
  0.6806470926331772  0.4302105050148608  0.1333768262896996
  0.6245011755712929  0.6654826509183641  0.8153066654331760
  0.3580075461050451  0.8045579071150899  0.2092032757875584
  0.1501157941122343  0.1737881656671109  0.9196513930051616
  0.6545771869728223  0.3108668872510939  0.0510855252512346
  0.8738405956410933  0.7691106797730298  0.5184081707422237
  0.6686358442928373  0.1387109178740013  0.2553962233053790
  0.6956093450768193  0.4308549942672245  0.6373257037135229
  0.3153778915722232  0.7250752901488775  0.8525928943999955
  0.7536964429529163  0.1944643333095736  0.1503195328454103
  0.7439001537195810  0.0179029874836478  0.3166729065024648
  0.6926344275725441  0.7805138199348098  0.4648546111884968
  0.4346806778763275  0.4822409588232772  0.0022348090805125
  0.2657274564689656  0.1821489102645254  0.6020421547031358
  0.5680943993855057  0.6581161653329196  0.8995738570577124
  0.7425793702298326  0.5227128497930434  0.6049558252709635
  0.5863342578633326  0.4616215736856035  0.3210114323308114
  0.6181434592592627  0.8674734683314341  0.2887087743452330
  0.1596750275387084  0.9619279658172086  0.6979074454802818
  0.2217070872292870  0.2663783727270650  0.5166450609260230
  0.6483750422643821  0.1702008652664216  0.4700188288968367
  0.0231097060000422  0.8098574411367712  0.0402644788593485
  0.7710507554829377  0.5239632367880959  0.6096059883062730
  0.4288750714157800  0.5774480694783997  0.5126952199979815
  0.6590553310741138  0.8636507165230147  0.2147482293961425
  0.4825923716735655  0.9910423893795887  0.9110787144796139
  0.7114040154073218  0.9765352510997908  0.1590280498607487
  0.8021922153373988  0.2871280848448383  0.5671930483498203
  0.3786511516990451  0.8960604012442704  0.7106250714801541
  0.9661419367022347  0.0494888642942786  0.7906981934503224
  0.8250900029274061  0.3269080701625371  0.0723258786923270
  0.5320486029992518  0.3257512329857008  0.0111223596199930
  0.1015060373115743  0.0181012862234823  0.2193378368129718
  0.0767618302928243  0.4006381159913010  0.3723532376245443
  0.0790818013093238  0.2436047330612071  0.9021557018786643
  0.9398295863863012  0.5377166149101364  0.6419212698800204
  0.0452054977253352  0.6857743185943670  0.6437085607384291
  0.0978859634953758  0.8736034675852093  0.3558354355259077
  0.3357693408969283  0.4183744326780516  0.2308402559281108
  0.3082244718956165  0.6736921098603009  0.2289826282206488
  0.6432675793941753  0.6734504080673812  0.2975017205825809
  0.3187005842103751  0.2331258353631952  0.6223785812215129
  0.9657759839475448  0.4793640586310228  0.5567935959985261
  0.1318870661789480  0.9654434161874028  0.6935709719101291
  0.6375377970341773  0.9488833528602302  0.6183826044891427
  0.3342195957489903  0.3610490003707718  0.7989662836557251
  0.3718527320965305  0.6783927157104450  0.1721236678156506
  0.2074561637496313  0.6559623737708917  0.5378793063986742
  0.5235666737646333  0.0071571467422885  0.3238080781758015
  0.7085283541982046  0.5798360185018728  0.8915763388928791
  0.3036417878862003  0.8269383202445895  0.0575860482796576
  0.3104316152873114  0.8466130790393759  0.9392076613721273
  0.3527755547881061  0.6587568781958943  0.4414747097716566
  0.2104370339916438  0.1285099738098104  0.0893743837585096
  0.7400127559028261  0.8521671530932401  0.9188159899034031
  0.6455759852868572  0.4182518331189979  0.6591935749023936
  0.7636811221293914  0.5789659896294792  0.4841512828957018
  0.9177659875401554  0.0494765762258033  0.5231531717090587
  0.9238340788141672  0.3070310302066552  0.4686774181344396
  0.6065180812506996  0.5921185721776041  0.3771377475619884
  0.4544556116539619  0.9756582399799528  0.2065295074017364
  0.4992771700456141  0.7766172346499594  0.9402516987220841
  0.2463749522425136  0.1141864955970286  0.9723292263840989
  0.2137555710257689  0.5958304946020615  0.1776666151718288
  0.2743763745588906  0.6197308906845855  0.6555275076758176
  0.7133478026127411  0.3917503916656420  0.3421848281479897
  0.6220869401703083  0.9707862436219653  0.0599620636052761
  0.4073462880426016  0.5142270038895641  0.7696404421823425
  0.9851452904547106  0.1505917444756111  0.2602778934665153
  0.3502281311489051  0.4944069576744072  0.6268420227654600
  0.0721958631758711  0.8052155405710066  0.0962656085409773
  0.3323095200936121  0.5322747563637582  0.3607322595935514
  0.6482733969167823  0.0792603194313088  0.5174625197702210
  0.2350770731924179  0.0503190322425733  0.5101068043503563
  0.9897554306478342  0.4081353242381405  0.5684262655004185
  0.6073170488584760  0.6517461408160496  0.5970600919116394
  0.0815026068555201  0.5120763205482977  0.8195571241818354
  0.4513805799941488  0.8310593260885544  0.2000249542662871
  0.3955274518984315  0.2846961113353837  0.2292249287043840
  0.4663387705871789  0.9887692066043546  0.5082855872236961
  0.8263364293049522  0.6104400566435660  0.1801111323156359
  0.5828302204164614  0.9376941803980186  0.2171399662996869
  0.8685768549213461  0.1843641968891008  0.4918730123636600
  0.4160534471578709  0.3134775254623661  0.4215923403780402
  0.8134293251141727  0.2663315890635776  0.2254452231810155
  0.7938268493330284  0.4779866623985070  0.0060935670494402
  0.7643489822848007  0.9840499759637327  0.8357574403376817
  0.4010624358492031  0.2909940957921278  0.5581349707563935
  0.1558470718093206  0.8962311795629647  0.6908232082149843
  0.2756257281644160  0.7116666064007523  0.5181585053319098
  0.3499325652774235  0.8238120267458504  0.8197873791501287
  0.4972612908390239  0.3912163858593109  0.4335168325940416
  0.8173524989207950  0.5635406624813950  0.3687294537176172
  0.7471724017167610  0.4346236404426047  0.5475145286024531
  0.0917811727991238  0.5275504779798220  0.9975967672841716
  0.1548863485961750  0.5219483097400518  0.8843460752560574
  0.7964959778468471  0.8233057107753037  0.3403274324697192
  0.1667356300480860  0.3818579655949292  0.8069050284262991
  0.4179008607317676  0.3974424312239115  0.3282687733742318
  0.5798687753164827  0.2420663359845430  0.5055326828818084
  0.5518968514934907  0.5759434608857291  0.5456299455037433
  0.0333837262779438  0.4128896599041971  0.1122647327849428
  0.7020441885868045  0.0425868313096712  0.0431832832730635
  0.8640371820649015  0.2535974910183109  0.0133147019377776
  0.0620823997486732  0.5134108232066109  0.7665662214157531
  0.9123168279168015  0.4582331685375690  0.7594059665867137
  0.3762837401991907  0.7130072006427005  0.8410554448776937
  0.5241751033733006  0.7057346910643741  0.6454335437579115
  0.7178818022821957  0.3204296002495291  0.0022879179621214
  0.3830190136603904  0.8416477220209678  0.9582320108185682
  0.7869239156554049  0.5567521605341699  0.0359894688219003
  0.7640321167309180  0.1328661442153030  0.2465355605486406
  0.0213408889883588  0.1718099120670680  0.4447970497540338
  0.8008045493437856  0.7839421880907138  0.9666030639777023
  0.6854995730425759  0.2763321681797392  0.2185998159628388
  0.6073928750017173  0.0032777339488117  0.4779658487084905
  0.9728989981287912  0.9594112860560575  0.0549584190985920
  0.4743418322604701  0.5516858073721552  0.1090780464691037
  0.7242793841525165  0.0671799347042007  0.5517479732105699
  0.0759739514122772  0.3966425197933063  0.7141829770989579
  0.4728997436517021  0.0652696924148364  0.2278110168206474
  0.3076874844007941  0.4185402149954624  0.1321987926817225
  0.3229202518816042  0.6868954471288656  0.6567734964332071
  0.0157595673187986  0.5440148068797478  0.5578096878326678
  0.5321845682582306  0.9048142111356220  0.0815628673944949
  0.8150327030161395  0.4763827598875299  0.1021847976319904
  0.0719545419953703  0.3830325496596106  0.9636738094492622
  0.4958464887250782  0.2590875392151150  0.4119103682926757
  0.8651279903727552  0.5376679687417270  0.5747914543024921
  0.5781106172333900  0.7711214018238403  0.6457800633534151
  0.0690270795054344  0.9657855302989142  0.4151239505922887
  0.1892010404737768  0.9945562280658196  0.9223812524477789
  0.0772609231683834  0.4178984233367957  0.1375769957114773
  0.6992874955183864  0.4793840555500664  0.2138777518816850
  0.1915642113101245  0.7564846965685261  0.6653942990132244
  0.9202968650794374  0.9069563600134303  0.7957009988514389
  0.5084129876971583  0.2889465767816751  0.5748548402770585
  0.4123082214375525  0.7853651105632394  0.4174559279775100
  0.3672899633467511  0.0379733578030018  0.3413701656555996
  0.8000671736745540  0.3610275264935909  0.5281681666437359
  0.9495602006304000  0.0669806571666428  0.2200421554230383
  0.1557542080467451  0.3398581052656620  0.0022300999680608
  0.8869835241113231  0.1837756533275966  0.8623658739349739
  0.0436870624856948  0.7462916909376296  0.1280911543012413
  0.3149676850348706  0.4398807643298925  0.7757956605681149
  0.6782761522926876  0.5842750060176094  0.5275969087739923
  0.5120951349464643  0.1248319225858058  0.9833028789753150
  0.1994287913756653  0.7662260050967029  0.7394643917444814
  0.1332471412312628  0.1670872738115511  0.8231677444326476
  0.7581268176694350  0.7156095956770381  0.8456527912681606
  0.5404858151220344  0.7117779287982114  0.5613395939288619
  0.8838839652648749  0.9153166445023216  0.0832816716366275
  0.0555129111028898  0.8030126915466842  0.1186913063098058
  0.5326840456260973  0.4314515672549661  0.5233933859303219
  0.4095647430654299  0.9065617388333100  0.5650348168235018
  0.8778526150846656  0.9137286260744532  0.8825980493375563
  0.4933170014329714  0.2171193242935273  0.1380703905853058
  0.5997511739524786  0.8290720142321656  0.7458447664570887
  0.6549215704364720  0.3058215296355546  0.0788913186879299
  0.9366718155234597  0.3660440317798886  0.0423446417638822
  0.0788920371663995  0.4548466899419989  0.8791070601374827
  0.0205384935002332  0.0532771096294356  0.5296420380709607
  0.9019077377953404  0.0372254514956967  0.4397397955027275
  0.4740173323055590  0.5710467732778285  0.6649834493243756
  0.9246948203649216  0.3156201473847373  0.7921037122781317
  0.2378809543947491  0.6214706294871363  0.1139147189691007
  0.9558047583628587  0.3443493434477786  0.1194803081738415
  0.3179394880189960  0.6761883158619181  0.1542129738778016
  0.0991824188786630  0.1735415164354896  0.7035624889392297
  0.7879381477628689  0.4069385378128119  0.4083600116236026
  0.0948146543151606  0.8053286858182669  0.1467313870220976
  0.8693266701883744  0.5352904196013618  0.0390853071081821
  0.3764025034085680  0.4062610781672036  0.3037362729493323
  0.0739082071019627  0.8904768133462063  0.3090355816534208
  0.4277813990769968  0.0505070711188726  0.4478211582160126
  0.7826437517899641  0.4873655863911093  0.9060413887355058
  0.2687920417699207  0.8741153472728601  0.2628569899416989
  0.1595047697056213  0.0815643283490156  0.2003951396391734
  0.7946506576226089  0.7382638111817994  0.9735270430809790
  0.2554505461551547  0.3384328017878818  0.1428044047698977
  0.7688016532250660  0.1209242974629317  0.0609138175450909
  0.8846214655534108  0.0862245039841431  0.3307641153122878
  0.1351481475143560  0.7294578219077746  0.1002103338254216
  0.8289362284169964  0.9172364161041460  0.9610050336915609
  0.6775312638174225  0.2927784464609554  0.5879853942272451
  0.4813198747023590  0.1887814037938109  0.6730897331729797
  0.3790528951034945  0.8490356116756854  0.9093300004745449
  0.2850619573925831  0.2355495418307370  0.7332048742368747
  0.9879924728881433  0.3676571592364833  0.4776914481862612
  0.6141064151787309  0.6585253311925000  0.9160424529657362
  0.8805116772168883  0.1030645863215253  0.4419525438877919
  0.6524093876033971  0.1639005662529026  0.1142090371971693
  0.8502761924495665  0.2612911824479541  0.8329206354402958
  0.1173571387374601  0.2743646101849507  0.3025654176444549
  0.4500022960505944  0.1583046121523616  0.0570943664213429
  0.9229981361102331  0.2452628964464012  0.9651750503198266
  0.3429009434494096  0.7327257107716902  0.3152594086708199
  0.9247107513491013  0.8227035329375673  0.7269900503521564
  0.3693227135585496  0.6447722295004374  0.9583408085063655
  0.2161418245901641  0.6953954785698635  0.7517941429459674
  0.4750799755042853  0.1554079045137083  0.0696672344092628
  0.2912142125371624  0.3702220943847906  0.7772350136525996
  0.3257636884911413  0.2917696194814434  0.2633877427155111
  0.8171687894682195  0.7663204886006353  0.0295184479051272
  0.5905099015606811  0.7292886727926624  0.8818825593220193
  0.3637290037604146  0.9931330545064576  0.9458016569602988
  0.3678090944381871  0.7163577834508092  0.4361076045381115
  0.6559768656214214  0.5138126300518421  0.5159981315360732
  0.1717109907752417  0.9446017472130955  0.2121822305687692
  0.1277034394959985  0.8193533272007895  0.6595092846217178
  0.6472063476621585  0.9347581115497789  0.5169288386279918
  0.8732256189531212  0.5301441490918235  0.8602647235900179
  0.9073743936301025  0.0605773511380455  0.5973190144865939
  0.6659530818731526  0.5155337370253292  0.5425025040414775
  0.2054062009747464  0.3189855125634622  0.8635554976010920
  0.1275162469593236  0.2823912360195209  0.1839266625460977
  0.2041240079337803  0.1136159854070167  0.6382446273229661
  0.9020257592966990  0.7471429216458164  0.3025780392323723
  0.7854684205717597  0.3233843237041185  0.4606991983975345
  0.0821018152460846  0.7438034625744249  0.0869419545354794
  0.9981907171606219  0.1410773862563408  0.1579727588949786
  0.1181816759445337  0.4648516065407872  0.6972427778586916
  0.5748746297588652  0.0906800627654027  0.5110251558878270
  0.1272010595035753  0.5182967338826617  0.8787258981836368
  0.2303786112535391  0.5813430704223895  0.5448899124004494
  0.6968145851200681  0.1936028953890711  0.4852785267138340
  0.2147285951178682  0.0107059367609550  0.2830666065061622
  0.3741363477718477  0.6460244720790930  0.5837809312652986
  0.2968430033969403  0.5945227743169275  0.6157508313867320
  0.8569749218023679  0.6130559058309563  0.1132596453545290
  0.4716847454218414  0.9999135275102047  0.3070235645222820
  0.7143365229303291  0.3174668121862221  0.8180443558610067
  0.0240462514090679  0.3464559612750072  0.5376349256532221
  0.8842234269234661  0.2485099799077147  0.2913041848728815
  0.9389162279115788  0.5339717089201953  0.1476870768570859
  0.6294915483427218  0.9293022186576767  0.3658131048128289
  0.8218542556803192  0.3319776755944754  0.8859742600973962
  0.2330356743489100  0.0468600358284780  0.8731774901404515
  0.8507668935840640  0.6000525866437282  0.0552213619793396
  0.6264214242621495  0.4618518776449017  0.2296307097555495
  0.9344268070045991  0.7992038139302786  0.2494796109385427
  0.0189791811002015  0.9524871839958923  0.9836362309142005
  0.7070416371490942  0.9435081159691634  0.4187785603774081
  0.7184160255940816  0.1131473205649914  0.0400232069050122
  0.1795190294807759  0.7094607502024983  0.4958388453036506
  0.1823878987808044  0.3798966297635443  0.8301015907773185
  0.8911410353071307  0.9875847406527406  0.5664734098123593
  0.5626583308035512  0.5920943406274446  0.3989494376827394
  0.1752460045355212  0.5887546306605327  0.5407207058741023
  0.8347242916612773  0.1309692794447328  0.2222044774639829
  0.9091919073932735  0.0454266649118653  0.9043947935779716
  0.7353817018086360  0.7187711774830183  0.9411617512154552
  0.1696168023010063  0.7953260344483738  0.5935360705558025
  0.4345826122902244  0.3173586347120927  0.3686542762595687
  0.6888284794335130  0.2218285255095303  0.6034895628010188
  0.8586391601895100  0.8291082742215641  0.3929738278934589
  0.9666988285746858  0.6441139509906011  0.7934206779651028
  0.6692265355821841  0.9160227424994117  0.1236605270856529
  0.9856345094458958  0.7156022088475879  0.8316673457643803
  0.9418080554164070  0.2374139330125255  0.4059265914759044
  0.8008530085705652  0.3318473134243215  0.9044580435354255
  0.2850860176061437  0.2263108704062060  0.8605785710750552
  0.4219711063880285  0.1206506215484554  0.8704136424217818
  0.4056909095621196  0.8182261051167674  0.1294097973992468
  0.2444075243891231  0.2448171049525045  0.6902077047787222
  0.5295334791235725  0.6879352227628208  0.1918978201945241
  0.1180817456700604  0.7979485328744997  0.0408651440288136
  0.1422049034603519  0.3298254152451749  0.9177587188885238
  0.8411079373448722  0.8662316164788875  0.6062805519343402
  0.3755230219868793  0.4513969280286734  0.8485226923293626
  0.1585023163860085  0.4144804810827423  0.5165905460675286
  0.2532881138669359  0.9180397264625919  0.9764279820470487
  0.0312947848295147  0.5326603308763006  0.1879287736502310
  0.5432870695337926  0.9750149239881324  0.7210514032131334
  0.0612284070357662  0.5806235704175623  0.8092784390242177
  0.4606483472674205  0.7059487306511107  0.5877090914656958
  0.0421683548606560  0.5432184825451795  0.6384272943042321
  0.1191992318454188  0.0208516975638165  0.3044659647515908
  0.1898855803459611  0.3289309292557044  0.9092894233695542
  0.7281287437367767  0.3860437362185009  0.8756622007409828
  0.7134850729563481  0.6124282936736833  0.2121784760964204
  0.1542277929719864  0.8626210078450977  0.0466952523126030
  0.7848477070841940  0.1436182653001058  0.6715597706889594
  0.9063005865169336  0.8377508575498207  0.8005163646708502
  0.1100879773917640  0.5257314880113433  0.9758532317379227
  0.2347045188677896  0.7167348576526199  0.1514953879793144
  0.9608842440486606  0.8381779441155535  0.8524478841563098
  0.1655790878468304  0.5976334966775113  0.9203106579470427
  0.2841463941050630  0.4034082492681091  0.5402109197380950
  0.4332159046443196  0.0910147200665289  0.1073022256537369
  0.2227410463548579  0.6499318776669734  0.4331931838759147
  0.9653548369386200  0.0801765261844719  0.2392635016535726
  0.0161891093698070  0.1743225121408888  0.7170201200388727
  0.2262768354810348  0.5174475475612272  0.5648651354759536
  0.4541205801606125  0.7650247968002571  0.6675871348931040
  0.5553784290885080  0.9089911562158842  0.0666047285165173
  0.4149515786174439  0.6284198761965508  0.0964585028089346
  0.0449838494287668  0.9019276091023669  0.8302759527137299
  0.0880499541768002  0.5303272871492533  0.6213563286122863
  0.3044357410984040  0.7241018161046557  0.3793185979339755
  0.3367841351156033  0.1617858368027910  0.7647269680199565
  0.6605126825547250  0.6572994150281334  0.9324329750513207
  0.1067874348746550  0.0089432911171804  0.1170612184290461
  0.6541433194629007  0.8054585974603408  0.8072299653064891
  0.0770710892870192  0.4116336875623423  0.0885651965549637
  0.5832599349390056  0.5816146330535852  0.7684106394613124
  0.8660677453764826  0.9411032968527394  0.6783280922090128
  0.0532276989162958  0.5226174509453346  0.9659107308755280
  0.9704495767862910  0.8385478259450783  0.4376169884331469
  0.8899396063721390  0.9194335185928826  0.1299288949067142
  0.8360216043607537  0.5220754150502287  0.3029447673703051
  0.2524677201330679  0.0047513853356950  0.3470098431813651
  0.5449293331359202  0.3882919814356511  0.8595007294721977
  0.1977323720297220  0.4022287747193121  0.9697737608819195
  0.2123908716704692  0.6266546662644344  0.8115712694843787
  0.6103717620674697  0.2343271520411706  0.0373812981274359
  0.4684788533816114  0.1997570389473026  0.3096014608464750
  0.4405776494617794  0.5740360926355369  0.5384736611742310
  0.3982787968879430  0.5472859842457058  0.0476675032311352
  0.2808994742771568  0.5047045294734984  0.1598417256289993
  0.0012389473574091  0.2359853533836849  0.9335524078867561
  0.4076544328203377  0.1186724207801660  0.9434799128625235
  0.0156937991113798  0.3598947228553445  0.0642650367607539
  0.5344672503010111  0.0860384796738893  0.3623482308983099
  0.4426618088652912  0.6398457591973777  0.8962132142564716
  0.1631152969315077  0.4018085708824933  0.2722979857099211
  0.4638996725875232  0.2659324980922387  0.3340829048479846
  0.9596369396953854  0.1439957013826587  0.6888558347004425
  0.4170082239769724  0.9842382317868852  0.2368738870170298
  0.9780778122512854  0.4872534655961818  0.3980551451721259
  0.2673506663940802  0.2075651988649403  0.2300908176415543
  0.0167359445989188  0.0588694607030092  0.7784190506158567
  0.0900078202990272  0.3534755406300707  0.0645845357568056
  0.1357092159375259  0.5128495591475478  0.3332599873170312
  0.4722271302044514  0.7736473456993092  0.9321218799125552
  0.8033686551416898  0.0619308673300267  0.2725074220590316
  0.7687984623199885  0.8484448446366120  0.1661738446705784
  0.9277617978395936  0.1946888240999609  0.6817037528996487
  0.6263168032023361  0.7341420583038584  0.7689474489971235
  0.7740370333108810  0.5994944337451886  0.6043832132308523
  0.1109295933553609  0.0963689592229621  0.8886124780106263
  0.9030321920569045  0.6768494020209037  0.5746227250747298
  0.1455856355806252  0.8084061045931320  0.2030426027155341
  0.8081775143703870  0.9595617808128868  0.2797063517537416
  0.8259638193510198  0.7724809776416838  0.0752628881964178
  0.0352959337391458  0.0498248535573165  0.4827399373348333
  0.5350489090680243  0.2358042150190901  0.8301931903014211
  0.6629381494497045  0.9799905544647944  0.1499491688500516
  0.8688210204286095  0.0270192524305645  0.4040847417534650
  0.9830222828776756  0.2061115944763288  0.6690437041435483
  0.0387295808648107  0.3012324598136277  0.9869487016549320
  0.0193769042089684  0.5871936546294894  0.9253167217580984
  0.4233545540734036  0.3147299048433327  0.0035352565093275
  0.1159579778658338  0.0561228235011755  0.0707605135543119
  0.4983486378097793  0.1963634766573143  0.6522223038493340
  0.8545238624005504  0.4640571933950434  0.9220669949111533
  0.0055730545980840  0.9867499853605923  0.8975255073555861
  0.8801156412871105  0.6646357832798970  0.3071914196400728
  0.4795713222217173  0.4163207739596513  0.1337888983323325
  0.8965105482692221  0.7288531462340997  0.7160051423449005
  0.4717638185519649  0.1948422254982618  0.9083188072566963
  0.2658030197743727  0.7836985252739879  0.0191928111405450
  0.6421195443158118  0.0156247450661649  0.8533311472793200
  0.4779346641570625  0.4224923896638459  0.5753351327024726
  0.9892722757740590  0.8374036331781481  0.8532401078256797
  0.6105674393977293  0.9972118244681605  0.9657947682863172
  0.0004336632127788  0.7590919843932324  0.6182773012409797
  0.4836099618879405  0.7873464778374745  0.2580631788340780
  0.8745848205141339  0.7815842222686641  0.8389577809713654
  0.2822538855726284  0.5728126139353475  0.9076100220846931
  0.1586035876039822  0.2745030565266292  0.1162981720304580
  0.6764510309939137  0.3860419791783101  0.0252075715553514
  0.1368786026637470  0.7190593349211070  0.9266329093471773
  0.8204901598774845  0.0301538397573340  0.4121331643225627
  0.0883839564115853  0.4608594174024285  0.9274188802298865
  0.5109085351204864  0.5325664282147811  0.3425277412897665
  0.8550243076008627  0.1202080635533298  0.9634846356493757
  0.6385660471992742  0.2292964372779742  0.1221056056615576
  0.1642591382538933  0.5309648518130782  0.6854109212971481
  0.9355757783562032  0.8315778137953959  0.0746044139540143
  0.6420318910017261  0.6577677538923481  0.9111991196277415
  0.4775498233066452  0.7598675590733047  0.2179310018195762
  0.2050371003371923  0.1143846419891233  0.8883393836527251
  0.7770750014663675  0.7779930118742042  0.4781470775088196
  0.9683987022179738  0.4518109403913313  0.7477047384594856
  0.0255327773090212  0.0316633292994200  0.3290155773293641
  0.3330940246912263  0.2299039154165303  0.7415265491837540
  0.2954132693121114  0.8755035071325754  0.2160410040396472
  0.3275824560061930  0.7093349489996821  0.9814863084332400
  0.6561969705827346  0.8793078473043542  0.6733542504518016
  0.0350694364502914  0.1370561228240224  0.0630746928040163
  0.0026462862071024  0.3691187821483266  0.8193733530616579
  0.1087631098821744  0.5184606060679171  0.9005977038675048
  0.7045160565141770  0.5202614476698434  0.9914389265684850
  0.3059171390992461  0.7182667578241300  0.8997715459288769
  0.7058549626061323  0.7937417767720495  0.9764490166934098
  0.4681401986423751  0.2570478325010159  0.6972092076352340
  0.4272320853430472  0.0362592142334607  0.8137770889977245
  0.1152477446604858  0.2946250659371425  0.4231684186638724
  0.4749892805735336  0.2715052967991591  0.5100620847241965
  0.1927363624158337  0.3358577090197009  0.5207489132301794
  0.0937865073639708  0.6030230031869529  0.2199050421728705
  0.4867132514320843  0.3041591627299314  0.7953981607514885
  0.6900986886320554  0.6590571266642155  0.3869921933462058
  0.0658270168716660  0.7459851817965055  0.0310838590489303
  0.8151285194369470  0.9757140503063525  0.1130526175084315
  0.8782147454006511  0.6961510235180083  0.3782143690113389
  0.4302772736012068  0.0606021906887751  0.2906413414807970
  0.4584615523431627  0.6257790086252100  0.1199334749865924
  0.5395859129370073  0.7962074582400357  0.3400278407781981
  0.6536506722365768  0.0239381990454485  0.8101708673002925
  0.8735301089743379  0.1276854712223438  0.7563311797489070
  0.8095118754129430  0.8942697953878570  0.2861317721335279
  0.1639163406962993  0.9231319141488737  0.8607870092985919
  0.6110119438927554  0.6617800109609140  0.7184644757527365
  0.4577623101073321  0.9005583429865612  0.0701660691674812
  0.4828218620746110  0.8431037413469533  0.9793327094897452
  0.9550829161316537  0.6502150097296612  0.8665580473507769
  0.0065132771938770  0.0334162424864614  0.0647779516903934
  0.3551760513022177  0.3774622048502820  0.0189459313206852
  0.1953124305874787  0.3114869385643700  0.6763542878854132
  0.7719829529899866  0.4120824002413545  0.1685158707200185
  0.3758358525862032  0.7166836972908120  0.8691552341018915
  0.9847089536504851  0.0535786733115408  0.5954179873190616
  0.4243429374163136  0.7745463217477533  0.9434689514834765
  0.3554739724255807  0.2522987360340526  0.3907321838730451
  0.3087116424228535  0.1638133055545765  0.6152968582725407
  0.1418025524940473  0.5205195855235958  0.5540267379011216
  0.9032052269521895  0.9679593585130578  0.0284595380840702
  0.8050091688865070  0.9185159131698518  0.0151530435988692
  0.3078448430300029  0.2074182799005515  0.1907061238676453
  0.1885981738403376  0.5172628561451816  0.3124590243554942
  0.7275391516354921  0.8653456083694560  0.8694745402736842
  0.3856128217297126  0.1884270638130582  0.4682839926377218
  0.6332545277034003  0.8962232231986865  0.7945923153683757
  0.0843753103701420  0.6559041348818844  0.8848495145935761
  0.5411232586459771  0.7535801487564076  0.2259571395850309
  0.4275631746458574  0.6884473965068671  0.0862795844029354
  0.1026338271016225  0.9553345693053104  0.3776731729236571
  0.2137668500628245  0.0540223642525770  0.4905220884044111
  0.3845727377652973  0.1305422600035322  0.8994847418461602
  0.2547128618902048  0.7097511652008074  0.4987281028000788
  0.7632601488163249  0.2730472627033244  0.7593324193337606
  0.3358453702461687  0.8890185919064156  0.0940599772513120
  0.9946876130161705  0.5480483802807703  0.6541580253817514
  0.7738100584665927  0.4828667488277729  0.2598739766498885
  0.1772279501093720  0.7387554165175841  0.2676209432929265
  0.8917755812812073  0.6873684404155954  0.5276566242867792
  0.6152023361210128  0.8400715010848491  0.0958002713970816
  0.2910933972814361  0.6648186166917318  0.5938285513527044
  0.9521526786845772  0.9741057185816698  0.4500630402663728
  0.5574214887039001  0.9627536612355927  0.8209266804852127
  0.3810666534112009  0.1504752975134382  0.1011265482940285
  0.5739747679721143  0.6050043567765764  0.2533641336489231
  0.8699253754022741  0.6527092205470072  0.0607517153510732
  0.8706079827436075  0.3151927770658746  0.5823715119467701
  0.9657125068446966  0.9666348358774511  0.3542443393506803
  0.3645143500303147  0.6951987232813833  0.6948933702805841
  0.7523922461523262  0.8631920331583928  0.8573953986012913
  0.4212348081006235  0.2849459822705865  0.5775086861564371
  0.0670862607459039  0.5853606670134173  0.8952335450046416
  0.2826465759717628  0.0880588674251340  0.8825019212437160
  0.2390696931329090  0.6084033575872102  0.0223776801277466
  0.4565893210425687  0.6288149077223254  0.0696944230298532
  0.3684484462260431  0.0996991146772624  0.0020077872189752
  0.9776503540487133  0.9675238238857157  0.7701430714179427
  0.4198066190498008  0.0728281941576462  0.2094419438142955
  0.1947337335173543  0.7902889225933561  0.1382693140117893
  0.5121189772641472  0.7771620297267930  0.6080161982953736
  0.6180692719607919  0.4220668759496684  0.6232224353864966
  0.5909611135447189  0.2943296936711314  0.6325804327127151
  0.0534348774185921  0.2389732659558631  0.9124938625188708
  0.5646545983080123  0.4190535654789185  0.6754658841156601
  0.4170447171883962  0.5190745402564377  0.8715168412148181
  0.7873470250719805  0.0763484044883096  0.6541574793130507
  0.8644657758450360  0.8867413745073527  0.2856651954336841
  0.8260489784569431  0.7923844683026393  0.9579356275306952
  0.7695234591101163  0.2784632781974156  0.7326659224315455
  0.1601098582446612  0.4296773937109247  0.7589351693558865
  0.3065815270035755  0.9774588989883672  0.0118958977185381
  0.2113986145085633  0.7090321546492959  0.9258860373834890
  0.9072161572543719  0.0401178501538829  0.4677455368948019
  0.8208662454538715  0.0536445743985133  0.5385272619177209
  0.9010886356685970  0.8854600216147990  0.6863073840808026
  0.0753985737826061  0.8365963706964664  0.8540615571719212
  0.8481542108401718  0.2409654567856042  0.4344687923597512
  0.1645116524274886  0.0481419765761542  0.5977282279695924
  0.0423831827180241  0.8057117398775246  0.0191160881280509
  0.3543092292509178  0.7395090026587171  0.2601251142454174
  0.9021632944917396  0.5312119662828203  0.1171166171987451
  0.6810277090814382  0.7292320497065008  0.5916465088307333
  0.0838306109786815  0.6100491536815977  0.6289239986980900
  0.6479318497071875  0.4345621722510807  0.5745960137141832
  0.5302406231698026  0.9132892599624260  0.0231540003963155
  0.7480737686898241  0.5635336247461004  0.9154982825038495
  0.8833841852742658  0.8528736609118125  0.5858490614560010
  0.7700459215403095  0.0188900806113752  0.3281600816997720
  0.8457513132685711  0.6965542812733598  0.5166857380435963
  0.4179079948132022  0.9066981055086288  0.6207964061686486
  0.4044430707477966  0.1689918748145193  0.7314913666611137
  0.1145773250470386  0.2425698652627422  0.7098544605298726
  0.1839602097743273  0.0792337239231166  0.3449755332455766
  0.3729301520408029  0.3117627871651312  0.4347133951331366
  0.0471247416991812  0.3996135635187951  0.3256327337350496
  0.5494050637459791  0.0768641034265044  0.2615523978114405
  0.6574385300722847  0.8502557012626055  0.5301556886931575
  0.4409772577278018  0.0713310463177480  0.1881676989093304
  0.4248737506963009  0.2008685382264642  0.2468807379752863
  0.4831077880214624  0.9013611621017906  0.0826341323699494
  0.4503550994163066  0.7815618338290142  0.4487233497203956
  0.4388863024985594  0.7065489199493771  0.8009034773733577
  0.7612713906323738  0.9507031941175855  0.2994211860698313
  0.7665846172154966  0.7837836019112165  0.1109378768536837
  0.8131681161986455  0.2476158322569177  0.4018558053317896
  0.7399789691818871  0.3241218198562474  0.9855955234120726
  0.0618057725264450  0.9810344559465243  0.5854577722280465
  0.6966874879811011  0.0088546570894498  0.3260438454568649
  0.7042243095203002  0.9697605205319942  0.7571131681305792
  0.8075946305616422  0.6405990320070082  0.0680917818021469
  0.6726819087504562  0.0973676571400311  0.8617650043397900
  0.6581328662782518  0.9369477239861315  0.5439603994587664
  0.4978918767641252  0.6234263780623238  0.1516267885107671
  0.6991823871560656  0.1217530523581422  0.7419023184591491
  0.2541395550109278  0.3878447357974046  0.0392904921224336
  0.0054977206194775  0.1655898467051742  0.8192150591467585
  0.6640724178103722  0.0008915619363617  0.5928223807667512
  0.5534292127300210  0.2145832939488451  0.2540874486489185
  0.4461350701101890  0.7672974969989341  0.8201471344108064
  0.2957381739823973  0.9534005417648928  0.6749710398594854
  0.6790533497677985  0.4468474372986185  0.8096744788498432
  0.2182340439402929  0.5254087723078862  0.1191684735420407
  0.3810501950893646  0.5463964806008924  0.0700152987991163
  0.5756115334338477  0.2307969814870794  0.9701248670544583
  0.2783243562052053  0.1696478846427176  0.9987327662037799
  0.4213493854210468  0.4271398623766296  0.6600283579261403
  0.9292304942279431  0.5883731662438156  0.9058115938250921
  0.8986580730437648  0.5922038558368403  0.1137922805651699
  0.7341663027082008  0.2079114057179446  0.7159914286195818
  0.4476586879580968  0.2393911421340464  0.7804656580987950
  0.0116334477159059  0.1129524962266839  0.6888092068342075
  0.5573931943907809  0.5661710209547155  0.1604190346600372
  0.2873479298683747  0.6704990342262521  0.2480516692897264
  0.5475973130633902  0.8013553036890271  0.2915218142527541
  0.5679820217997618  0.0825657344416699  0.9782690096660597
  0.6269882115891926  0.6019177797604918  0.3061161143563087
  0.0829944935229617  0.3635162069163556  0.4555014784742933
  0.8700110952616635  0.5785723513558155  0.3036942596636562
  0.0441594434847653  0.0387673615152180  0.4091078557095934
  0.7768564181834433  0.4800642292257506  0.9830407159926861
  0.4129457211865659  0.9630201484014239  0.8064555898826004
  0.8927365800658522  0.4874154473435925  0.5333637743012337
  0.1697398048563925  0.8555374122346160  0.0233527161966776
  0.6673211310702588  0.0378037636973446  0.0759826745524758
  0.6559057883466689  0.2360660502869113  0.0801549920702156
  0.1291954233832573  0.0902199872482892  0.4312725622432101
  0.1131566048747264  0.8243090142200064  0.6826456493993026
  0.2988139284673705  0.0899712767802087  0.5525928515043987
  0.8490389577939175  0.2571320601035421  0.9652964395917665
  0.1522174637847202  0.4732842179977580  0.0416119803880226
  0.0354287852429981  0.6520928566857652  0.8945920242951559
  0.6879694898935151  0.4381564550597043  0.5496199914899684
  0.5456553156032699  0.6817197604179208  0.2144461713943358
  0.3417990310077502  0.9626463279391847  0.7869701264235742
  0.5852020649108988  0.0915851772742455  0.5944616390012298
  0.5292139469484977  0.3187249899148678  0.7226082630811036
  0.8223347860492264  0.4723994024754062  0.0012665885530423
  0.0619252861387291  0.3044189076411193  0.4107046486015227
  0.1884378754884058  0.7230673814969687  0.5694997965609684
  0.2308764124701338  0.0034094022175750  0.3658735824214948
  0.1154975894331593  0.9529510129765482  0.2625684816445756
  0.9004824429893469  0.4557355025345154  0.9394112529859137
  0.1301154276558164  0.5312615615347082  0.0294767402579034
  0.8187398576961575  0.7552128836637447  0.3264555872579502
  0.8538028941368477  0.6076198187630839  0.1408127784041135
  0.4246729050759591  0.6431703611131417  0.8745582118485444
  0.3988290240250292  0.6799453920701244  0.1812193429392089
  0.0466953738253342  0.9157598475469857  0.5603596546430590
  0.6578342841586030  0.8021728267963977  0.2376791783304352
  0.0280847006377405  0.8038407377160863  0.9945927193460000
  0.3869564728837139  0.6285461470442424  0.0928148824063853
  0.1551623619460256  0.9214401902783459  0.9871318546973493
  0.2568267694101776  0.3704914311677882  0.8979290381236442
  0.7238732173568927  0.5214341860429603  0.6265368243685614
  0.2443041165951004  0.9565529843520324  0.6995567929840876
  0.0544395730759743  0.4854404933626368  0.6357571443736465
  0.2546820578364371  0.4684606312803141  0.1234718829524035
  0.6258643619007654  0.0776721027695543  0.2958029128562026
  0.5097373205755474  0.4385451663785113  0.8018138159027149
  0.4868951264227150  0.5453218334700470  0.0101305143563034
  0.2776027033335953  0.7218988853254685  0.3879073144772603
  0.5549179868340317  0.5709858689773827  0.1131279889908901
  0.0525607502238420  0.8212014922117528  0.2873881481977407
  0.9764597908714129  0.7387937557011377  0.1620837198934772
  0.5897426848390902  0.6471355878903192  0.5753347606556656
  0.0132108116055974  0.6654578725350059  0.0690388009462788
  0.4953633498258984  0.0364235460383951  0.0685113159835888
  0.4349598557979540  0.7944559848785516  0.2728645629908015
  0.3759349004599432  0.1662056526026827  0.7351104659786744
  0.3958094201994411  0.4849601907179629  0.1579822282863192
  0.7043239824237124  0.5463615459076843  0.2305311950452743
  0.9638584396012029  0.1544168530907032  0.3333799104045110
  0.6105393205546817  0.5792181030670034  0.4996608881534627
  0.5713027020615835  0.5111555499641490  0.5010034150562810
  0.8415990008476781  0.3661190379786453  0.5036561367942319
  0.6692248045194445  0.8499891077794961  0.4573856895261961
  0.4372914283076752  0.4071958072519311  0.0610001452059423
  0.4626304862617041  0.7152803423362853  0.8980342173562050
  0.9094079479789204  0.1717042327362926  0.2658712451640452
  0.3262845899606071  0.2368002805633146  0.0049478340051853
  0.6508837559960392  0.9767306798733519  0.0226078946909566
  0.8598910661918137  0.2650058960156896  0.2124992944584611
  0.1688322005388294  0.1456211799168891  0.1489120717732480
  0.1426510970184656  0.3308005730938356  0.3393162212496056
  0.5266736796303240  0.4338893327095590  0.4725610367310737
  0.0619771135232224  0.1743269837246695  0.7346693804858699
  0.3980958523220907  0.5331427111825340  0.3218311754623947
  0.2855149047884191  0.1513336233742262  0.1187996193366281
  0.3770555041089630  0.7553076516050002  0.1523347087739564
  0.2362729758995149  0.9351480156632758  0.1764258266686813
  0.3700057587632553  0.5194998726195068  0.8860250184832903
  0.7245775658494267  0.5941620577164672  0.7703089522873542
  0.1389892241713547  0.7316222072612806  0.0269749183045991
  0.4509670723783115  0.9659570118592118  0.0223544702077151
  0.4998910806827700  0.5052448441851647  0.6626310553705532
  0.5733717089711315  0.5191859785907005  0.9981132382611961
  0.6200256391877421  0.8634053723881967  0.3376528999877665
  0.4927692133220157  0.8283852544943180  0.1746999523370633
  0.5084664844690078  0.7074967114848644  0.5980382849777510
  0.6571799906935889  0.7795119491734824  0.5085820865261649
  0.1250863031077822  0.2339519397650004  0.7834528799200791
  0.5397069169293011  0.1383756826937574  0.0195315237738575
  0.0903895721443507  0.2513906014975562  0.6647395066340350
  0.3977553364761335  0.8507466741153894  0.4414641304406748
  0.1712331398168845  0.9904612703862309  0.4517296599431844
  0.5489987517718450  0.0315809874526328  0.1042038580492426
  0.3634598305104946  0.4512070294588735  0.4555592597437336
  0.2126897262973607  0.4077930666200443  0.2039222293810429
  0.3583233119378813  0.1654566338983181  0.7125067482132154
  0.6044284840914855  0.3764333006947438  0.0526590164115815
  0.2956479943011785  0.6394039192852680  0.7976688484258736
  0.4243841072826249  0.4839432367025729  0.1979507185074454
  0.4877611330796326  0.1881781704788251  0.0089479537587874
  0.4693032375092806  0.6436902513080931  0.5446143717347791
  0.9389360283734708  0.3239198447374155  0.6095124845425988
  0.4177861376360222  0.2041275447296816  0.4995265492523347
  0.9164495260739932  0.8395390432589395  0.9260673761976588
  0.4363008442845053  0.7129902749794184  0.4654796558251338
  0.5398769741935955  0.6471671465343179  0.9794524625558345
  0.6640770439741013  0.1844792362347955  0.3943550356627027
  0.1760273123555133  0.3315492008101054  0.5667385651714579
  0.7510795797666243  0.5204461176829138  0.5571601681168302
  0.9722831542997558  0.5763302599676282  0.6898340077640376
  0.0152945518146084  0.7064380972568282  0.7364898055128762
  0.6588209917012489  0.0693287723781678  0.3906517757569294
  0.1589514068723492  0.4016419465099411  0.0329868874682392
  0.2538803766602700  0.7613641917793882  0.7243442794886924
  0.5026605752563860  0.1363088535694514  0.4753726364574064
  0.7005252175482194  0.0663025356165466  0.2582273954941159
  0.0090598818542997  0.6676712691558003  0.1994191732531996
  0.0426144236770288  0.1444098385603993  0.1217391267549805
  0.3480545746412397  0.1622749621694085  0.0321629776124418
  0.3391892300882026  0.4508759431645552  0.2810817947977276
  0.4519792250490700  0.1839487928132229  0.8412947069791711
  0.2749650532665923  0.7846960452651673  0.4684118127187195
  0.8312782146361709  0.7710421602229653  0.1679556060333233
  0.4972464249959464  0.1103667648642601  0.0283950251677238
  0.2149339974441867  0.3840800129126203  0.6594712058310391
  0.3053537403598080  0.5010460135671990  0.7770457978474284
  0.6023479415666609  0.5134443051982364  0.6554822259789439
  0.1032321567533976  0.0424010669858176  0.8614861312548693
  0.5164833468803056  0.7813834365308894  0.4848018707459211
  0.8680447219494946  0.0585598842122375  0.1606938694368999
  0.6673836353274916  0.5812401410644183  0.1654684097200654
  0.8102060811749007  0.8512405453455142  0.1428765308440527
  0.9899376471303608  0.2356763621486421  0.0177563812638280
  0.9076161184823258  0.7598686024369929  0.1020506373533349
  0.3016035713972522  0.8928322944706840  0.6745053512713745
  0.2023491008114815  0.4031359335679625  0.3949502765497409
  0.3006887331773033  0.9669543938109244  0.0661527914584815
  0.4942546883840414  0.3830754271479297  0.4836619653348385
  0.4401412558767679  0.5127524622641723  0.5037325004015094
  0.4515152859142323  0.4601842906703206  0.9096365050357715
  0.0228809525713137  0.9860054756800729  0.5563404609897765
  0.1489217721356180  0.4632445143232086  0.8125276538067403
  0.0354728857288732  0.2348469837563042  0.3838506681120659
  0.2043094318212538  0.3365208536459472  0.9937388659230134
  0.8429019066939091  0.7352954406393843  0.6664998080969178
  0.2230495596819579  0.6953635048382846  0.7792227057234115
  0.9244183619712220  0.0543534664811528  0.2244600692391586
  0.3911881321099362  0.5639226201487229  0.6105352932217843
  0.6924340768996805  0.4065540947016432  0.2244343780069541
  0.5480271889637096  0.3673126788255354  0.5872820357379710
  0.8702703457821990  0.4022716978756550  0.6981363342766975
  0.0117171296397104  0.0360501469592074  0.3727538620269537
  0.2585159399909097  0.1490819936360653  0.2650603391442556
  0.2901438150749007  0.8921960238571105  0.1277287027013382
  0.4421770819235071  0.4343426896968808  0.4845831832329250
  0.3960850703610143  0.3916978317935425  0.0402175483550389
  0.7603226768335346  0.4144872058792075  0.8307432535046714
  0.2274676349562464  0.2006649832577322  0.1656717316999293
  0.1186574473403804  0.9648886282599489  0.7889855839875528
  0.3600782918268886  0.6505476990393086  0.9102204044959490
  0.0064423312611397  0.9113400230677433  0.6487671971636264
  0.5288774258530003  0.9269861973209287  0.3852460276617401
  0.7409982510943767  0.5167678276537365  0.5310362514764391
  0.9580605619785875  0.1509391470014077  0.2494632488800380
  0.4916046897244736  0.8449441484482375  0.6359029727202574
  0.5055993418077346  0.9978008366696364  0.2388349437368580
  0.8137946788350667  0.9201963965930419  0.1152173070472301
  0.5585995425406580  0.5214685170254685  0.8972251355659212
  0.4919408040091922  0.6421374048263881  0.7641867840596103
  0.5137569354825835  0.4181250373739925  0.6694869739111555
  0.2686034745090905  0.3639781317699501  0.8738574916911978
  0.0062342069216075  0.4080779091500953  0.6409996059258156
  0.4189957330735330  0.7656419213006854  0.8123715361656371
  0.6347363601094447  0.2242291322604706  0.2724664048986776
  0.4988567920438347  0.5729078910543908  0.7661505851247035
  0.3781679019805712  0.2070190866927832  0.2590666010742628
  0.5130343283755997  0.7032448403458657  0.7019751992428939
  0.6616383710050989  0.9891668181959650  0.1756740746910402
  0.2118470467119821  0.9568421671032921  0.7552251065942482
  0.5065905664541920  0.7654545685462708  0.7593232601814511
  0.2425790297376187  0.6530880946821990  0.4132264558691720
  0.6797560513814207  0.5852752012702611  0.9404971956079575
  0.1294637690789866  0.0492505387648565  0.9018809653141577
  0.8390469883306613  0.9351631263465645  0.7185346665834191
  0.2930218237725298  0.6057274911200399  0.2351212385169635
  0.3027483272642276  0.7873047878259705  0.4736121029653320
  0.6000599420731360  0.6465191124740565  0.5489492231008429
  0.4783662439795749  0.9744999013912701  0.9835184480959873
  0.3812596604499720  0.3438984809816411  0.0848867463704923
  0.1366767698234940  0.8571605551274720  0.3793837461302462
  0.3912581302467913  0.4336566309381957  0.5373392164501555
  0.9404529105392480  0.3119584119995685  0.0094861758923171
  0.1797094845424064  0.7705915398733725  0.8219017291557290
  0.9296681035496244  0.3128483210869538  0.8201111298810897
  0.3444812494856230  0.2926927898159531  0.7085286017240615
  0.9639087297288614  0.8328191996089052  0.6132183507762732
  0.2386074567822057  0.3301681591398836  0.0601832436318543
  0.9683955252497355  0.2450265094884443  0.3115346000540111
  0.5089414075053021  0.1139428597925926  0.6929532001884948
  0.3896335309130183  0.5275411160832840  0.3691428157225398
  0.0591993440306260  0.1636035051081766  0.4124171040449152
  0.5920038542606376  0.4239848957475775  0.0863993222671123
  0.5374704660907006  0.6485474554378481  0.7817467592736649
  0.6687962716129219  0.9712265831865327  0.0950745562951302
  0.6393361421580913  0.9123586994302315  0.0758306696287920
  0.2874556146516166  0.8564654805139114  0.8703637521451043
  0.2544792514658978  0.3122092805482775  0.2757488638636386
  0.5587602323556361  0.6506080428812049  0.6539756584382330
  0.5664443286769349  0.9229846083298361  0.4611943686947283
  0.0264990628959409  0.4789259809400412  0.4535716496832394
  0.1885327141210017  0.1994966856709545  0.3360497082908059
  0.1686916275731561  0.4155334586964901  0.1796432490514137
  0.6479808032121798  0.8636804755684405  0.3368316066611536
  0.1368072525257571  0.1959082192611621  0.4792673144454186
  0.2605552618873310  0.3778899124061795  0.9447138701062328
  0.9499936009327787  0.4901858468831424  0.3938925654794983
  0.0368599343535851  0.2231189153936028  0.0778833348738552
  0.6146907209096191  0.0152912674383387  0.4048909291796100
  0.6265246817403761  0.6742836917550733  0.2750922432544401
  0.3747799477254644  0.8682681428109804  0.2433081125045835
  0.8991685226613727  0.3228067764322546  0.7833399197085962
  0.5982550400239650  0.4846983438163760  0.1940330606283416
  0.3476950455797331  0.6266464960206939  0.6656733121157609
  0.0706146167146948  0.2445151370217094  0.9573828319836898
  0.3106903375395151  0.0894865920184258  0.3478411637695040
  0.9064885688341747  0.6935879095005469  0.4724825628583046
  0.2143685271416156  0.9403855890364340  0.1927021339849476
  0.4803138412056496  0.2437976797658902  0.7436606136696260
  0.6018775411031754  0.0194658139522131  0.0295661899115315
  0.7407062356684246  0.8452108543543709  0.0182170729832846
  0.6034641204878083  0.4119671080953670  0.2612921030638535
  0.8043902251728754  0.9742362181967207  0.2556155168946252
  0.9385349194741790  0.9010196583975042  0.6698164093573085
  0.0516653997119966  0.0988122386710085  0.8117096788976164
  0.7949912501709697  0.3456775762155133  0.6475980220701357
  0.5449493264594182  0.8489901914346482  0.5833057954886406
  0.4037039014397947  0.7764943846631338  0.9632182581365183
  0.2077030929757839  0.0501976804798486  0.0258704411507326
  0.4050851345622716  0.2840178547809520  0.1807074861426927
  0.0045649691810789  0.1470175243083029  0.2145437216670999
  0.0393843484704213  0.5361565488662721  0.1388859817945373
  0.0607149806470711  0.8542161405537009  0.5813378078968419
  0.3698699514475824  0.6437016157627696  0.8093435652177202
  0.2909650820593597  0.3210548382178008  0.4072090668236586
  0.1367638941013241  0.0487805106568079  0.5899664634648408
  0.9692498642192037  0.6567105955158941  0.9491161319531846
  0.7482497615979722  0.0028065324673648  0.7129644838007619
  0.7161976505128312  0.7976093929451299  0.6663393699122485
  0.5578282844347267  0.6704392345020616  0.8514842109169322
  0.8633281343798848  0.9843910430941755  0.8112223795906689
  0.6720616402253335  0.2145327111166490  0.1499576317147615
  0.0472024647740463  0.4816034312143488  0.5885314829304650
  0.4653551919989827  0.1287328195100260  0.3513247900432505
  0.0824553911086872  0.4574467136958006  0.2502033539923914
  0.6949610402687223  0.0365639793549947  0.7691089993217107
  0.9771524259888522  0.2200860141880889  0.2703324444258915
  0.3181826171794382  0.9666696040335820  0.5090558521304421
  0.5928361212914488  0.2243492166668166  0.1360224673368314
  0.9966708249351969  0.8476431907967739  0.5379744023626626
  0.3530884230660939  0.0851073802225719  0.8621427638655776
  0.9955740258473244  0.1650602768778697  0.8458163038396173
  0.7933789355735822  0.7863431058048655  0.8649541055594473
  0.8575491894007621  0.7883097448764244  0.9215715465789799
  0.0574801781381086  0.8371003010454006  0.6020912488796561
  0.9040312101203856  0.3333082395000984  0.1000631919135515
  0.7645166418351255  0.6425867251519732  0.8684341413814803
  0.5228970495229457  0.9259490361858774  0.9354592437850826
  0.9365426382591975  0.2383877825259162  0.7436397750479267
  0.7669071912745071  0.4155311756987007  0.1196791845944113
  0.0482927822976788  0.2925641720296737  0.4571461533902425
  0.4179146986493221  0.7313335868534919  0.3160030662301053
  0.3430448025911064  0.8881817248605746  0.5854094181446369
  0.6061552089144210  0.6447248303489832  0.0894884011029900
  0.4358626786615833  0.5497487246170605  0.0784795786870711
  0.1131930968254849  0.7811973528134437  0.3936053153406635
  0.8289472571653885  0.1149099641552984  0.5076859177795028
  0.0964285734681241  0.3186199074220339  0.9280650575252155
  0.6411890033897698  0.6643066380729938  0.6395988116924058
  0.2187839451915236  0.7148729808891993  0.9520779725812699
  0.6331139244975568  0.2216109295474287  0.7194430048611254
  0.7352687120534502  0.3350716922730326  0.8300659122886208
  0.5923540885329386  0.9335004664653992  0.9575275301881179
  0.6774062249102647  0.9233982547943825  0.0008110416008470
  0.9877051153991506  0.8320468688193432  0.6286143937468044
  0.1626044569897671  0.9859517504759814  0.0183912656584013
  0.3246151896985253  0.8923763062784213  0.6581495555547017
  0.3249325611037208  0.1652845938971207  0.0147921527753267
  0.4576187999164334  0.1939826617270667  0.4606568210660579
  0.5499491434864153  0.9698776759047582  0.0358782066240439
  0.6978761846643339  0.1771183235334994  0.1046162529324919
  0.8407382858771072  0.4692282374941354  0.0970659940371837
  0.0737526596660701  0.0438101222921949  0.6477715318993439
  0.4552848992231615  0.9210126439013189  0.2362636242400932
  0.6691206871810267  0.7911523725913309  0.6086580710491498
  0.3714650555144517  0.6733262971683466  0.3031618326792122
  0.7650901459609196  0.9172288642443072  0.0441563166900416
  0.2206564320445527  0.1435550498941409  0.1710958377047205
  0.5714419566593490  0.8484499900170507  0.5332821880368956
  0.5625616977876255  0.2905130306825818  0.3009197666057000
  0.2960000023903323  0.7461555257629687  0.1762048676699106
  0.5771721814103217  0.8662330728902529  0.3146552286591538
  0.7993505744284790  0.4216512670836321  0.6816218065900135
  0.7934425262989819  0.1015325003279303  0.4314915657959669
  0.6769337910924944  0.5191858288975705  0.6433717103594062
  0.1299576185767625  0.0387436683925963  0.8746393520567642
  0.4960508820463684  0.8554849202525233  0.4146842252706069
  0.6888817896682701  0.9753738835506379  0.1407182963173568
  0.5307634429153441  0.6435035506821875  0.0062093977420573
  0.7666950043882332  0.9475073830832733  0.6978170881124544
  0.2712603225377089  0.8419316750263933  0.9995139924895731
  0.2158585565172859  0.9199970122114489  0.4250133187700796
  0.4289802699894746  0.1396316239361657  0.5768928566791560
  0.7938454656222057  0.9386877109931195  0.6579102874524692
  0.1094072852739467  0.1536136946720791  0.3564415277781521
  0.9358451353302701  0.7495723720588126  0.5882852099469510
  0.4318800841703702  0.4430369787123173  0.8608959450037530
  0.5227016504844251  0.5962844415000219  0.3719898939124048
  0.5574395496884715  0.7986091721532417  0.3179969430790219
  0.6502183844603707  0.7293084300319792  0.8486351124728997
  0.3303462432462776  0.0362632161678377  0.6457357837826183
  0.4969468466544825  0.1356719501469862  0.2332631427506151
  0.2631380317857873  0.0106141422846303  0.2729028298051354
  0.2602191652726609  0.0775697050897407  0.2815219641752759
  0.0336565210731263  0.5159581992370826  0.9126529345316625
  0.0901337379211005  0.5111177823607810  0.7706728780727241
  0.4020859337826490  0.5182447960384325  0.4729166354688209
  0.6044167033599269  0.3865654859750599  0.0055390632675224
  0.1904556128002641  0.6060150065015625  0.1074767500105823
  0.0421588801099350  0.3574791351959368  0.0745476780160868
  0.2988103894356466  0.3958060976506647  0.4679957423730615
  0.2394980385462561  0.1372204038610251  0.1265088092269866
  0.8171660904895981  0.7837786789062526  0.7547252757107078
  0.8332895005665556  0.0529193257018957  0.9679267085049358
  0.9146475463286420  0.3206002742952472  0.5958548122758496
  0.2713478793781145  0.6661556202301051  0.1635495213054163
  0.0250902773575901  0.1823437935378240  0.6906278936425293
  0.9213511017512420  0.6092474387016921  0.6218824688057915
  0.0475147518186857  0.4174121091842747  0.1370156276859715
  0.4268125988939590  0.9001544431812232  0.7060492077924183
  0.2877652727615787  0.8048507857894676  0.2991972378949934
  0.8064251019686933  0.3430861067640261  0.6226204276481234
  0.0894606408333177  0.6069978923633595  0.5810487915357992
  0.1144716942970352  0.9664237307659371  0.7155713877743968
  0.9697224203118012  0.9679618531995174  0.1026598407969972
  0.1415671082051550  0.2625792499008004  0.9535610651686055
  0.7017796865858275  0.3412450790600535  0.2040642232452390
  0.0152533444121745  0.6119452978978551  0.5958239643948889
  0.7540297860954551  0.2623148885049388  0.8129578799333319
  0.0595194643426591  0.6251463406252870  0.5046304893771738
  0.3587997484899483  0.0140482418480676  0.2476402875339383
  0.6122776308405244  0.1491979297067807  0.1765904429789991
  0.7633980630526107  0.9846613919768923  0.9805785602297707
  0.7498673832610933  0.0444120310563408  0.8345259454037548
  0.8589361865942643  0.0395341355399359  0.4763277046141816
  0.8761840268157173  0.4615953004360450  0.0658487592082953
  0.8008793187423577  0.7704633424110655  0.4083548309718267
  0.2300866607926589  0.0572724088774600  0.1082072167103305
  0.1346406863022322  0.1185078182605691  0.5150090330979608
  0.3007443049369975  0.0946768979079686  0.5804954479198414
  0.7721848207189238  0.4860234864961369  0.9329500381028341
  0.5588251174753636  0.6441664932130865  0.0753221094470216
  0.7813168472849863  0.7354946435648857  0.7122606492515950
  0.5542251206985389  0.7391027432589136  0.2707306965298430
  0.9881918494836897  0.8394059494279159  0.9505261613484667
  0.9882369823118694  0.3995042562659792  0.2296885410312811
  0.3084726822881292  0.8984450141827098  0.0543317456570357
  0.3379045255605015  0.4665471218725927  0.3750286242139519
  0.7127442440573785  0.3410755514675252  0.1774256110511886
  0.2436346928083428  0.3193788368327024  0.5405216108260271
  0.1751214802299261  0.8923047305435452  0.6448523126334365
  0.7538950801336307  0.8747377210745715  0.6502729345999021
  0.0313466599886097  0.8745423978225105  0.1880286028097010
  0.6545066575747674  0.9945520951705452  0.4649691956043203
  0.6240925450675107  0.1623380183338884  0.5744264483812308
  0.5311389940422531  0.6632042400603739  0.3885066638811895
  0.9729417445884162  0.5800267986352600  0.8980839136084724
  0.7570212987936302  0.9760951688195746  0.1943814902641465
  0.3736000358611222  0.7193925746810780  0.4081959289804253
  0.0630471260843141  0.8175980251766398  0.3311454632895373
  0.2856392990461805  0.6395453777351894  0.8244118069476973
  0.2454167071909857  0.2469508668401310  0.6397305462658843
  0.3837809986363468  0.1332663354038858  0.3191659981574134
  0.1432211751498818  0.4505580746347786  0.6514847930633718
  0.3436227931538960  0.8791141313820479  0.2097458840529057
  0.7074488313706957  0.0095051281901523  0.3813725363392145
  0.9675396836615531  0.0251183841909897  0.2581157514482194
  0.3098858412279166  0.1550308648275154  0.5280387623634307
  0.6971745313810691  0.9352827780100922  0.3941090287126584
  0.9324418945025286  0.0541415321808601  0.1238763118334530
  0.5662816101778845  0.5061610107281634  0.0470074911952625
  0.0474596507371912  0.2576294998800807  0.6848689051062894
  0.4777396770502929  0.1909025619312990  0.4412067580607499
  0.2717834651435683  0.8736864454059329  0.2323139313306738
  0.6515380461761940  0.4286199506882474  0.1349226477689341
  0.5895723007436048  0.5784546421230448  0.6213390424375190
  0.4054367943356298  0.9207136597745799  0.2319990217120100
  0.1347919526150999  0.5258126524676381  0.6030999197801730
  0.9124396739735023  0.5331940585487976  0.6353306767199072
  0.0684119520593110  0.8997470630375819  0.8141854943790560
  0.7460596086645298  0.4328081691637926  0.6337613892884297
  0.8183454106650139  0.5503009328862366  0.1772446620860655
  0.2320170953006478  0.6324621191872625  0.7576415826102114
  0.3239772041036295  0.9278221548582970  0.9250097271352173
  0.9223442718996293  0.4586269724843875  0.7323273218323278
  0.2442356247285956  0.3993710140938811  0.4192747308004274
  0.7528448050027227  0.6024101940355870  0.7231615886947966
  0.3046727220659821  0.4169002532842544  0.2794881943074332
  0.7133765633640138  0.5998390680088475  0.6497217392542174
  0.7506563454432174  0.2140753864196958  0.5844500554475671
  0.1141638934796117  0.9347341217012954  0.0224681515099181
  0.6246493515540784  0.0904487085319002  0.8699614075262750
  0.8232109191678103  0.3194721274010446  0.4293421373771643
  0.8743244899788699  0.5120087455861224  0.3334205735203227
  0.0346482465827198  0.3058512502184412  0.4033668614372051
  0.2603153974933339  0.7655650608435138  0.7990491000748285
  0.5851554475952094  0.2939310821476782  0.1049980425653059
  0.0364300464382385  0.2330802781980952  0.8671868924655507
  0.1288511142567537  0.8263711538278365  0.7069023131212875
  0.0063289430354479  0.7995258960053910  0.1888792620308263
  0.1589171611226079  0.3877618258933058  0.6613366645237144
  0.6506223425411659  0.5815676533167196  0.5263305834580678
  0.7054806061957090  0.7232977313603113  0.3812304044576545
  0.9947819428243697  0.7099844509699563  0.7560052367421366
  0.9571287438163339  0.8255914505025963  0.0024610946094120
  0.6680484591143647  0.8029902810170957  0.7525035121914525
  0.2394562044509287  0.3243772659031917  0.5132171176577350
  0.5937449762017695  0.5387099960633916  0.2094456262775849
  0.7374745155712819  0.0485903023911594  0.7590607651570482
  0.1884089609668334  0.9159378823998914  0.4659281062445170
  0.2491106054325929  0.3947278702611514  0.2762451563020086
  0.2619164118991043  0.6157292149537130  0.0981701781541833
  0.5522844050471074  0.9415598259791982  0.2649468348643237
  0.0297235883687601  0.2834723696357841  0.1082784960779616
  0.1136484738432470  0.1427424201155018  0.0982325696036287
  0.0600198506552611  0.4942984618400889  0.6098005867886369
  0.8444133224143493  0.3359238785475532  0.1835054029475819
  0.1162739706082618  0.0510627155023136  0.5076025312886789
  0.1318395958979197  0.3218022508138621  0.8625958348662744
  0.6131594783915896  0.5169234765453430  0.7568238257285174
  0.8262961588177675  0.2042460610365482  0.7482681353402411
  0.5017296553044914  0.3413114801524593  0.0432418832455046
  0.9944648982528309  0.7747417446835125  0.7479160610459030
  0.6936268645013520  0.2552224297391765  0.3458137066958716
  0.9217087802586222  0.8016670598000265  0.7075413855227525
  0.6010802389670258  0.1602891257381397  0.8323897326476097
  0.5348802728885844  0.8621019585501392  0.2915069363809745
  0.5965457011554470  0.5849539892477347  0.7931940994593439
  0.9201462117721241  0.8174345258926690  0.3371009425462028
  0.6836617428491483  0.3735952692288216  0.8050028851183457
  0.7809273449283870  0.4977697101402946  0.3639406572408852
  0.0776537178620356  0.2098916302399782  0.4420284034316533
  0.1585404949186842  0.3972679594431300  0.6131216566112158
  0.7357156929434367  0.1167053227146603  0.8080302679922771
  0.1880784586313593  0.1364243398713677  0.1047516937722544
  0.5378758044270122  0.4195170502137814  0.6849478290356802
  0.7489417561827156  0.5765669502845588  0.0617824164231978
  0.0328599395896625  0.5657806958888230  0.6822972475669956
  0.1585274630508359  0.1438934547327591  0.4244783034599993
  0.5069638445340637  0.0003274992336120  0.4720066629855157
  0.0313697782554942  0.7541461378138100  0.9932387069982020
  0.6005122202852931  0.3868369972701543  0.8571630973755592
  0.6382881679003796  0.5892247269474258  0.8669081153927093
  0.8744624401052228  0.9502446014879650  0.3130420717084683
  0.4951696004502354  0.0027553932833283  0.4171713781784039
  0.0523266619814997  0.9141738926991831  0.9445337014392787
  0.6196309810976440  0.6752807265528020  0.2271431848009454
  0.0409862935345435  0.7658948694870377  0.6566303564248150
  0.2739471631947442  0.2273180451258184  0.7855998420285960
  0.0850349445020364  0.5785307394032402  0.7939510866956311
  0.9995984692055480  0.6117127991875537  0.2753758349330054
  0.9511764858718514  0.2068534977292190  0.1042456971129999
  0.5364106470402292  0.9410323943153450  0.8876742559732552
  0.5858283996325514  0.8991636224514586  0.8022904678701245
  0.9871430493800347  0.3033065905297613  0.4137654176757596
  0.6318712895808690  0.3845194954917728  0.9542265928984056
  0.1865354831297402  0.9403747204186718  0.1873716735616728
  0.2356960056017552  0.6931421202418245  0.7308171638399037
  0.3281509338528962  0.0302590148799331  0.9889405962544625
  0.2608432160749863  0.8532175441750937  0.5610780090189601
  0.3027302940873737  0.6808156765188951  0.6377965469501383
  0.0938186942041048  0.7311039793916074  0.5434244300286486
  0.4480144899648648  0.7926596339658210  0.3744294168278900
  0.0517390690709502  0.5126085381762013  0.3142874683913691
  0.3571293789984137  0.0393000608951733  0.0267325798160825
  0.3256208604269489  0.8688129985388523  0.3147304721255068
  0.8704554396790684  0.4362833126411493  0.5236918214763887
  0.3502387177344900  0.5319190822766359  0.2644798341111299
  0.6250539973968391  0.9112562791806004  0.1004392092201512
  0.1779359094802338  0.3389312905519939  0.9837875699541098
  0.3969326522253200  0.6461346643520404  0.8790061114371637
  0.1242647362780975  0.7691593457870450  0.7349672759639910
  0.1620866862248152  0.2720703910643149  0.0425857518978599
  0.1160479058534069  0.3168970882492623  0.6484411741467899
  0.1554367919781831  0.8042373952865887  0.6151725066279057
  0.3828737052006099  0.3831688363546241  0.0171191378724701
  0.2069670097650385  0.9883325740163988  0.9773114992020185
  0.3063256385191840  0.6116486458125070  0.0881599969769531
  0.7668531888129916  0.6048158571670632  0.6995823662014446
  0.4327661862963836  0.1999132863455470  0.2746763269281593
  0.4365573722553502  0.4152382755153795  0.1582592263353424
  0.0830216867401070  0.6647004111167008  0.2012381536984637
  0.4208192457500335  0.6413609991184225  0.6021549488937316
  0.3544079484964210  0.1470974681438425  0.2515703659756686
  0.4513383715184656  0.0610137026598620  0.2455533569779689
  0.0030924019925068  0.0479073558918407  0.6802073406365696
  0.2497537000739920  0.7869058152769010  0.5377050124708189
  0.3008107718329903  0.2664016405780988  0.0801284699334753
  0.7152910323200022  0.2511595178199755  0.0050281236463957
  0.7562278520509542  0.1917080721266811  0.4367001950917123
  0.4937841755087076  0.7947040726546751  0.3572597527187324
  0.5712987138395622  0.3106039440384546  0.7504436530413268
  0.5625399007173127  0.8652645379331620  0.2904393800721061
  0.0223950162860668  0.0710140011684371  0.1529571046773572
  0.1437280231135030  0.7062637714856400  0.4296299075814283
  0.2360195025874925  0.4722197643316339  0.0264032353813797
  0.6806299674976574  0.6617826220692176  0.6092390421409103
  0.6694238668889180  0.9313530435320696  0.3928458697950973
  0.7452515958759964  0.6970947304124503  0.2100873850170170
  0.3359309359830037  0.7550448265668753  0.7016181763259712
  0.3968111970145490  0.2298851809779581  0.0632826195632058
  0.2863382924919781  0.0367241975482529  0.0507397011432301
  0.7955244455854875  0.3265442892875214  0.0343098323074452
  0.4301122372659816  0.9739281946195668  0.5693246285231417
  0.8252751399613630  0.5497895503981152  0.1060580421234623
  0.7612212858947167  0.3507939250195976  0.6034740548499692
  0.5713139332818014  0.1713248584745850  0.4330675380684617
  0.7176432072478022  0.9728775943141329  0.1021168910886931
  0.0342844332566826  0.8920764076164334  0.0914703430503810
  0.0212475208134931  0.8997581013756700  0.4049515408051365
  0.4954953114380536  0.2589975264364909  0.6933488039592605
  0.6674371147967724  0.5932086858944186  0.7700805755553611
  0.7924818745189629  0.1809538657025571  0.2953854463348923
  0.5052779296854962  0.7107401881314541  0.8348384007136429
  0.3892578789116481  0.9654674353904716  0.6105318807924679
  0.9350637221746360  0.9661084527102637  0.9793043559225932
  0.6248165218328227  0.8189566023039601  0.7391165039768487
  0.4512158758659671  0.3772277386781231  0.5027278820108374
  0.4787817817182662  0.3210541794143892  0.3866242310530043
  0.5987216688690981  0.9740584305428316  0.0431672260529105
  0.4684202181736765  0.5751474038594048  0.5405529667709070
  0.2174977622537342  0.5630803716671487  0.3046254128116929
  0.3053827038387840  0.2214671337875751  0.0873040282878456
  0.7754098879631259  0.8232646158186163  0.2857199523226282
  0.1606690274643131  0.7888554518306042  0.0583284480807048
  0.3270621755402606  0.6144544192912228  0.1388751150273933
  0.0425879082802898  0.7743991496203786  0.7588442679196100
  0.1385198315098390  0.3297791717553794  0.3111384182105184
  0.8203355224906095  0.4026910831757737  0.0681372323202600
  0.2271304189812831  0.1224847906103930  0.5488894055752219
  0.5759035744129931  0.3708701813322244  0.5372978872505439
  0.8694773291170425  0.0483859837349564  0.0111846902217832
  0.3439716163341174  0.6177247414433343  0.1163032442685944
  0.8208593442317991  0.4754281556954773  0.1506329142718129
  0.5681481742778475  0.7601138746121721  0.6946048999882422
  0.4737794243108462  0.6987853016720618  0.0759320947890543
  0.6954574779130006  0.2814792786585375  0.1710173206265157
  0.0269164123554382  0.1479785060673035  0.1966305654194686
  0.1146493411696399  0.1539318597233766  0.4047185994988759
  0.5329242099344486  0.3692083170246551  0.5621904549753788
  0.8071202952510866  0.6605594652367656  0.0256332195059643
  0.9765598447589805  0.8643539221041679  0.1906938359217034
  0.9074441018021493  0.2484121177911440  0.7854711898429118
  0.1321218890810424  0.5182470845133015  0.5267573611508132
  0.0842423469902486  0.8257810582009292  0.6812444991210989
  0.4370910051345301  0.9062102516342389  0.1969743400696315
  0.4327894868565819  0.5665461091976257  0.6378837579221187
  0.8300575380676511  0.6136060766214638  0.1526122936968139
  0.6297672807202858  0.8542853102173863  0.5789710181318878
  0.0311036653230574  0.6810610031884529  0.5690924693152767
  0.5550325589766038  0.4486626762029100  0.9064889530434074
  0.4363225193498142  0.2040497324233869  0.1989836648620483
  0.7331278792316909  0.3920930344951520  0.0227235370398782
  0.6952371531843714  0.3153876847031084  0.4295403303117447
  0.4138139702332667  0.6345368341977522  0.9756080008855188
  0.7231368843549277  0.1916079441066874  0.4728035292389675
  0.7219550111256708  0.5530731883829973  0.2095359856456639
  0.3868505312631222  0.8871616041612191  0.1179320445873664
  0.1358994790726864  0.0373887746187452  0.6910315924317263
  0.4641163165754648  0.1991099584003804  0.6153388035496605
  0.8780418080876370  0.5917631283007621  0.2541459820129796
  0.7625155181833048  0.7953938060986947  0.6500317362548266
  0.8508798901031727  0.9891312692765778  0.7866792538289996
  0.5210845328984284  0.8436388977852147  0.8576262216410534
  0.1470143598040888  0.2706627831569537  0.2969736741492524
  0.5993189269620952  0.3824163430913326  0.8079996381387463
  0.8491644725888852  0.9951819992459207  0.7377893910132525
  0.2474995059980865  0.8288947412553846  0.8027328455254953
  0.4048680939966848  0.2991757975792593  0.7913036876273233
  0.1142003799823369  0.2134843217029042  0.1083158425765110
  0.6131159942027419  0.4491292176906913  0.0203016731460681
  0.7501537577713149  0.2901541603295359  0.5189442401849241
  0.4108035060240973  0.8935599378370450  0.7791587136725950
  0.1332654810205700  0.0440839653917305  0.0275981033072762
  0.3696644741683535  0.1840543049000612  0.4914445164547465
  0.7808840519318538  0.5237446552850061  0.6361155474642082
  0.3531929083228796  0.6814780153363669  0.0880151397525187
  0.2584507468188107  0.5413077639510834  0.2986465666152412
  0.6009026911615680  0.0096050075933289  0.4510600657017780
  0.6368741785850838  0.3630739121814715  0.2905800617712191
  0.0937167485214214  0.9005964366789324  0.8264014912691536
  0.2850955114797114  0.1523871447763129  0.5721380304762117
  0.8741562364344857  0.3943501016238317  0.7471426497433100
  0.4087966671196526  0.8335882579878305  0.6417810242357673
  0.2676494052368856  0.2400094719161135  0.9423382732332597
  0.2107600979379655  0.9529777314300100  0.6316513018190975
  0.9654726999362595  0.0981067371649132  0.3128778490476754
  0.7266623316975477  0.6472716404265308  0.8976765003519597
  0.6426438139849878  0.6622514348776541  0.8372160378433000
  0.1509867782346335  0.2757627802300285  0.0888127957053222
  0.6611921380667214  0.9354149812112027  0.3181516245394398
  0.1601053596369988  0.6902218030528441  0.8389248248251648
  0.4822580046121368  0.7594465541026827  0.2477522176158209
  0.1661604524101785  0.2056517521720263  0.2234658401555615
  0.6274230004352992  0.2201854112461180  0.6475998943056810
  0.5300343352741073  0.6051659326522794  0.2745618985319647
  0.7665426799962679  0.7887013786666521  0.8734435096082634
  0.7592697142620056  0.9190107274807482  0.1689812442684943
  0.7151049874970874  0.1091323841602468  0.8256312523656791
  0.0374186564801638  0.7442917720889854  0.2750115170983119
  0.9911489850658990  0.3942796811023183  0.3291179782123818
  0.8631559504536306  0.7860953597301225  0.8940850685152347
  0.9071641997724192  0.9723872832472156  0.4686698291796759
  0.8570379974956693  0.0830965751561537  0.3346661622273820
  0.8900132269847697  0.7208651265772443  0.8527306237276717
  0.8148474298909432  0.7950164211134616  0.6524996367404834
  0.6225175968122612  0.6589962157537143  0.9639145837409877
  0.7799783515039774  0.4004509299066973  0.2651415933668196
  0.8794429051336796  0.2670446697468835  0.1926767801951967
  0.5551133629419704  0.4780143719394839  0.0492740183462138
  0.7868349365900810  0.3570866228223047  0.5527541037914900
  0.7898793952894392  0.9423281867427491  0.7132530381036732
  0.8737732058413386  0.5339022038008200  0.2618256021831825
  0.4708452712530939  0.9973703833193441  0.8863218658295462
  0.5880538496026939  0.8532231872548264  0.6049096954673898
  0.5151909605869190  0.1015583797129324  0.8037818775038246
  0.0661846495633641  0.0316744929683677  0.9232405185517329
  0.0056997990537810  0.5170941767988596  0.7566249487078721
  0.9615252235997812  0.4068638668316557  0.5702159886648349
  0.9271408410061582  0.9013205632898221  0.0280323221361881
  0.6179120051777701  0.5120766854790395  0.4842850917301423
  0.7623792290758792  0.9110468194653404  0.2165080968044170
  0.9013236680219926  0.3137537872380439  0.3571124681889197
  0.0311664128568513  0.8459679833737952  0.9255182551129361
  0.2061641169497987  0.2674935751614370  0.1045643257995583
  0.8526533061652191  0.3264852126550966  0.9236931775005897
  0.8639441532313935  0.9280155597356345  0.1824726292146965
  0.2489908677137786  0.2709777134178207  0.5208304714909943
  0.1396378243356248  0.0177021897991439  0.2848715175813639
  0.9218504221860575  0.9606984983764313  0.3707631955819368
  0.5745701897724687  0.4187496131843561  0.6487422880298174
  0.0580679715518510  0.7458142649873523  0.0031258809859428
  0.7015530887065957  0.6633593032176366  0.7538298570584148
  0.5156233317944602  0.6428273476646015  0.5620098262505450
  0.7297428848440985  0.9189625969041435  0.1707352151349270
  0.7489693956389351  0.0484486383029906  0.0583163017525797
  0.4949011497652930  0.2760326173993077  0.6485746729422246
  0.6658103356816646  0.8562847401668494  0.4092940611360299
  0.2739106468495306  0.2446221886888504  0.6395259305232527
  0.6424530811656458  0.8114350244717450  0.7597387884589115
  0.9740058688049776  0.1209022583012758  0.5121829675516887
  0.8464143614928992  0.5688683603896544  0.8371272586740253
  0.9493675652107496  0.9824535468399944  0.9062249838335378
  0.6189698966266183  0.4153242230010746  0.6678838262197312
  0.7930366546347216  0.6500859581202373  0.3960829130463240
  0.4756448044839444  0.1250536573363969  0.4359354328772579
  0.6936995389843067  0.9677542874496837  0.8581777230252408
  0.2524928226401386  0.3911117793177751  0.2290951063714838
  0.5854567163753889  0.9264348401009664  0.3882342216053264
  0.6336799442843303  0.7330673024527778  0.7961898583546742
  0.2146335445350596  0.5296693910248684  0.0436327914255196
  0.9137345762838074  0.5303775638320769  0.0181756145674165
  0.7142597790105765  0.7235670107614069  0.5558823793586942
  0.8999024669685870  0.3802405120303086  0.0664479139877389
  0.3585175810029699  0.2810750150154867  0.1967034697915410
  0.1265538010916624  0.0957236292735804  0.8163388512921010
  0.5547940917558775  0.7808228900827375  0.5163460593087390
  0.7559824778935570  0.3971002259819951  0.3650246696200859
  0.2033905760549564  0.5286876703067704  0.9416146881992914
  0.9691354671288905  0.0290444617180527  0.0198665422624109
  0.0409344245478228  0.1883647913293667  0.5880232529902422
  0.8671756150772209  0.3825139154931423  0.3571583259582689
  0.8530249549334872  0.1889554218548193  0.0035597066653927
  0.6809686683023849  0.7233438235351187  0.9294449151245949
  0.6208600035933026  0.7170243101280542  0.1719311473947270
  0.4589177978876214  0.1433541433531356  0.1384635012424137
  0.7509596547749635  0.2574976796620211  0.8406346479373847
  0.5080811672946611  0.8493264204710075  0.9302881432108120
  0.3689788748924537  0.2800442792371960  0.1486714268978043
  0.1434490994682664  0.9956724269981014  0.9286697956070922
  0.5371835429838250  0.4658746664684216  0.3269008792799765
  0.2127152450426976  0.6001268456569248  0.1497613828247605
  0.4649299616188347  0.6131658132680453  0.1959969054989460
  0.6702305700781460  0.6591896361285349  0.8328805183931848
  0.4665906489875277  0.4607308058673411  0.3726068075260807
  0.1036383495379760  0.1577941132104008  0.4307755557150006
  0.8328511067232286  0.8458954743735655  0.8729841438156213
  0.1831593530102813  0.7758980506758711  0.5017715216914956
  0.5494379520439261  0.0834985377219482  0.0237632886506478
  0.4110227000435198  0.2493969760245608  0.7173098424887481
  0.4398765660624780  0.2587377531244017  0.4029648868649313
  0.6762649623619053  0.4729719313602312  0.2294096219405724
  0.0926437349395584  0.2778174531840135  0.5171907095738797
  0.0931985227549060  0.1202181639435439  0.5412103894810176
  0.5522014614863892  0.3536900799436917  0.6895984921339023
  0.0601954643562846  0.7450097402101792  0.5767329885662072
  0.4528070323306044  0.1160744585682345  0.9080795611572320
  0.1805712188244856  0.4948217673098574  0.7323456941437417
  0.1525290922365183  0.9457228598462915  0.3534468950245014
  0.0647164439967321  0.9757601278371588  0.4625812891826873
  0.5852490448007782  0.0165874656172895  0.8418069694267223
  0.2528543692579512  0.5065277124849937  0.1506004163832654
  0.4238464057052561  0.9976998777690131  0.3176093943216546
  0.3892295935921752  0.4878242643265333  0.0196631629953397
  0.2823002532463006  0.2922247069894608  0.7954323150484280
  0.2965450848825610  0.8846118235644063  0.6182269909114555
  0.3026157837276556  0.9181319130383861  0.9703562401634246
  0.8900502193756699  0.3073670037043637  0.4308850134858427
  0.6688933555104515  0.7379308903725609  0.6458247349735352
  0.0736878699686520  0.9664961227794165  0.8077770881398124
  0.8487502320248511  0.0753847355208750  0.2871467598287584
  0.2403563824355790  0.8402792301385393  0.1315048703796117
  0.3836626244119435  0.1815313358434426  0.9687852885225736
  0.4941530596473381  0.9114077764318294  0.6575398108429426
  0.8610258851533416  0.0738266802992232  0.6562961223749516
  0.0843967483764810  0.1338326360396511  0.0596533691685420
  0.1101243481397561  0.0476723351621049  0.4802412889807984
  0.7722437691437882  0.0591341289035079  0.5453040084977279
  0.6309638011660466  0.7996047065303766  0.3067354482744822
  0.1475467952568446  0.5915875168829848  0.5384153478378515
  0.5675177650564146  0.2293835833089691  0.0545215265332983
  0.9775949578482626  0.2144152955043849  0.0975497987044718
  0.7971835906490908  0.8696097311397731  0.6280762720459102
  0.6252667933056977  0.4226535664327352  0.8532118242673356
  0.7386745357535143  0.0525010531196560  0.2333490855630489
  0.7698190678160638  0.7820042093279593  0.5262801991192326
  0.6162638715023305  0.8859844903945676  0.8397167904620717
  0.6890506256454286  0.1913324622201820  0.3847742103025709
  0.9133407586450933  0.6698500794349038  0.6229161648547131
  0.1540523343974634  0.1129797021664189  0.4920851950582871
  0.9686541628314704  0.7139485070479887  0.7467864389285578
  0.9723937604511893  0.7582895175394561  0.5213086356486520
  0.7460969570874345  0.6600097642097142  0.3810595609638971
  0.9637468215029312  0.2324987755737850  0.0276088858638257
  0.4348329955176787  0.4093300281267613  0.2564840361627165
  0.6524910502864608  0.4363195878042998  0.0874131668185242
  0.5280186509993059  0.6541665221621829  0.4618462407065075
  0.1672046479009423  0.2012360396343235  0.4100345342946869
  0.9537709159320161  0.9405769074923268  0.2013813717166701
  0.1757163388261957  0.6489239820000776  0.4731712214981961
  0.3249519127447182  0.5260251685939972  0.4088883300911557
  0.5833857802792851  0.0862192716868793  0.3559067344960051
  0.0121949340994759  0.2283204724566351  0.3026218807480573
  0.3434076906259242  0.0941418081768198  0.7765629430996493
  0.6400450951328268  0.8503557112360315  0.9966018001077154
  0.7178900441542699  0.3895243412582022  0.9989965593915043
  0.8799812083460291  0.9472355030566275  0.2638426159429454
  0.3324324235891709  0.8556317581117607  0.8913661544496513
  0.8455431450552467  0.1207103048038325  0.0939499024028356
  0.5345687958490015  0.2324278904803389  0.5143448615387799
  0.5161358679819725  0.7734371123179564  0.1006315672206409
  0.5908426320756609  0.2352828374152491  0.0164310565852152
  0.7345341265964185  0.1924919115898859  0.3934625793831049
  0.9959457169592663  0.5914719862128521  0.0539522539133183
  0.9780208104030235  0.5568445985937049  0.4495405605333888
  0.1620120386310098  0.1862056575615553  0.5454832290453994
  0.5393301110504185  0.5848129089522851  0.9895282381854787
  0.3270539414744600  0.5172862291795349  0.9052261621721501
  0.2935687118174558  0.9572194430540208  0.7027884515578698
  0.4958395430365314  0.9169459879161670  0.8963783110272359
  0.2061555677292108  0.0793043551593394  0.2164434566720656
  0.3850713531147004  0.9425577909676988  0.2395962595177177
  0.2149207844760295  0.6661981353278137  0.5848026498073345
  0.9740518151937185  0.0942565179676890  0.2857753192883259
  0.7247221192032265  0.3329366091098870  0.2749059058113946
  0.5948878973436602  0.3116613051533116  0.0071961673071751
  0.0628407803152507  0.6426286130825638  0.3763183024679010
  0.4826816454072022  0.5330287581866459  0.3373016177930822
  0.7530015594340711  0.6057138128584091  0.6755576736636696
  0.7168471600389077  0.5944175110434611  0.6022982869270371
  0.2704141788843412  0.5836610782999566  0.4014421512901260
  0.2875701874905689  0.7542458537162281  0.6897322909670844
  0.5295898030800364  0.3181776117507410  0.9396309286232252
  0.6823748038986173  0.7148622767783227  0.1071013867862725
  0.7707709167697036  0.8901956041307839  0.4099806635172242
  0.0655899859589364  0.0344974473734503  0.3911459679310660
  0.5998505449597962  0.8187889486621109  0.8201097317051856
  0.9230983735074899  0.6087198407277731  0.9894566391776338
  0.3302421816268750  0.8934611241099067  0.7151403895506681
  0.8987900412690183  0.2603017781048911  0.7099753657409129
  0.2897967613386143  0.3025532472068878  0.5322589453031018
  0.7963978956808226  0.7258519400615232  0.7591188644665011
  0.7348101477261895  0.6343577779210702  0.0852653099974437
  0.7912639109005442  0.5566255156618192  0.8894555880819959
  0.7334224819445999  0.0616242366780525  0.4273538372298504
  0.6009419936733573  0.0900409583157843  0.5221050578462372
  0.8608810573443567  0.2607662908545040  0.7765058339147636
  0.0927552779729157  0.6604751525323109  0.9398245149782537
  0.8912108647640061  0.9760632012887294  0.7614320714902301
  0.5376585022174453  0.0056276068979937  0.2765187107177896
  0.4739615720917323  0.3982456184791356  0.8394234875617411
  0.3647346018884750  0.2177150980035424  0.8336226397592023
  0.4200865122424849  0.2125486324095973  0.1444395932923672
  0.7034065295566557  0.3610065290226599  0.5578664029679783
  0.2365928160410511  0.6995359822262646  0.8331949799554788
  0.6597201949479746  0.5160034710623449  0.7397581347001752
  0.9127791467788253  0.4043286022043139  0.1083396883765423
  0.5576202597857217  0.4479142155014628  0.8568590531238631
  0.8450704392409188  0.1213496691371486  0.8780582681893516
  0.3637279658413039  0.7585982402115240  0.1059609007021356
  0.4004077032055232  0.9877196506321783  0.4360647071412057
  0.9053981286106976  0.0385168325152347  0.7508920934594517
  0.4292628195049764  0.0338320930739411  0.0887586726961262
  0.2500680216660204  0.9787829066312023  0.0921781693017426
  0.9704535963796210  0.5285071036403715  0.0261531865228244
  0.2516632325439531  0.7896404134514264  0.9280336455732893
  0.6228314886358921  0.3674754393585899  0.7091244106825684
  0.8369253578107790  0.1909326337474983  0.9195677924874111
  0.2563790306525713  0.2755361308511351  0.5477138736819847
  0.3518675699628465  0.9636801697946565  0.5445918949069776
  0.5502665287311375  0.0927208496946707  0.0503147488801414
  0.8567581630171864  0.6823874751105062  0.5614868324528868
  0.0855078043673090  0.8628844055703794  0.5673421831124101
  0.4928437293036787  0.9601158136234610  0.1138302957478461
  0.4906556031992127  0.3563500257715821  0.1416138025806720
  0.4254628513539149  0.2658000901927490  0.6722443248124632
  0.9902090539586096  0.9008650074627823  0.0804102933895812
  0.3985870060681614  0.9189220053028536  0.9061574553378025
  0.8856475206541248  0.4896284331082078  0.4320399807918568
  0.9592547135743311  0.9698850768291194  0.4016503174794381
  0.0797388426289229  0.9360334015416729  0.9863587814372853
  0.0108344438968865  0.2811565036368401  0.1289711794168790
  0.4210763620339876  0.3797375394681016  0.8919230125077597
  0.5456324481186389  0.7857864243379350  0.9285787601539552
  0.7640656938671139  0.3370959694877036  0.2447472155576118
  0.0397450144881811  0.2985848590712859  0.2405326913298612
  0.9474037109790903  0.1687488818655687  0.4332618845191175
  0.1538169618171321  0.5187999416133429  0.2328283480492529
  0.3105122821353690  0.8915920743560519  0.7598912116352157
  0.9923014675421692  0.9037940204958789  0.7779623731614332
  0.4692413263387979  0.9097347247296959  0.6444134094151832
  0.1415595282717801  0.6286574334137497  0.7166584685396300
  0.7589801568093539  0.6006065222826896  0.6285824097229060
  0.2545497295517223  0.0395183772571733  0.6467735063381134
  0.1327575362317067  0.8493301060344068  0.9010026168094539
  0.3517751810686369  0.4070288517034962  0.1101116143018945
  0.8715467930611530  0.3360996354528194  0.1911804211388115
  0.9649973076066928  0.8262566253563232  0.6718173310925396
  0.5827475331992727  0.7235854759295529  0.3656523585894054
  0.9908093632832504  0.3268245275873504  0.6298158749047091
  0.0246894758407398  0.5221031350319674  0.9608493761083372
  0.4334409139581158  0.0638807750809430  0.5309389092298465
  0.9585211799528153  0.6776592945325187  0.6355108733903843
  0.4242804097883678  0.1193230420681714  0.4114334042860086
  0.7532292161148072  0.7264086618191016  0.3938209244663687
  0.5234993558778246  0.9824525119959339  0.6771786375965487
  0.0874167176614547  0.6638066078528920  0.0698035367574114
  0.9032501328722164  0.7188531539292702  0.8036602782054614
  0.2233483067094544  0.6221078764591035  0.8619048159294349
  0.1177557393800673  0.7701208013704949  0.7625291415122081
  0.8527753918222470  0.8961276177139735  0.3595709534900556
  0.3794954847109934  0.3737334556563247  0.6074884438987861
  0.1832664564307938  0.6068463609103251  0.8758543189112996
  0.3017587798671632  0.7590158646748004  0.7373595369334680
  0.5850249685182534  0.8831691363003926  0.6843431909663859
  0.0664654990840844  0.1012800863314207  0.7386171651552143
  0.5159982288445788  0.4360744958085265  0.4995430313259384
  0.3812788322794016  0.0731241511301240  0.9017848752250989
  0.0364352399291912  0.9008409280668151  0.4277273802251579
  0.9236966778956690  0.2513787520182319  0.5237766621501628
  0.3260422089403251  0.9208302233150113  0.9533445619304124
  0.0025610016547594  0.8416822020468849  0.9260598752539677
  0.7694139436351213  0.8464461949629732  0.9684478180655389
  0.1865064413929010  0.2029771043533840  0.2039761301622804
  0.2597968648599651  0.9051143665640047  0.0607007471387811
  0.4500692155380408  0.4247481314646092  0.5799008391123250
  0.8661091131739502  0.8738230896685141  0.6562151701903869
  0.1049613993980910  0.7728082708273419  0.8171843356621803
  0.5610971520194523  0.0190079224279131  0.9956726232083097
  0.6315723031237703  0.2319589122371641  0.0949023268270038
  0.7466388192647555  0.0210461976116846  0.4024174219885756
  0.8981282185955934  0.5970631557913213  0.0562628794122666
  0.8249044808636214  0.8755996506305184  0.7578428519318311
  0.1795161139155301  0.2513664582849539  0.8912895848164538
  0.2609217683237477  0.8289397889155989  0.7770419533637554
  0.0947837654249248  0.3828831008864577  0.7870610758658904
  0.5952356112900957  0.2305175508390680  0.0613287993538004
  0.3701941902914743  0.6554468205042218  0.4626969497338989
  0.5752600813911450  0.5143593852458426  0.7255053955682814
  0.8986689065705621  0.0440360986295802  0.9313298442668404
  0.2736940751006601  0.9746222896512081  0.1349183132236066
  0.0677623650064083  0.6375359519344534  0.4040166591880223
  0.0676210908902724  0.1855042069330630  0.4555283578559785
  0.4471286791283567  0.9573061413709437  0.0799248311137499
  0.2625024440155221  0.0026646838089954  0.4036490649411247
  0.8887838170741872  0.6478876373509663  0.7636301220261634
  0.4843321892590833  0.2609642538141325  0.9459876703625768
  0.3373007049281172  0.4130712457279863  0.1333155731834687
  0.7272042171871621  0.8504672542272186  0.1413308771859317
  0.7627757219459977  0.0455935506617128  0.4920411895219667
  0.6414327885749858  0.4469093319424668  0.0183761248135371
  0.1020062767731599  0.0513069682255607  0.5545823197986768
  0.4945656181274181  0.3582963021314510  0.6403826143023255
  0.2875100755739384  0.5272180992851020  0.9541761685545374
  0.9957966696058537  0.5149818952275371  0.3052728042597740
  0.2633861422773039  0.1004350641703816  0.7149611510007317
  0.1812190973765164  0.7903003803815242  0.1130423136121021
  0.4505667956326805  0.7410045496427600  0.2808011674921090
  0.1244406701133521  0.6638329198736929  0.9757704613246072
  0.7626572067328440  0.7217426822958963  0.7944471931105975
  0.0810623110897754  0.0373616513211656  0.7781487326072469
  0.3333597256276474  0.8918650029371458  0.7434312728163371
  0.0117801510373129  0.9091073401632573  0.7054547830080538
  0.9192028948674541  0.8383671308425622  0.8261200718638813
  0.1992574203418855  0.5336076978303138  0.8677248961515975
  0.5981856843875014  0.5827664949160519  0.7442249246653858
  0.7357352784359975  0.9783478645500232  0.9851626909575799
  0.8591591721490864  0.0559351912365828  0.1124150959020715
  0.1423328112291802  0.4605877315604779  0.8398813371636320
  0.5543329287372953  0.2275340097792823  0.8490899256927845
  0.4033744429895234  0.9712593856248086  0.5621721306700046
  0.4226254274437014  0.3832633345315763  0.9410672013201674
  0.3262426679060216  0.3901375124271075  0.4688103208548822
  0.3621982815736676  0.7547142392592946  0.6914851674958390
  0.0511261340686784  0.4457106899498460  0.8082080003527202
  0.7868780885839147  0.8490696530437847  0.8942170811236928
  0.8482144385434328  0.4645316542450702  0.8744435794266813
  0.3940896364701643  0.4132742406331904  0.1336153600995509
  0.7868705076692479  0.3449832286405463  0.6926607553961226
  0.2847414771030475  0.4019403769475338  0.4915712543996010
  0.7613671493492015  0.9780798016824497  0.4926640078785162
  0.0889770064468904  0.9177386332760967  0.4713388669703435
  0.9472031348004029  0.5912199806125062  0.1412318011212082
  0.2512352014320733  0.0102360431085009  0.2171214079648696
  0.9530259826748645  0.6126296084913041  0.5835117433988717
  0.4332098520505941  0.9776200588572858  0.8462504404581864
  0.6586806762547186  0.3080461393780559  0.4616860645548045
  0.6920532421330725  0.0017977427002024  0.5989479354205403
  0.6284662980624435  0.4314525918579697  0.7368193389713601
  0.3860797037551054  0.7612845913855225  0.7775902743478177
  0.5351591646507718  0.2876512665374623  0.1745677993109395
  0.5162115034145391  0.9216819106104267  0.6152263013958058
  0.4511091741928953  0.2863714530513006  0.1632324996210342
  0.4066037334157056  0.3727475495774245  0.5211023516961435
  0.2151878694725383  0.8280327399392130  0.7054748715353840
  0.1782243179065878  0.6886500573084062  0.8981307014948392
  0.0726493776824596  0.0378211686966822  0.7502856611644265
  0.7042835159929777  0.9507430318744837  0.9121325770656801
  0.4869211109573904  0.1176795132243777  0.9733125260926754
  0.9545624983654922  0.3097657983623466  0.3765241363637881
  0.5393613751941735  0.4222535492454090  0.7135855499368653
  0.2506804784216627  0.6961240301589362  0.7862662058635863
  0.8116459773157302  0.8449686878584546  0.0434085208101156
  0.1391079328031842  0.8552324942414201  0.5012661821149085
  0.2314146418905574  0.6551273344816481  0.9142633911426193
  0.0126294737823032  0.7143768057225794  0.8406344259094515
  0.7750878266885093  0.7105045868838417  0.9000392936141152
  0.2272347323278349  0.1153701566363067  0.6216597087804342
  0.6565043832126375  0.2268334069348736  0.5689838896549094
  0.1197438015395530  0.8717387065241264  0.0938471596768109
  0.5713890500061175  0.1474021457262455  0.9257800200454864
  0.1739013615398690  0.3187291715115681  0.8258360241279397
  0.1417651084579989  0.6032140778490859  0.1069338883133509
  0.2826032957036520  0.7874894173425845  0.4206520340784488
  0.2646729539445108  0.3210786674170765  0.3657791285382862
  0.8749327553657157  0.1860331244082997  0.9856207485856424
  0.2540524803264816  0.3209332402713332  0.0146425898188659
  0.8474971170379887  0.7837171819047980  0.8476918658033815
  0.7355380896460010  0.2548074367517147  0.0232868449094351
  0.9694392684192433  0.2580096577226551  0.5117855255496558
  0.0298164875228672  0.8832490433502681  0.1395413650480646
  0.3624541215541320  0.8172694672238338  0.1059686032711930
  0.3063087167897537  0.8121589224646028  0.1546906447734022
  0.3330062612449720  0.1505311170763265  0.8393607436679548
  0.5870811881476666  0.0020060741509075  0.4978292557164562
  0.9383745113511848  0.6843502183514106  0.5403455486757124
  0.5327950353998560  0.5285789737143409  0.0169153390526152
  0.2528866643463543  0.8946813076177711  0.6791875903421583
  0.4493605364090503  0.5727529067623216  0.8883716397108480
  0.9197778986767414  0.2426502220099578  0.3243724991854022
  0.5677710261543436  0.2233691107948534  0.8955979508504076
  0.4745027918418680  0.9039519503141247  0.7017557756372903
  0.2895983076791194  0.8866126805749523  0.8028277674675901
  0.2404009918592702  0.3163535309949448  0.9305537506267836
  0.0020486371512514  0.3126984113807144  0.6855105078260927
  0.4856917099257032  0.6657091163265249  0.3693195799611840
  0.2053066122898227  0.8444929906625925  0.0531385965473829
  0.6230346579958290  0.1631873522831269  0.8148102689817200
  0.1414696067481991  0.6011554953213021  0.1351551110150500
  0.3380979022699972  0.3976954997897191  0.0882768210745501
  0.0057406481989392  0.1040041089714862  0.0040979451409783
  0.6983079644483556  0.7346274155544482  0.3080220381398823
  0.8352083981243538  0.9495169402417094  0.2817782304160378
  0.5795682503494206  0.7774769399225745  0.1440563042709157
  0.8204514634935077  0.0851174098537003  0.3661609445744220
  0.4300366949793825  0.8973665449355498  0.7342763530392308
  0.4672619028509626  0.2319988566218411  0.0584140448496030
  0.7644116818786444  0.6057514331296336  0.2464982038488079
  0.9312870851349944  0.1321290829420810  0.2125956785845127
  0.8393557187429221  0.7583475248049057  0.3460574573620537
  0.3341352432624519  0.9433940950639343  0.2374150731034532
  0.5332249637111190  0.9014822242786893  0.7809271121541609
  0.3990944440396231  0.0484282624503169  0.6205359794044527
  0.8733245236030753  0.0563757648809538  0.7845882607619271
  0.1308376364748813  0.4177120330151354  0.4678174659441692
  0.9478075007289819  0.4067866592622451  0.5952069227651073
  0.1781325898839020  0.7893196139633146  0.9224365754079403
  0.9877803462073935  0.4097258229853046  0.1326032765696924
  0.8022181346870842  0.2642787797746388  0.2730705689083305
  0.2325279792971047  0.9121267553816870  0.0213197764332700
  0.9838495820150657  0.2877795164215747  0.0483173927935032
  0.7146094886774711  0.8515921433575898  0.5292313143979658
  0.7198078278975611  0.7233330375725147  0.8133463668087234
  0.7589569620741276  0.3939652013051705  0.9731351917823107
  0.6278858204495972  0.5120397721255379  0.5109205047217021
  0.5518733320058543  0.1613640742479419  0.8402943051189794
  0.0192846021150592  0.6285009838161558  0.6879164965226501
  0.4893997600736138  0.2010978786715931  0.6254214740467455
  0.1819839183337151  0.0136293071789447  0.2465635940755284
  0.6147341527746079  0.9718124003248243  0.7427289984634580
  0.9899714701604116  0.4799436570993800  0.5428469613775290
  0.2422399334985505  0.6040192723594601  0.9254202527832989
  0.0851637799271246  0.0909839575839978  0.2637732772194660
  0.9109295653323324  0.8055795029217538  0.2632083901512307
  0.4262616387381778  0.1908359517009315  0.9337055591546609
  0.4765056149358053  0.1754838313012808  0.8009856457109262
  0.1262544563094023  0.3091461113245439  0.7043236266976923
  0.9525868442667120  0.7159689050824436  0.7943455863274854
  0.7072296139990990  0.6528953324100661  0.4088788709010984
  0.1810150831808028  0.4707941438737748  0.9612327243372376
  0.5292420112800422  0.5344169822494629  0.3209408154465270
  0.2556985833095238  0.5887703655196411  0.5932908137001272
  0.4360637949933592  0.3474078529509621  0.0755177322582559
  0.3042890660480445  0.6492145813600434  0.9199001843055040
  0.7926754538223026  0.0667720444127500  0.2982479904705224
  0.9690399754050776  0.1617480742626016  0.3808526049268338
  0.1537462502386950  0.0757014523090068  0.8505425344449600
  0.6580422538649006  0.4240162773424391  0.7021683935485987
  0.1748897047299194  0.9966422266615692  0.8983128144063980
  0.1098513983313658  0.7660915504872782  0.6879402315087400
  0.7100599537859399  0.5984859236580689  0.7466302732814148
  0.2710093731698376  0.3809379726213071  0.0176971325097639
  0.8428545371811169  0.7400908234077570  0.9664076313904001
  0.3893996021260555  0.9517634519535041  0.1579340760283013
  0.8659657707879617  0.8940486991615337  0.3347126300734847
  0.7136806871165922  0.1801335362950847  0.0576603424265770
  0.3502884259664480  0.7130268561659824  0.5203574599815894
  0.2304819999767509  0.1271006583565421  0.4994148231961205
  0.0856119172496603  0.1030428370817609  0.4152616079109055
  0.8300178304989372  0.2769030961751203  0.6857778094552129
  0.4897895623880384  0.6075885538375096  0.2473584560768258
  0.8418875618494830  0.6101629640815780  0.5802895920211862
  0.9212426510271090  0.7193589702167440  0.7568320007570147
  0.5689676072757187  0.6503767121925637  0.6276379489006357
  0.7555168865324494  0.1183588970985469  0.9485269678306619
  0.5465377166055890  0.0770083173345403  0.2335351089665852
  0.5217514601280597  0.1124432834334440  0.4318946765111784
  0.2738785727202016  0.8019633856668436  0.1981165861751960
  0.0677878853072250  0.6313760212841938  0.7058824528130355
  0.0258283214703997  0.9123598319239539  0.6043793307423978
  0.6230801319956187  0.9633753239244515  0.6595425088016398
  0.7038324209266634  0.2174769315787874  0.6486660444376390
  0.7921035349272550  0.2084925660267003  0.5530777685116299
  0.5868878031808954  0.4008827478501573  0.3336895133555449
  0.0116522808500525  0.2265153303956785  0.0626707313817777
  0.4462301333954107  0.7037043924499395  0.7736587517243954
  0.4966798291479116  0.2030830631966753  0.5229338381147794
  0.4337096339804171  0.5517060751826588  0.0024054874134911
  0.0758399284512061  0.6357428938076195  0.4601655912646164
  0.3442366780203039  0.9519654951118434  0.6185006933458587
  0.1855256013512948  0.8789085374042024  0.2655463782926630
  0.1205992217078198  0.1823434904716623  0.9978397838579979
  0.8063467442602453  0.5050487693405159  0.4947528286722958
  0.7192027586769123  0.1318942780340819  0.7248039053140493
  0.8712626212700864  0.1200642622670654  0.1052424441133752
  0.2224228113825649  0.7806677811167944  0.5317936207607915
  0.2435994454968791  0.9643216412030986  0.5148724739175002
  0.3468775700466593  0.6531137660980796  0.5860562435215009
  0.5489136814465135  0.3249860348068715  0.7013548952026696
  0.7513459751863898  0.2134643339164560  0.6617158662309425
  0.7050503593874455  0.6464739304459840  0.4831614383637234
  0.5889014751873473  0.3121607817782143  0.9788986648827520
  0.1645429053746189  0.8962719616542387  0.7774118699028197
  0.3183318619223053  0.6060915020838458  0.2849543960082685
  0.9686339963930740  0.9036489279866893  0.7933673372543276
  0.1568875313728177  0.0398004168403776  0.6715930648776892
  0.8519658072513662  0.4964588602922706  0.4782807703286643
  0.6797294229795333  0.0682244496874205  0.3466320576523059
  0.7098836454946839  0.5758621231251695  0.1390616983013667
  0.6632042880980348  0.3633423408134910  0.6827010943748146
  0.9310263237729167  0.3134248475517191  0.9529451256774836
  0.6949417832829952  0.7949070783516329  0.8442852592194540
  0.7787178784615487  0.6348938547398849  0.9648365117284103
  0.4734134024713597  0.7045714573901682  0.7659929632943586
  0.7012314648675897  0.6656374744172748  0.3614220543763806
  0.8518760597345021  0.1270307804892626  0.1498412682751198
  0.3960903562400763  0.8601920855289330  0.2930746196106279
  0.6603566035994425  0.3779647082683603  0.4391458247754876
  0.4119487628147667  0.5137746336313919  0.4990828654326357
  0.0925128741852679  0.7404030673073471  0.0388979151324662
  0.9605911283764660  0.2770699629191722  0.2164802733039526
  0.1138400971318658  0.8782463441880646  0.3337446162880247
  0.4000324792863599  0.1927232743304411  0.9237270897670795
  0.5488161302353419  0.2257293608831883  0.0749696505042911
  0.3009749472836487  0.6655945782049411  0.0128498969408311
  0.0911301533417692  0.3280139982586003  0.3204321314491795
  0.4804599662476715  0.5440985438062955  0.9826429439491309
  0.4535774840205557  0.6569368221124523  0.4480715877224572
  0.1929521457885897  0.4469420986094464  0.1921385832848403
  0.8064203107550675  0.9334006342708923  0.7572195295118656
  0.6866587358359850  0.8026202910789237  0.3175100558239146
  0.5923151711392636  0.6470399706221701  0.5006898216032034
  0.4135311537007448  0.6828148426017393  0.1338309292202231
  0.4655648983423587  0.6997994740651448  0.6904961750710640
  0.8531770442892495  0.8448811143178980  0.0693704650728212
  0.9849688161732049  0.8202582208472995  0.0085967270910889
  0.8831459958058478  0.7606768776651426  0.0606405319631318
  0.2083858812928331  0.7234952153668259  0.3586532300316032
  0.2282130040728552  0.5931234173865875  0.5919963508442291
  0.0828957911487795  0.2365291564619305  0.7473871205000865
  0.6939685297342932  0.4367284517947462  0.1102640668818978
  0.7396861348943774  0.4805706372804443  0.2988932156460655
  0.2022732616783469  0.6672105084984031  0.0088531465711299
  0.9123787351761700  0.2642961448540652  0.6225541073043852
  0.3428320473650053  0.3527777967223652  0.1141916362079572
  0.2210349366107342  0.2593090357029261  0.0302155010011221
  0.6191837074604108  0.4271772097977857  0.5281972122979590
  0.4180667852213925  0.9286077613962751  0.3326457580410708
  0.1928932902841480  0.7066397112199660  0.1382229149743433
  0.1736327374321784  0.6626829387336167  0.9676168595229488
  0.3250887117293167  0.7484601636221208  0.8345026464725248
  0.4979737359198505  0.3453596259090018  0.2649583483128264
  0.0941640083564282  0.6391231124370558  0.4141480178105426
  0.9715918609944985  0.9510629303671383  0.2427977542966041
  0.5011621239792872  0.0710140508722843  0.4795354541799804
  0.7947287801845397  0.7760377714970378  0.4560633851675688
  0.2203942497426389  0.9879198553234477  0.4381361317463772
  0.8737737285366975  0.7697489573529410  0.1347381913625411
  0.6970154135463311  0.6139596738047617  0.1892664831469732
  0.2622862048392591  0.8014723864953062  0.1722187563787079
  0.0579061283812945  0.3740290395989751  0.8167053614026039
  0.4719851798575873  0.5027398475173129  0.6576627963156999
  0.4366831105102313  0.8252259442062166  0.1765380169833037
  0.9841576375531745  0.2761395372902480  0.1216883123620403
  0.0663127571324464  0.6659125988063882  0.2478374303364021
  0.6786602091180454  0.4685440150997963  0.2576219053176184
  0.1328799624352807  0.3264178132932693  0.6025273037395585
  0.6708776387763674  0.7271155593208640  0.7739033144927477
  0.3434958456996600  0.5676095369243861  0.7335062921581532
  0.3102933508477637  0.1525584099917836  0.2861849548244228
  0.3429076935078162  0.0945541117290025  0.9899336431893339
  0.2157629345644211  0.5147690157344659  0.5386356055483934
  0.3302137032780602  0.6050975658599197  0.3101998021235720
  0.5072069849433316  0.7038603603463904  0.7300614727666863
  0.7506511772827501  0.5527108068150435  0.2136940727730836
  0.7471568224362020  0.9539606763711459  0.2750817239310078
  0.8534352472938301  0.0357156413418981  0.4487374494942830
  0.2363703111497105  0.1263839560610711  0.1010980999149484
  0.0323103340087162  0.0938945031706270  0.8566049531556391
  0.7312816716223486  0.0667025160589936  0.3686453331344374
  0.8490282472903022  0.4736353514996282  0.2632702699363038
  0.8132129467847535  0.0562783846057871  0.1712476960099584
  0.9244284453080294  0.3818699739154403  0.4044029037813132
  0.9093839384239992  0.7458660074713480  0.5952762854916066
  0.8222392878493718  0.5626206897846868  0.4440494076934598
  0.8063346379279248  0.9862850201183490  0.8603586394055324
  0.8825917745268755  0.7189578879047209  0.8245473820043456
  0.7976623129253803  0.7102304659651136  0.0601742881051627
  0.9064995543909643  0.0408632402657564  0.9798515847692542
  0.0001598696431660  0.8098438938662446  0.2873887182694612
  0.8197120785507832  0.3960112448140042  0.2372729292203833
  0.5353156337564396  0.4512965939789942  0.9275639024750819
  0.2993741818843493  0.7413557436008468  0.6358139275175131
  0.4195588552038559  0.2019971762910905  0.3248110923646496
  0.1472749716365095  0.8643917566213086  0.0957393777360724
  0.2846830844793543  0.9899887455829094  0.9704482817431420
  0.0438012051254738  0.8316674590268384  0.7090766546744025
  0.0871050668304798  0.8662961939487580  0.9710232780832211
  0.2399934445095669  0.7031739824096682  0.0300626683733051
  0.7615377955023460  0.5718057189677965  0.0863358926870600
  0.7820969596730204  0.8620906466442805  0.8209237901215771
  0.1936936735610549  0.6275146316679324  0.7883105390603975
  0.0752635443351394  0.5199727674596071  0.5974653068915877
  0.7017307823011348  0.9353581727382280  0.3449707406426210
  0.5270040491766866  0.0955256233280541  0.0665993378383181
  0.1633925934531709  0.5111917950672762  0.1835122546095870
  0.3787627136642505  0.1912621457681002  0.5168405375188616
  0.5877816169290402  0.7097988231735500  0.1366061601710133
  0.7692128871510816  0.8450846012319616  0.0180583063689149
  0.0613639964344290  0.5259361137080832  0.2681034599981765
  0.0162330257562617  0.9173633824335976  0.4939747567833562
  0.6402539158291046  0.9145083531244140  0.1243351243564886
  0.1452208047864009  0.3404138269580274  0.5292773641914734
  0.6452755860971418  0.7969972638103551  0.9313960025901949
  0.2441246745514364  0.4791055860375728  0.1475352637575354
  0.7249249260632474  0.5178106149823343  0.7010725476806312
  0.8974778382631394  0.9672050707278512  0.4423996141335359
  0.9739475085641583  0.6886105097642435  0.5056414045600429
  0.7354126700239898  0.1897543200520647  0.7881419178462243
  0.0909490956028370  0.1461529740659064  0.1151011368318978
  0.8705988444986161  0.6474928860828585  0.8103327716694220
  0.2076171102910321  0.9426821813535928  0.3019727150767618
  0.2909227766938136  0.2389764624992491  0.6174927865414724
  0.7002432650870414  0.7980355871006344  0.7154554871929871
  0.1116606464422198  0.2820612003068874  0.1290683058363183
  0.6314434063131568  0.6572038896552375  0.0114967135373223
  0.8576393955693122  0.1888878099307957  0.5180816876675075
  0.7437438891921155  0.4150108419165817  0.1715713659307526
  0.7092715514838988  0.4028890712484686  0.2465102273614816
  0.1124391688266554  0.5236770096515274  0.7012745450938518
  0.0931269191653503  0.1087421845190798  0.9328926828869953
  0.5478768268144019  0.4442492892991536  0.8304305221600554
  0.9437229874105596  0.9880665100256870  0.8607263556677807
  0.3714342769205123  0.0917825320416072  0.8166261994432668
  0.4955561261731566  0.9606822988047911  0.0852985419783470
  0.3775298586657866  0.6412345546628471  0.0074599453729970
  0.8851003456856209  0.6618902050116541  0.8915765789230773
  0.1682477184587364  0.8003184929446326  0.3302334865540779
  0.8839289257377735  0.3912289314765680  0.8964506501281917
  0.3328354535967384  0.7302941300576217  0.6015365670953439
  0.2148215728333856  0.6566279332947735  0.2483409596852452
  0.8337148180097036  0.8683339555766186  0.7051801104516001
  0.1544249960499335  0.4754543195497177  0.1170488058674263
  0.8590526040090899  0.1719982394620610  0.3948765812781658
  0.0852457995412673  0.1840964549835013  0.6064736442272108
  0.1607754476491183  0.7201739312053074  0.1060220039895179
  0.7000222461511055  0.5133694502908063  0.8460257281872178
  0.0329209649794603  0.1690821740306194  0.8147144989329254
  0.9160289230458358  0.8976246458499381  0.7387463854123676
  0.9218737069456130  0.3202454910979698  0.0556471441468383
  0.0389557633425274  0.7817957543107943  0.8888310855135564
  0.8027889401818096  0.5103307260929673  0.7624272526936130
  0.9348666435991287  0.5872892226232327  0.8056369368881667
  0.7069891455068475  0.6525891275910967  0.9486367576432782
  0.7071113157750576  0.1301336453980965  0.1669931747501958
  0.6644534852743665  0.8865999044023108  0.8313343898753218
  0.0628348650433584  0.6370568856905722  0.7776728447359680
  0.6739016810393208  0.6530959965146296  0.5618054305355950
  0.6245660047214777  0.5821003414805632  0.0885575533933804
  0.3980746649976185  0.6560996912190921  0.4575945878076125
  0.4541132003663922  0.1401432433832088  0.5340817646313344
  0.9397544271914549  0.8265671696101933  0.0255387574217240
  0.9771859303279522  0.9756803738533864  0.1758987975633425
  0.5937806071357068  0.2785630037992334  0.2528357791768404
  0.8318289394788289  0.2940669595579216  0.5319809383271459
  0.0703269789156636  0.1726324647824267  0.7834823596289104
  0.0773896555969959  0.3710047130313391  0.0123799053513612
  0.7167615969121639  0.7120448315872757  0.1418152823287654
  0.7285380586422208  0.6875932237825629  0.2537207505147605
  0.4838588359123918  0.7127517473809536  0.4757533843591605
  0.5147849381530891  0.8982517612070999  0.8263502208188371
  0.9459174443803624  0.3093728129815059  0.9052121764126068
  0.8849995246799978  0.5444197928337771  0.5555863181113370
  0.4790491881874981  0.5939786036402337  0.3934683401078595
  0.2684183777286190  0.2676858398211336  0.1480581867462853
  0.6887905049911771  0.5908218361929843  0.6010918531460446
  0.3551167053654382  0.9430519116318612  0.2813150421424906
  0.7309693741211108  0.3168512701502576  0.9019750251477909
  0.6984441720340373  0.6518120014958051  0.9015766490282372
  0.9632604113009102  0.7957528820124076  0.2122916003285386
  0.0828581509797143  0.9740368935552001  0.6373852031991315
  0.1039628141910654  0.7321321224933995  0.9923721879817617
  0.8795122368449265  0.4595086105991846  0.9921687343853393
  0.7497950993050404  0.3256075287372507  0.0700613237895035
  0.8658169522873460  0.6971388419010791  0.4324934198388573
  0.6806083407465613  0.5858461476612666  0.8916411790503957
  0.8918965255574355  0.0938271497984281  0.3793264429209504
  0.8138719697874719  0.3280266986489405  0.9883744510279387
  0.2448703701372199  0.9519053649159838  0.7911409251502356
  0.3567800603925003  0.1533420803297018  0.6165599471812939
  0.7778259682622749  0.2550944274125290  0.3679847080214338
  0.7864784475128581  0.7094890056187984  0.4582909594178699
  0.4051255542833728  0.7719488468048492  0.8587178629800508
  0.8008440621588231  0.9174001541058342  0.9651595923750682
  0.5110295168764661  0.9832783086755271  0.9472983972646487
  0.0694863770797569  0.6370604291190923  0.8046605320470311
  0.6898222627385747  0.3868937727512349  0.0002885023303726
  0.6112620738100399  0.2770331881235942  0.2301012589551721
  0.6137460908482508  0.9267436518740656  0.3895414120624794
  0.4093667368064103  0.9059401207843636  0.5363052323649962
  0.6409273890426800  0.4361079552770834  0.4771485618859345
  0.9142472119066999  0.7562227456702911  0.3707572248307588
  0.7866391149975048  0.8205965495258299  0.3890654921871741
  0.0874087388248181  0.8985648352980969  0.7413406377943101
  0.4390710731989770  0.1095200970767518  0.9804158817632525
  0.0032755078696840  0.8391234629400658  0.8776998070914921
  0.1627894075890121  0.4718725978730358  0.0903111232093571
  0.6591115276468829  0.6578036515340412  0.0061840468726737
  0.3030916145353760  0.0378544324274063  0.6359732555625162
  0.4931218688986764  0.7074353517822373  0.7863640081680584
  0.1551631927359610  0.1734863186118340  0.6952848535329488
  0.7633347270933307  0.9807120645937158  0.9328327373452687
  0.1704126304484680  0.3424532177885577  0.0881415098510946
  0.9427628819564453  0.3760987884255071  0.9950168587068178
  0.2289527656476878  0.0833880748717102  0.3625261292796401
  0.2283973787640847  0.0501188176586426  0.0063363498938610
  0.6809163248674301  0.9437388873587117  0.5967440101455080
  0.3457453871659599  0.5586494883920430  0.6854890171223551
  0.5927305860899954  0.5918806580352243  0.1831067627948101
  0.9932589521026645  0.4813829819477088  0.5154896055586061
  0.7712675565838591  0.2590767375810304  0.0880586682288204
  0.4438730611193221  0.1136929541514723  0.8521938962021783
  0.0044495934364149  0.6668600284263138  0.1712571221958634
  0.2274465140320294  0.9375230492143258  0.3453712990367259
  0.8898654148052673  0.1141194698715096  0.8417671064115708
  0.4453506519565743  0.9090936828949735  0.8739724801578548
  0.3435060309385764  0.4613882645318180  0.4459665648903051
  0.9563272718358367  0.6497083332282313  0.3369780230817500
  0.4845506449731899  0.8496542282105574  0.4883605984681533
  0.8986878240529227  0.9472070653969314  0.2428147944404183
  0.7888519742979963  0.5633972661938308  0.3644517175371941
  0.3619806668566036  0.1967298532010209  0.5624528459866959
  0.4118231287375520  0.5476951337509502  0.1500432824904543
  0.7057478700742981  0.5782894487997438  0.3573056244898433
  0.2927236312567365  0.8788604881425206  0.1854526989361775
  0.2273277360386486  0.1188388231980712  0.0181626907214721
  0.3222287254885132  0.2236957869927200  0.7966472098939039
  0.6127050442132392  0.5166565353070443  0.0288978568287910
  0.3325650603480896  0.6798675999854639  0.1074681303261430
  0.6480729668154869  0.9593802281410412  0.8654395986391539
  0.5646986479923476  0.4138900957495071  0.1843332524990309
  0.7234245919933181  0.4384230850113945  0.8190671025323910
  0.1483587600687182  0.5294521492456278  0.0075548987990528
  0.6620271090839501  0.5840805506979906  0.3799042656166123
  0.0396578538810135  0.2207046717378104  0.1068776176339573
  0.0724563693262828  0.2594645615493915  0.6123202617880263
  0.5196624634630612  0.7087919287334287  0.0662761617796564
  0.5273620997778464  0.2205873286468633  0.3467519947415472
  0.9452746696684663  0.8303894008364819  0.9763768596153543
  0.1161173267793349  0.6422301861002437  0.3962700545905332
  0.5441242464621244  0.0977509703604147  0.8433329854142352
  0.9490011910291121  0.6778125270385970  0.5883393727611549
  0.2418131585024263  0.1853587035140146  0.3817686161698730
  0.3564690713286818  0.8689697802393397  0.2653870262446402
  0.7577980500674438  0.1891544458495455  0.4081692956296932
  0.5846447929815174  0.4418401716827591  0.8487085357102504
  0.5049334599768310  0.5169794540548504  0.4650891907008594
  0.3265380487254300  0.6359378806705293  0.7186017130185067
  0.8053073176451706  0.3305608624446037  0.9324001749247488
  0.6135146459868807  0.3015001159382839  0.7297486474102426
  0.0982973269357605  0.8550380229221839  0.4708304170024392
  0.9677734567232462  0.5175352125030654  0.3010733199241868
  0.0128553720554164  0.2328375552532339  0.0347819779079104
  0.6043125157129567  0.6577035086300671  0.9425818458770449
  0.0959386120580537  0.1849125813695789  0.5800284851714290
  0.6659378035676649  0.2453603102599455  0.3063870564434335
  0.1292827260890917  0.2686564553790052  0.5495796884194539
  0.4726442071952028  0.5342128846582029  0.3103528873831725
  0.8072884832084580  0.9066902933637512  0.2392839722289682
  0.7157948467947598  0.9178108676926889  0.1961151839795183
  0.6246792779688900  0.5883680711946135  0.7936389254227356
  0.5547062585770541  0.7808431649483233  0.0603676064264700
  0.4231616706636901  0.6454652006699394  0.5271368969000669
  0.0997452257680178  0.6624125455906896  0.1546607644141651
  0.1219320731954761  0.5353444679052002  0.0782210411605595
  0.3393040802338176  0.3879736423414715  0.4932275747806618
  0.2163651193492236  0.0066937976284775  0.8885365964639969
  0.4613306124962795  0.7035379789840164  0.0198704756572698
  0.4575251772246559  0.3081667397610315  0.8462203106675684
  0.0806623560732062  0.2900074237186304  0.1977254989726582
  0.5130333479886232  0.6987108743795848  0.1403535644305716
  0.5380901509268206  0.0977309715250698  0.3878232459006234
  0.4074914537930874  0.8945605762731650  0.7507849099747366
  0.8225500423231208  0.4761874050312642  0.2536666637101194
  0.6608123547140091  0.1469837843481236  0.3949505185801906
  0.4568446561468827  0.3938460733354357  0.4046560496294998
  0.5747347017246541  0.1496825172668259  0.2686299662377338
  0.4095361738470321  0.8552574362257807  0.3670215348449690
  0.2777666327369593  0.4955679252316008  0.7727543659439513
  0.6372299056706656  0.9193382130418426  0.0266419266110360
  0.0334063281000125  0.5060339623426346  0.3350230451266890
  0.6982083805836237  0.3944286915354553  0.2700653148184134
  0.8233711964060437  0.7253801012827972  0.7508019081132663
  0.7518141541406121  0.6420122203084619  0.9684871910190357
  0.0394875687673922  0.6660829146626670  0.0786887716055556
  0.8152451248802476  0.2587498988884960  0.0011704044681578
  0.0023169554681808  0.0455058792478546  0.4469769360047252
  0.1102258642998600  0.1366899705074223  0.0706564812660478
  0.1674252182045990  0.5986724998515141  0.9780705606992678
  0.1095040974715193  0.1760601047603409  0.6773859676806706
  0.5053329036438442  0.3314560860159813  0.0177429337319989
  0.8928364100732710  0.5356656205946554  0.2403967862316906
  0.6161997410865162  0.1608710116299731  0.0473288966311628
  0.8330057953227968  0.3354189683456194  0.6178608188434817
  0.1192192676882988  0.4065032632214761  0.0618287896573975
  0.7734191611500961  0.5051361846057503  0.8320250087618312
  0.0609676759666997  0.3580401527605223  0.1591202010542566
  0.0157698720325763  0.5171875612084332  0.7831000795343915
  0.9785482240589000  0.4813645111634413  0.6949023154059669
  0.6008033836072660  0.9907204551582544  0.0194117796688954
  0.6959635194360161  0.1751583491585673  0.8163350048081762
  0.3334731574987880  0.0360921063281690  0.4600060991989780
  0.7664486966126349  0.9754470110887755  0.1088118017729559
  0.6342573038051688  0.6661210260502914  0.7884086113988426
  0.9661191724690523  0.3861139385507152  0.3791574856644998
  0.7949067504239209  0.3957337783484050  0.2884066983411614
  0.5657264625842721  0.2801782348246243  0.2517620900964101
  0.6976674249007865  0.8537166653804499  0.4569401494729651
  0.5514639940945657  0.6458980129471257  0.6059896333339776
  0.9825957530341184  0.1691058153370840  0.9489192951892234
  0.6808415475080313  0.0811210021639456  0.5849468939546379
  0.1991935452357902  0.2672273641734770  0.0767307390661985
  0.2767179100408433  0.1483736103941039  0.2196113832277461
  0.7442538122022468  0.6669700649851674  0.6485856303207683
  0.0105399675567136  0.9626219878232534  0.1312058685623025
  0.7136507210292993  0.7895378631365082  0.8872684209152951
  0.1893726084056986  0.6977956424983676  0.7447046730223510
  0.0210169851675358  0.2849394701327156  0.0811935827349270
  0.5456443137184558  0.0120263111293636  0.2026260403079700
  0.4635870165431498  0.4681127168566989  0.3247996409239480
  0.9678360871777969  0.1530761261668331  0.3050082869809521
  0.3895134701442564  0.2049181668273298  0.2119353395074951
  0.4581923983667818  0.3742988169276030  0.7666721027366433
  0.6534100324064525  0.8964839263305130  0.7487094308594687
  0.4053618776208275  0.4357803538294417  0.5614601971019030
  0.3402133419465028  0.2898582884904299  0.9685435841138305
  0.0093993501660800  0.5292356053568329  0.0580402254195173
  0.6573534436301730  0.5174648224702125  0.5904701768368358
  0.8682021953221134  0.3230743857983707  0.8769000484741530
  0.7086296866633398  0.1086144677747693  0.9558991853266469
  0.6198535569480319  0.0306464738763786  0.0726474029431753
  0.6480574082327322  0.5837304611203609  0.5751200796467264
  0.6509052456956960  0.4723151320442396  0.2168912090036226
  0.1439120396186875  0.0191911086606009  0.4183469420756676
  0.3782130776501124  0.8245882205522661  0.5341896582053854
  0.0147241906018391  0.4437271100139463  0.7638189637842759
  0.1476159680574561  0.1173987247233049  0.5895032631897837
  0.7775983266197694  0.1208981062380910  0.9309577814577547
  0.7695707225098017  0.3314714259328472  0.8667863380719490
  0.5421117932681017  0.5750053317366106  0.7426099234826781
  0.3410353472978612  0.6053384967727673  0.6236790628346287
  0.8516152287457477  0.1858942283207453  0.4690554516947034
  0.0057330483292038  0.0529974457893929  0.5763545069495736
  0.7020271277227462  0.1031890967227162  0.8999087711931372
  0.4403149618365032  0.2330642903930429  0.0506209506032681
  0.6652696943782934  0.6782428918559019  0.2451965980942643
  0.6812831089130531  0.5874684823112675  0.8428768520282607
  0.0044684773784024  0.4073247924296596  0.5923916205729689
  0.3285314575897990  0.2808804603490525  0.9160902909842197
  0.6525384611002948  0.5143574127949454  0.0609454783283224
  0.3319048979791575  0.8996075759728135  0.0376437699489197
  0.4362107752337966  0.5680160796007439  0.5882881563176329
  0.4596260806579190  0.4399998742511370  0.8658084690466048
  0.7588729055677715  0.4845054872401904  0.1860433576467337
  0.9217997691835133  0.4523658141835175  0.8085816693638818
  0.3115297701894688  0.9458732834636335  0.1931546351139491
  0.9705634276148629  0.5975977090750790  0.9838775592756333
  0.6853052146439322  0.2651759096052344  0.7474505704827056
  0.2202348924949764  0.0082468953821036  0.3108101209075549
  0.3357083274956630  0.1537104960938477  0.5128170793290594
  0.0088554305354612  0.4083043000893545  0.6892159180023908
  0.4724280221936182  0.7357145791227702  0.2981259331145311
  0.6038742572861868  0.5329704255571094  0.3097046498286430
  0.7944112335261176  0.1226988258099432  0.0717400989955978
  0.5584807652583563  0.7226712347534255  0.9203533513182800
  0.0024601953214570  0.0817691393734761  0.2059986846191164
  0.7439072038881470  0.1382218945826620  0.2911772188993388
  0.7039799176475061  0.1482215103053684  0.6413716407313784
  0.0094016467919442  0.7017150804957552  0.7089639164908530
  0.3753837112128280  0.5583805282781628  0.6351205382824672
  0.4400704306017270  0.4231839975478487  0.6067920362839990
  0.7216492817053436  0.9734142813004532  0.8592110170235805
  0.9313755561387926  0.9819659416336520  0.8367096341328345
  0.0302867258599542  0.6963676507771731  0.6901105885605664
  0.9572708298358074  0.1516837653275019  0.7534585003381618
  0.8530382115941459  0.6747343935486655  0.9835556627779528
  0.8469855802242462  0.5268803255902836  0.7493184734828984
  0.2666662239027129  0.7511510554772468  0.6704002348081747
  0.8244822678419117  0.7309217973571027  0.6218099396809289
  0.8801471660054353  0.7672760218915244  0.4690106440574709
  0.1712616155575642  0.4191477291748421  0.2273125601099910
  0.4826910009961905  0.2091276701376662  0.1856701534940558
  0.5020614466444185  0.1484363673071255  0.5325142314205549
  0.5784461583168754  0.5074322612801997  0.0740862451633884
  0.6053007599257861  0.7239739919177464  0.7166294888937113
  0.3948128959926804  0.2368759999732452  0.5644284325345164
  0.4924811439120849  0.7759788832414986  0.0167335651437062
  0.1762376867554987  0.8467285920520502  0.8764893408031713
  0.3893405485455083  0.7996915130014516  0.2902277154426565
  0.3416306780013447  0.3640673595885028  0.9457528808237908
  0.2580394133252571  0.1508831944461199  0.9041292601713109
  0.3000624622086916  0.5081605190637978  0.5509153744616260
  0.4937911463341035  0.7670971150669685  0.8081592482192322
  0.2583092177097562  0.1785326118091336  0.0508384779703066
  0.3682203505581192  0.6159609303372627  0.1652100698184170
  0.2941194987273961  0.4095180121009618  0.2064192875350153
  0.4525061336950804  0.3061857263834286  0.7193244239425035
  0.2398681402146666  0.9087734582965964  0.1066279700258831
  0.8023949102971667  0.7952789673385674  0.6034827559446507
  0.1151896525277977  0.5892268017944992  0.8934003603723539
  0.6915915751293182  0.6576142614694460  0.5833500310539008
  0.8834657905070812  0.3304170342036979  0.7013307721677594
  0.5588698240113044  0.7582156538020151  0.7739130717203010
  0.8140203854112547  0.4760188389267824  0.1778870223011691
  0.1123316762970076  0.8718638202894051  0.5717923329841367
  0.9479736863688217  0.8489586093283094  0.1458120177565868
  0.9253630864951378  0.5817839735585715  0.3157222028947919
  0.5341677825864434  0.9801422542522381  0.9635604891924822
  0.6672854619553238  0.0328909745202985  0.7635974619172071
  0.8570021847627810  0.2587816509781424  0.1125064853997508
  0.3549076203551992  0.8614837471261609  0.4177373393817758
  0.0162485666676379  0.9841720772790400  0.6046398475179180
  0.4032640573982053  0.7168046346382634  0.8772356486958942
  0.0572323130974100  0.1703788267518468  0.9609233814189184
  0.8208061039681775  0.9841147437844282  0.9316466621255795
  0.8845738895651887  0.2592767897252413  0.1193458988638555
  0.1865647413472136  0.1383311768036495  0.4212539318029812
  0.4322779005128435  0.7622063119388017  0.7643692130109297
  0.1667896500437545  0.0037267615367268  0.4259800123894500
  0.1612715602051628  0.7280084499747053  0.5765307891275699
  0.9132763458269052  0.6693090527646625  0.0583935236678406
  0.4956051459790098  0.8403143926606336  0.6849746144055376
  0.0189266547360217  0.9829115232694784  0.4820645763679173
  0.6352988918312494  0.1859315268763517  0.7448627889148537
  0.4881922571901536  0.3207328696604058  0.3601309679452693
  0.9704608671367493  0.8384777305498199  0.5861388879189622
  0.8046904932622559  0.3356045432911967  0.8022391334117550
  0.3870604136504842  0.8276182338024386  0.8650734165699219
  0.3740189297468472  0.5477195077513962  0.1185216775688760
  0.8827259123029858  0.8328100234426246  0.4381914487057836
  0.4947574460878304  0.2418118972826460  0.7912241276179075
  0.2390125652827163  0.1763963443818654  0.6823971381341913
  0.3783707437350124  0.1454111849289489  0.8542386534523395
  0.7988444851670593  0.7101050678144314  0.4040816093593796
  0.9012106097223390  0.5255186970287113  0.9044050348664243
  0.4596203201456274  0.7006605324999640  0.7183672075154550
  0.9780827330144696  0.6563455530136538  0.6947017481726768
  0.5846864518308118  0.3061770343122744  0.4448125817081033
  0.4777825231543181  0.8255627850039852  0.1506693044500479
  0.2701594318287324  0.0788533547476579  0.2546092943021291
  0.7970119228081569  0.2667872011012984  0.1701071923236070
  0.1314159933013662  0.2678984052164607  0.0081546612749504
  0.8107495295560861  0.8928489105564982  0.3355898644380191
  0.7150212669221888  0.2121335874821422  0.6959129485533534
  0.4923681906859816  0.4917112678175987  0.1184117149345172
  0.7843821498740670  0.0733637359691547  0.6264988935965048
  0.3439296797185766  0.7844779237231222  0.9150279893364381
  0.2257956891176577  0.6557939381979495  0.1742625737106184
  0.1757770182592097  0.9594774508732193  0.6752240136860298
  0.1241575215675934  0.5070489986030352  0.3778493470880643
  0.3716328622332946  0.6235373145218092  0.1166370730674735
  0.6847463693048801  0.1073642162086322  0.7870270555858113
  0.0011473801643224  0.7582452846459969  0.5148687734519460
  0.5849588818078600  0.3823374270124467  0.7836191748415822
  0.3772765508484723  0.7593636673108054  0.7507528499412757
  0.1907178232364984  0.1683545305863381  0.7390759648766393
  0.5657676443179813  0.0913809813076060  0.4273259657233464
  0.8024287352269300  0.2644284452264025  0.8231935296766798
  0.5620166619717832  0.2229004006161084  0.9236163378334192
  0.9869158939171063  0.3517159770395016  0.1581469216063255
  0.9232559590272820  0.5520102596789211  0.5136573290405680
  0.4712721261191383  0.2836627172412273  0.2152336444660347
  0.9588515270827150  0.5039664127831871  0.3473242827408909
  0.8798494377406341  0.1892672710456832  0.8137888704799484
  0.6076936660615480  0.2298849409232954  0.7280515358972643
  0.6798660601765644  0.4410210288857835  0.0867045684700253
  0.9115240198062995  0.7837613384592257  0.9048506289264500
  0.9422790760955689  0.5152450215328187  0.8677989454677150
  0.3639371221268491  0.8930285320976061  0.5394269771105600
  0.8499144550740505  0.2568121337404286  0.0859530701242935
  0.8370189365993548  0.3305415026664857  0.8394443981924999
  0.9730750472128655  0.9825150474043917  0.5013348007477935
  0.8575872370742813  0.4048570555778023  0.1616585718057518
  0.4119592448817080  0.1302915747340659  0.3290515098500214
  0.4160820475828973  0.6441192939836822  0.8261757228653135
  0.7115408088034264  0.0192622496876180  0.2799639081568184
  0.7231795987792734  0.3624745802059340  0.8296778174625529
  0.8465886273222877  0.1545393779277955  0.2965840991369627
  0.8684533895409708  0.5193256130614539  0.6469229211359343
  0.9900199719963554  0.8278573241017808  0.6557967175450128
  0.0471915117138316  0.6241097803640948  0.6885657021989786
  0.9093658634630675  0.2642750951531286  0.6519341235934815
  0.3907436440038720  0.8183147471202359  0.1048883927703053
  0.0936231258254352  0.5366928919059611  0.0726603319697714
  0.6050446907825877  0.6584433779701669  0.4006326454464921
  0.2002126662167453  0.2628675448157220  0.3903358820144533
  0.3171041167694587  0.2221445672300492  0.8244912589435239
  0.1415444327402665  0.9923332130831549  0.0846889468854115
  0.2805688330116909  0.1498617725646305  0.2475712808522330
  0.4323072634978876  0.7716651117859717  0.8673678912369398
  0.0031614907692625  0.5684708850642902  0.3793060103503362
  0.7316375540883454  0.2735989790887933  0.2044550264120424
  0.6149437449423621  0.6621697640242181  0.3745400027406631
  0.8583269431694125  0.6640013967581585  0.8813204185993007
  0.3986310568020149  0.3497132771160346  0.1068640539275124
  0.2864078513400944  0.0437384306939346  0.5496413481768454
  0.4655002021606472  0.0586243457275810  0.3578238576885723
  0.3577719457884635  0.0422928631961254  0.4711580202180798
  0.4603435209816992  0.6908810781497954  0.1234272525374674
  0.0038434005506367  0.8045046402171283  0.2380388255775237
  0.7738487577810019  0.0732579777744276  0.3493967174731461
  0.6242183448376653  0.0767025889283084  0.2677413764445771
  0.1755212788760754  0.7823507371331443  0.5483089605496457
  0.6339013314072086  0.7238186164981169  0.5817018056912712
  0.8420997251419160  0.9765023902813712  0.1223876215418723
  0.3602942613646135  0.2951930779208206  0.8061232020650108
  0.6148467422193747  0.5114439456863922  0.1034401247642375
  0.2677075946081068  0.1078438739917917  0.9273393302217291
  0.3055482819224701  0.1537709768985399  0.9193637848212812
  0.1250335509268100  0.9244111262966433  0.9495936340275457
  0.2926931518718016  0.8320728424760888  0.8259882472790785
  0.7335531336274795  0.7890475160039234  0.9075286718500499
  0.4857058818712380  0.9969305020954434  0.2593511788768920
  0.0652574249403569  0.1733654399565595  0.0105436663148001
  0.2583994528104490  0.7128016029088639  0.9131987331983930
  0.0776796856332191  0.1094770097596539  0.4421644745507110
  0.7211514210435086  0.2628506355478120  0.1063598058882511
  0.2487096947219746  0.2099654742187016  0.2759419941612907
  0.6190572645110545  0.5222546506726023  0.9805869252821749
  0.0153684300711288  0.2644255171659719  0.6006328934044876
  0.0670425036734748  0.2479127917174992  0.7041815388216687
  0.0551088982546195  0.7487558478924964  0.0798717928410243
  0.8906193291481775  0.0092609166487821  0.6798859602038150
  0.7138930496096970  0.3764960321078736  0.8526117427713021
  0.4662287571872181  0.5386569872065755  0.9226099732230560
  0.5165719882269759  0.1815795995293446  0.7107290745647442
  0.5111289866851365  0.4169154054833334  0.6411634785425696
  0.4520563533757637  0.0351620686865331  0.7402254534933814
  0.2844971527384293  0.5205964397340074  0.2317138238313690
  0.5766957864994865  0.3682056169586718  0.5866472498757940
  0.4862381789416215  0.8476450026549610  0.5375745260543706
  0.6045266804959150  0.9036583594302744  0.7574573634336642
  0.2093587027651958  0.2612924785948956  0.9832128696512749
  0.2432407273687687  0.3108829180667060  0.2496173522677289
  0.6127355351890382  0.9702407159312034  0.7713173431526399
  0.9224434703257227  0.5918367613138056  0.0700767181262594
  0.5533171550913226  0.7102706230313036  0.1015409164255315
  0.5174528384661133  0.9737161800127044  0.7325130772021430
  0.0932532560796159  0.6000857411243653  0.0219478842552852
  0.6308851236853281  0.8147578305528206  0.7116292818194895
  0.0688737009947766  0.6084047454314687  0.1492831906635798
  0.8263833264186465  0.2022635751034894  0.5974104119852797
  0.4249728086165847  0.0525327952548594  0.6309613110116065
  0.0592406588885542  0.8807351892283407  0.1395441708010553
  0.6329692279252250  0.3844303288122147  0.0035197272756003
  0.4208206659942806  0.9049854387857897  0.6491735682890289
  0.6800658703294604  0.1922483143207103  0.4410758035854153
  0.5794682270880483  0.3018991782547333  0.5165952546599148
  0.1938331953440270  0.6524306116249574  0.2669011507360883
  0.8234831737844163  0.0536324514287382  0.9945641157473918
  0.5881254307483726  0.6713804125334329  0.3047256834267023
  0.3871000263169613  0.4414327653915344  0.4646258984142264
  0.4323559282976910  0.2592113156799842  0.4510236511204728
  0.3521448555277082  0.0943760289880718  0.0765856570134785
  0.6987931682796831  0.4460045495916600  0.8289662859450331
  0.6718729237528960  0.1434807788159466  0.2827900917179379
  0.3500162021828777  0.8955042430622524  0.6703710071310514
  0.4753667832055350  0.3208448381406295  0.7055684013023298
  0.1777463987425150  0.3417798800067796  0.4358208564624411
  0.7554675420859591  0.0678466924474896  0.3287442031878827
  0.9087610407919484  0.1963692095871128  0.7343743153638349
  0.4430559095829664  0.3165299581262471  0.4191013829916031
  0.9062622711160422  0.3089060678452595  0.3847388978599254
  0.2795886262888970  0.8238786728439730  0.1082481780636634
  0.9674566005194803  0.1879848240864640  0.5753113777138662
  0.1050929451933091  0.6018783769740855  0.5582694456746338
  0.2738482129915251  0.2350830601053849  0.9151747157960404
  0.1492090819408424  0.1190958030145891  0.5392127241554742
  0.0893011573055989  0.2263985606993546  0.3981522573897784
  0.0632005696308460  0.9571670990839346  0.2848135502885200
  0.7338834642578697  0.2150085718454149  0.5603439726701157
  0.5215777838554146  0.8412796318606164  0.2215348132137687
  0.0233446083571068  0.6802260640922057  0.5965719444979920
  0.5864513051583800  0.5101623646922500  0.1450429365987678
  0.1104285612464615  0.8971544805040270  0.7248092159821826
  0.6759058266794410  0.3090658798144316  0.4847857767211377
  0.7866698654908304  0.0534838939557574  0.9518160556295940
  0.2701691842159973  0.1188084500269497  0.5227152946199023
  0.2229778427813708  0.5295946319827169  0.9944090182346303
  0.0018428365531869  0.2998564635048344  0.8191079496713547
  0.8300451733479087  0.7198958289636939  0.9135337693491685
  0.1814165669002938  0.6703303225397355  0.0541270487041870
  0.3323822742238525  0.3630364536070771  0.2466501749682388
  0.1320096921970085  0.1708061383726672  0.8982096534277529
  0.7338677615371840  0.4967205501606362  0.1132030638360289
  0.9340476852356232  0.9249799618405879  0.1593411956575068
  0.7604989894843918  0.2663947668986634  0.1359393820839062
  0.3811410788622258  0.7041634719368418  0.9964647448648454
  0.8341484762160646  0.5017247167726671  0.5003604621666132
  0.4800972944710584  0.9831669677140159  0.6460643511195548
  0.1526626452327012  0.6511249583687693  0.4908095245666494
  0.9833375663664752  0.9624474926845799  0.3137411876639907
  0.7215918207791743  0.7827977783050855  0.1068446606876560
  0.8031897244798953  0.4151077203738399  0.7292139101351418
  0.9346921231959725  0.3406076817931836  0.1379251245094339
  0.6077553825924541  0.3900678975046837  0.3491115355945184
  0.1239756721660843  0.1497305751688784  0.1830134874598744
  0.4935894647461466  0.6422362704526506  0.6894714961565849
  0.0805122579720825  0.4790241355793525  0.5248429202957099
  0.5817854987369180  0.0922045389739186  0.5667330024716167
  0.9550499461520138  0.2609485129312117  0.5589080760204838
  0.0888215312251505  0.8779321453256134  0.0182283049963800
  0.4042365252540129  0.6878305431570477  0.6325478906186062
  0.7652380848456530  0.5682020923068225  0.1384139056028044
  0.0320720344546483  0.7018933933720236  0.4533969497042991
  0.3541211966750418  0.1211380374411562  0.4846177895867378
  0.0993313792895642  0.7237243650803598  0.5171075331094792
  0.4787055117475262  0.4267589751716214  0.8497453121467143
  0.7385154137450499  0.8177778643605685  0.2542700296193636
  0.6062768148385387  0.4318036094821431  0.7541913925430618
  0.5971778634050389  0.9347598776789582  0.1919670341023005
  0.8818049599772352  0.1070176390205288  0.2656611827361681
  0.6616240634484759  0.7898667121570029  0.3859048325457414
  0.1765110466818335  0.5293988287630387  0.0123541344091284
  0.6078623823973016  0.2403238745014018  0.5075977186832067
  0.5631591486781030  0.8987184751197841  0.8188644910419136
  0.6564177713672835  0.2531128942651124  0.4494637628715031
  0.1752724461303438  0.6761590968463534  0.6136577180529095
  0.7533809570858950  0.4895270867921365  0.0370655486031038
  0.8079888394883026  0.2073432914709752  0.7264710050512572
  0.7276324898289961  0.8182274220589784  0.2281021054424003
  0.8328752461090194  0.9183215675951486  0.0119266602687633
  0.0265435735228545  0.3747905785598575  0.9431245641562329
  0.8232854596489905  0.8472889304906843  0.2188461889589352
  0.8678499983774909  0.8402297884177983  0.0454528070010131
  0.7262117220160387  0.3168763671805782  0.8740533083268172
  0.5543608479135708  0.9131454775842731  0.0380909352066171
  0.3774881238099915  0.2986706629351537  0.7855302572741636
  0.5510207932958425  0.0250174057776034  0.8116791610581782
  0.2878764854411485  0.6368921084208968  0.7492734878232690
  0.8706906975329681  0.9138123656464987  0.9333701789606015
  0.6496358183482478  0.7295500896955351  0.7547174187222229
  0.5110582470766621  0.8456202293291389  0.9784825245282863
  0.5162571780179221  0.4716729837128343  0.0231775795628018
  0.2931253597756358  0.7151297344846276  0.4345195727484133
  0.3803064087090964  0.6814763595780314  0.0966778920102097
  0.3964669354906997  0.1741227378209756  0.6824685271156130
  0.8713330617909664  0.6009092985540809  0.8617183084649990
  0.3411354111039900  0.1441348235799604  0.8874722905640610
  0.4109361314607937  0.8508568710158938  0.4161684299978604
  0.4955344509980042  0.1232481183023083  0.3906835697569209
  0.9553714436913053  0.1013585245343814  0.8013887224218595
  0.3740333326607632  0.3100641816652700  0.4058386144075417
  0.1262187437536358  0.2155382057394452  0.2613766537011383
  0.4809220815778740  0.5377002547305075  0.2614651828389567
  0.2410326917862875  0.6600226711970384  0.2573982971855611
  0.3577116036193869  0.1454714978929980  0.2798217422709803
  0.2425959112116554  0.7166974591389731  0.5540261038213482
  0.2342346465605199  0.3367580403498527  0.1616580581411279
  0.3719511784503252  0.2908406369105957  0.7133241770536385
  0.8188396833840393  0.0909360205925518  0.3939382152226758
  0.0898482184024767  0.5247366470932615  0.2731285322006711
  0.1896918744977879  0.1917124566635043  0.5003992030405884
  0.0475007191728658  0.0972113207633575  0.7836582817616096
  0.7213381410321953  0.5735587177056187  0.9159320290733466
  0.0101527428466568  0.7424468342968995  0.2693326346401883
  0.1328360080425184  0.1315903167302082  0.0544621366614802
  0.8866446172047118  0.9125966763370017  0.9096927921172286
  0.3134333083925481  0.5339766472697872  0.3086716218637729
  0.4922712256039862  0.1035519743071985  0.8205168549252090
  0.8071923483235356  0.5717491092409590  0.8137560883556413
  0.3388513618522622  0.2335275019283039  0.7139675419951462
  0.2662037952820622  0.6425271261611289  0.8782339982978923
  0.3113173113348548  0.7428513641656640  0.2229707478681820
  0.6715284741617468  0.1181262421026971  0.7015444770538929
  0.2915043454286983  0.1594537090396117  0.3312038466347245
  0.8922327217902812  0.3277440879976703  0.3039770632430710
  0.0195730249829495  0.4776411338522687  0.5814214404186188
  0.0094928765232405  0.8374957219467043  0.6119389878200879
  0.4787331555390296  0.4778000315478996  0.2498721183197526
  0.5929516205081612  0.3628626114015873  0.6608132126684282
  0.5432331893416434  0.4474717471614194  0.8803684948381206
  0.5405135720223745  0.5765163744389453  0.7922281579345943
  0.8356119511236062  0.5348106721707734  0.5673554007753194
  0.2168514944252604  0.3988368062108719  0.3710411405500916
  0.0649757438358090  0.1438984478947108  0.1037454939826271
  0.2434305386236982  0.1581801370828266  0.8047758905602433
  0.9451628066120987  0.8384487284953757  0.9269404080334744
  0.4639647243487270  0.4446655791784626  0.4501325930167789
  0.2450858848792821  0.3245309010464668  0.4116170133858022
  0.6288797310670725  0.8494660012025936  0.5309355368055632
  0.7287616009593373  0.9213091557946624  0.5246530684105137
  0.3011152053561904  0.3718708553783086  0.7045699776910208
  0.4796813058370918  0.6265102432554518  0.9393901143264667
  0.7784165560501486  0.0371100914093575  0.4458277774295055
  0.8273507320588290  0.3667291233297330  0.4794635731366526
  0.7233286196184813  0.0101754903338331  0.3343139379141701
  0.1614597337826651  0.3410732078854962  0.1637000492432811
  0.0195047631083721  0.5919802647609885  0.9819835749941640
  0.4163157478602690  0.1732899110527898  0.0054328586459578
  0.7130825623756734  0.0407175118864848  0.7480684982239685
  0.8843903889370326  0.1186118428417803  0.5185229851869870
  0.2161329830489257  0.1926052238472916  0.5129816760369109
  0.4968734879656163  0.0398545836612692  0.0220382592253271
  0.0870098200776596  0.8155096104004558  0.3164115696237677
  0.8241644832765519  0.8510786641073544  0.1181412651093237
  0.6607765216238832  0.5988248025121244  0.2115217674761492
  0.6583270373094423  0.8933764909348058  0.8051064481475725
  0.6663458568809978  0.6453288668964010  0.1520879573302475
  0.8589521029524461  0.9737285340349288  0.0999815552428719
  0.3582457100167123  0.7264721253391732  0.3617364859348999
  0.9814282909669940  0.3501854421572288  0.1298964020187959
  0.2789153474014007  0.2378834560509419  0.5921077408581659
  0.4447353737763020  0.8292541503270091  0.0535644453232615
  0.4711527254478112  0.0655247879292414  0.6243492591517821
  0.9229614382351559  0.3182436511471829  0.3399816649688364
  0.1933592012622448  0.5743408631283774  0.2945362154934710
  0.4294796629560012  0.5499429014279211  0.1278828230911680
  0.9127583379108678  0.1142813475665442  0.0430792623862338
  0.5790924999738987  0.8619612740807703  0.3635631277440374
  0.9402420018941564  0.6965219151425230  0.4371936471727379
  0.5962891145608052  0.2351448248999903  0.9891675488072801
  0.4110043059450822  0.5969531165602225  0.3639593855970928
  0.6909915626280988  0.4812526156691642  0.3771569679801021
  0.8592645261373592  0.7781810780144246  0.7922964105214273
  0.9951925398257455  0.7685899093636706  0.4394252779333871
  0.4012709302705366  0.9114997492463596  0.9617615568694651
  0.6907796909356438  0.5876594243569693  0.5525555408103541
  0.4111305916334963  0.5198982760105408  0.4248220987127542
  0.9188732152876796  0.9074903587365217  0.5004860479665167
  0.8366457063669694  0.3361525853913677  0.7105949176865164
  0.6552518063638580  0.5996675118728766  0.3077587770190970
  0.7240183666722885  0.7838266561100039  0.5441307928959024
  0.2600647168153022  0.3821527379302452  0.9924588308822734
  0.1256105009016463  0.3261962539864832  0.3856911756656475
  0.5968338801980643  0.3750470151848209  0.7592808228424250
  0.0279812018756293  0.3250732062360825  0.2479527788483562
  0.3405786160601565  0.7867672258199215  0.5048642927918958
  0.4271706778503572  0.2726657924187325  0.6237554704474425
  0.7393838843804633  0.9227671519683295  0.9240799541608197
  0.6243401495719134  0.2354166248814937  0.3211908148988666
  0.7411365796234737  0.0528081383608784  0.5086364093605007
  0.4588550205691857  0.5640854967849643  0.9151736256588906
  0.8614164213715287  0.8447457230551019  0.8741142839981439
  0.3855299697202057  0.2799369750660033  0.6928647370589810
  0.5730828754339664  0.3094817954996902  0.7019146956309567
  0.8548300242213195  0.7763578953381256  0.5394486458366945
  0.7033281773756483  0.4714688422135962  0.2709531965224856
  0.4143790188406831  0.6020547443893751  0.3153327859023826
  0.1896903922683344  0.4724584650060303  0.0095996074230964
  0.8060834788348364  0.6362629949089420  0.4917596080963105
  0.6659225846220499  0.5880667726887865  0.9159793590279108
  0.3253236417827111  0.3862233228768965  0.6110969438828484
  0.7151393375233622  0.7948530718809823  0.7613899861954946
  0.6262904715716802  0.1030490052867006  0.7410651331331696
  0.9073145310015398  0.3869672683068843  0.5261014926362354
  0.2998181983120031  0.2878284490922143  0.8767495475396856
  0.9488717110719095  0.1255083382185609  0.5813499474241114
  0.4669773134482408  0.6300090032664233  0.0429408033667552
  0.5989164880016226  0.1644753889091299  0.5603376798784219
  0.9969824820020600  0.8458962651346058  0.4882156782357919
  0.1522544835007893  0.5090348232621700  0.3780953880423867
  0.5225725806689812  0.4548961573167515  0.4012005228909455
  0.2934932579967608  0.5212844450756040  0.5962724068132655
  0.3811287752094111  0.8987541362676954  0.0332359153983519
  0.4011025500230107  0.2095743087323856  0.1646962667770444
  0.0003397612064797  0.2709066293739144  0.5454063653752091
  0.3494112564878655  0.0893010374286685  0.8338166701700972
  0.4453028841387835  0.7090647548150183  0.5408648760120945
  0.3038171933636272  0.2514523307294665  0.4567323353279436
  0.1079136982549515  0.9645206803887085  0.7632192523347979
  0.0423410844625006  0.5197908848737118  0.2888027581693035
  0.8035052933779800  0.1233630852438079  0.9415828401925054
  0.2488441772256367  0.1949520358477436  0.5522756736003628
  0.0653236647387352  0.7815645419149203  0.8791878923069483
  0.9046684772894595  0.4613746846855816  0.7101690641100339
  0.0599334443161444  0.8900516805232404  0.2846740907431657
  0.0377861972474699  0.3883268535849763  0.4013275088670047
  0.8918131657465572  0.2442536667237301  0.3181796420643144
  0.9977153372472097  0.6841241661554781  0.6568227886346411
  0.7868414120953604  0.4295257549935955  0.4737355744992405
  0.9534950823184314  0.2392872057948591  0.9263752169269882
  0.9060742766733469  0.6081076998962752  0.9472311268013762
  0.5347827366714984  0.9207819873004404  0.5087352517958313
  0.2046592899203847  0.8298859749276728  0.8290401792415217
  0.0670048812294134  0.5349948837348761  0.1437295311597102
  0.2153604025706612  0.8776967950230243  0.8608870378831514
  0.8383589102969820  0.6928249808080573  0.5436870650706670
  0.4413269893893943  0.6974229098266452  0.0391636441637383
  0.0883222485083303  0.4007532469157564  0.5895545796458883
  0.1753369764362611  0.2726949947717415  0.4591436906996803
  0.8444054440897940  0.9175142296193574  0.9850577697574822
  0.5011620383341390  0.1001853611516778  0.0551929992110301
  0.1005093525043475  0.8034636849600474  0.0963707435679766
  0.5516358132128509  0.7883674096439243  0.9564626162116803
  0.5414447660683228  0.2547196922323647  0.7005074645877341
  0.1422081217541285  0.6007833874630384  0.0214237217105873
  0.3500410315131002  0.2277190865179932  0.0768615897284724
  0.9704285310025740  0.3051393917738087  0.7814850683504257
  0.4938543433657296  0.7739064111093472  0.6291631327834618
  0.9674414218056316  0.1240195429503314  0.0923828556532576
  0.4393744385296549  0.8516625015858946  0.4158753111206817
  0.2238109804632663  0.0887261719622642  0.8041686461630481
  0.6970421743685155  0.7864288857343226  0.2014793360415259
  0.5289857136696990  0.2632805353294139  0.0069423154301634
  0.5115549429464976  0.7973004987406624  0.3353359064876623
  0.3289243411544625  0.3673730912645872  0.7030515406570131
  0.6916088740768627  0.7297442541885407  0.3348904124402192
  0.4410053651455075  0.7607014710813594  0.1852196708189953
  0.1782925090418454  0.1612958473786055  0.8409137610525036
  0.6922460995837626  0.7930935749180168  0.0229270328416105
  0.4114487718193754  0.2756971370690625  0.6009809151889809
  0.6351835448043341  0.1487504913276181  0.1592593125558237
  0.2565948841115830  0.6634802487297384  0.2109239302624682
  0.3297603654507360  0.7542334821064369  0.1412473116725850
  0.2985835898798719  0.6115743059851826  0.1365775339695613
  0.9839409479621005  0.9667037465205646  0.7221737084099396
  0.4482767822735043  0.8418121964359727  0.6139236535101521
  0.5739663635515135  0.9063308112001991  0.7202356505835937
  0.3671036757506546  0.1556072311052580  0.3325888928868866
  0.7289188641237323  0.2667562554123161  0.2794494754362261
  0.9127174439426120  0.9572101110181324  0.3436900835236176
  0.3199158252343524  0.7175215329815341  0.4259325764215483
  0.3112193294818359  0.8678794264253215  0.3409578537827938
  0.7810298489114510  0.2590270432075970  0.9340008463046293
  0.6262288457663425  0.9168786945538706  0.1488410402367964
  0.9510127270475223  0.3871713504680324  0.3548286808664725
  0.7675489204163840  0.2550280113381725  0.4162655862210493
  0.3228948768250412  0.3551229226220637  0.1699296999933619
  0.4777576168520530  0.0001660094804395  0.3344715277404884
  0.4800394523685808  0.4137807314922499  0.0844080743489405
  0.8402568946114596  0.8582024792998700  0.7759089068155839
  0.1995137668086801  0.5210622877857894  0.2161773671954460
  0.0345670048883863  0.1493787507699205  0.2534259194221686
  0.3025131832384257  0.7118830744592647  0.5095138017449155
  0.0074472401786405  0.9394373496962165  0.1503023040778654
  0.9485400681384458  0.5388711158288216  0.6691423525544687
  0.2581203191437248  0.9840798459146780  0.9787412530788305
  0.2126509629541326  0.8427308199398242  0.9783075845191478
  0.3077652273996142  0.8122873779947030  0.8409521878869695
  0.6772090748916140  0.0780991715161017  0.5570481940294112
  0.8590485050983190  0.6501601189363225  0.7265199652109169
  0.5758747403337676  0.6515294075290887  0.0222943432431637
  0.6218214393867805  0.1679584596373317  0.5162471188610774
  0.3466755585852248  0.6856932170334551  0.0605264532109258
  0.0823412899402259  0.9014566287437376  0.6844913436054151
  0.0639792661510006  0.7287168864868666  0.3376326314377877
  0.8098960471405292  0.8480294188045598  0.1931737055131890
  0.2113277579106248  0.1937320646800169  0.4535248097903297
  0.6969670784865266  0.7288761364417526  0.7660728853493231
  0.6978485301793325  0.5140071020563663  0.7707545723506513
  0.6025033076731438  0.3870983824955757  0.9064449615088485
  0.1799930689988768  0.1454959952739485  0.2337099789669160
  0.4079676217280954  0.6422813536867603  0.7781133481555419
  0.4013621291506658  0.8294447578220838  0.0305153731279246
  0.1287712928597531  0.1136265214874502  0.6339284123015339
  0.1414113005981369  0.8732410561098582  0.3347529631477740
  0.3205608709197699  0.2538455682055461  0.4347663397940850
  0.6627404949449575  0.1505379718102766  0.4847702247645517
  0.4036962475440416  0.0118808272454531  0.8477738201140234
  0.1112488751993579  0.0460474475496352  0.0456838354666198
  0.5519725150350167  0.3005092008981021  0.5239278251679268
  0.7688269980559452  0.8896675946382918  0.3114796031348689
  0.3715081695394341  0.9617817816672017  0.6598983435690817
  0.9488019099278372  0.1749049747941375  0.9893008795815760
  0.2140336228192150  0.7893004671548469  0.5757632985698637
  0.2276455228053952  0.7099098696311478  0.5071526946949017
  0.2588833995461443  0.7966168793131432  0.5629098514823899
  0.3646368120981681  0.4857269742281947  0.0861405485108807
  0.0825153345966431  0.2691284345635535  0.5649130375024900
  0.6869818220485684  0.6693414522384044  0.6568552387171740
  0.5501191820613850  0.6107659931498742  0.2019153448956403
  0.0606331337113737  0.4741144106032024  0.5422808641570448
  0.7581542292841439  0.3260423403335845  0.9403228396723010
  0.6049615095402845  0.0982781057899924  0.1008667560096563
  0.8839075567092045  0.6777074115047806  0.0204369049595331
  0.1549708381266805  0.7977674818497946  0.1071817006905354
  0.9302736296365248  0.5275582485626216  0.2710308222885549
  0.8114936383568651  0.5623884759188744  0.4177108140446328
  0.6904317089125396  0.1863210869381955  0.7714908009753051
  0.0374637978770937  0.9754425191134384  0.6559341048296566
  0.2524033482374105  0.8475595107384011  0.9490308392225373
  0.3267658128432660  0.2986991268623267  0.2913622061725200
  0.9822093505801424  0.9320561566902491  0.1606694263617255
  0.7602527523354553  0.1889874086318408  0.0484470219020939
  0.8863594395511668  0.3962391002513930  0.7216263135423915
  0.6754872414937129  0.3675078657277118  0.5102786099651577
  0.2855357989395236  0.3745198623544935  0.6814967948623338
  0.3089427758035414  0.3571657906083815  0.8482677922604783
  0.1570223973036990  0.2353821388140787  0.7472380977515890
  0.2497496975127262  0.8057631725829796  0.2686227793335521
  0.8071738718657152  0.9717559868298787  0.4772877213935413
  0.0878037908023957  0.2157479148451437  0.0997804053362757
  0.3323981307816834  0.5133021020115621  0.2141667082351781
  0.3891116456628141  0.5811921457505792  0.4847408970748458
  0.7884259441834212  0.2100196538440671  0.6288749085220730
  0.4389474877142373  0.8433458677452910  0.9562139589281985
  0.9163053534212229  0.7547652277797008  0.0253074437202319
  0.1022880434322464  0.8507415110623273  0.4228724154238132
  0.8986885232471491  0.5956862517243293  0.2322488471424559
  0.8529334103635832  0.3325381027370508  0.6366725695429520
  0.8068156351129285  0.1990961578072079  0.1679224018559179
  0.7961329076917849  0.7693372164751189  0.2041109891288377
  0.8248222021990312  0.8543765774232365  0.7991871934483052
  0.4252301541065858  0.6174518177396925  0.1688900497953510
  0.2414623712464400  0.9274216742079168  0.8927941040994740
  0.6159084147710526  0.2961432769508591  0.6825067939299468
  0.1590201889307770  0.2083103408795686  0.3832354247085184
  0.6248467402523425  0.3737651933506958  0.7584860108474188
  0.6995435863190245  0.3930120115967358  0.4161758549319887
  0.5027490324760534  0.2580043001172586  0.3630032473056843
  0.9953524353779556  0.1155208588437013  0.4582411871560398
  0.4133997217942458  0.2990796881353422  0.8928862276895093
  0.1596639254827482  0.8270973378860484  0.7560012062350601
  0.7222883056737011  0.1184839213152512  0.4401491890083746
  0.5285045993918593  0.2404815417564961  0.7555786970793378
  0.7688427899992252  0.0480064235537383  0.8556126623158918
  0.6224277577921010  0.0105914164355272  0.8717411834392312
  0.5643260893965844  0.3983883316544603  0.0338748171783510
  0.4561939684174843  0.1162564823746320  0.9358702494935603
  0.5579840536533729  0.3865091889183365  0.8340586346115550
  0.8859650482188131  0.5892792236405775  0.7427624906771010
  0.1503899131310343  0.5805743798359779  0.4892219208308045
  0.9661631722827151  0.0511336483365147  0.5129040362690801
  0.6577320656282670  0.4374844957753415  0.5005591151590735
  0.3065347685335367  0.1508407002409662  0.2581319274833204
  0.4395676232361277  0.8971759135325689  0.8196536603270126
  0.6248197541112868  0.8503182307040100  0.4344242007496971
  0.3517574917810388  0.9424994771904606  0.3096929823607632
  0.2478527719332620  0.8353410157873137  0.8514298820818413
  0.3068924345496190  0.7869688079874759  0.9799869638012406
  0.2057801930902599  0.8488263416899247  0.9276901403570238
  0.2170030693354129  0.0561795428839508  0.4624653605977544
  0.6601841054184647  0.6727529792340339  0.1984583323701598
  0.3774717923715768  0.3658220357550678  0.8211082193245476
  0.6667408785793830  0.3041497076303723  0.8304545931884226
  0.0819173716368633  0.3108145108522898  0.3921229668469420
  0.8446612777167177  0.9724530554391891  0.0762997526439544
  0.4263037975784156  0.5322997727182447  0.3270881588415496
  0.9569852335487208  0.1907167204932713  0.6015730716879734
  0.1585141978085896  0.1085278952661778  0.6718776846856030
  0.7564312934891628  0.3389215612999403  0.1975344649387363
  0.3599543925159650  0.5338827189137357  0.2907167289652688
  0.8576415815426808  0.3111184509510094  0.3920642614612389
  0.4695949759115953  0.3445685081153287  0.2688195980952484
  0.9344173012127568  0.6048801432371600  0.9478742057068980
  0.3377599055434917  0.3892683646992176  0.5407491994588697
  0.4825211426191497  0.3544843779377094  0.0933657247076536
  0.7392515402813530  0.0488064450406766  0.0109354880697517
  0.4407581075822847  0.9105806128383117  0.6037191116804793
  0.8999399815962170  0.1980990918126897  0.6856399381096694
  0.7577325226900231  0.4736250381606958  0.7040297777286612
  0.4040629155054226  0.4810418918357934  0.2428259038380876
  0.6790634972440652  0.0246061666572095  0.9013747296248309
  0.9027305524834751  0.1713606700136101  0.4140116746572604
  0.0773072862269412  0.9610419426540158  0.3877920599771338
  0.1123701184598126  0.7255372682338512  0.3385384954042017
  0.9717964332760244  0.5901240104550720  0.0975255366520719
  0.5694043114409725  0.0807039424023131  0.2172859606671849
  0.0543587586708247  0.3040911226968571  0.8367161729554814
  0.6228429448458069  0.5913579202655022  0.9404155733390896
  0.6614041740731937  0.5162389904668852  0.8146861353645152
  0.1904259085791033  0.5936285533297632  0.1928533968152690
  0.9010632283667115  0.1875017471529651  0.2446821153673807
  0.5663547719700456  0.4960297628805818  0.1566981961427052
  0.3213798191521506  0.9531764227061531  0.6619583327355647
  0.2963150463291980  0.3588287991050383  0.8732674414571938
  0.3590712926025579  0.3559743985411520  0.2108984950624750
  0.6761242150099257  0.3627895571660184  0.7076917244368361
  0.0285687689210199  0.4240465957992919  0.4467228780417858
  0.7292003375410535  0.3891376627961888  0.9251341587899183
  0.8726583013454070  0.7211979319654284  0.7598187925241937
  0.3960904013325723  0.9136664138761090  0.4492098829309607
  0.3201055758171056  0.7469036393745793  0.6542021209293962
  0.4734061437602392  0.0546298491098856  0.4134926293563611
  0.8588170291752540  0.8438937003738632  0.9234946325217185
  0.9094492678876254  0.9009323222910212  0.4077258038341527
  0.3023875965260481  0.5751299193249065  0.5253392287360932
  0.4927679763997689  0.6125369373537052  0.1992990061350184
  0.2987470370260238  0.1490071297163265  0.2018962204896058
  0.8321318949437380  0.0532188991589034  0.0427359041884646
  0.6016206367719857  0.7426922130438999  0.7610296708643546
  0.5955271960311236  0.7065785437320686  0.1640582797121252
  0.8077618539848981  0.6385425175661322  0.8481871501149194
  0.8882789526685719  0.0322490501896207  0.2507105898075436
  0.8086440066825552  0.7866139004522859  0.5552965756589451
  0.0171223641735859  0.1533303393969823  0.2994501417127301
  0.5231541736004826  0.0383032351456001  0.0603724082305832
  0.3275558152746043  0.8689458004854580  0.8456608002757708
  0.9112936499564240  0.5333408810797118  0.1438172559963398
  0.2017233967491405  0.8280150825143536  0.7304611590510713
  0.2945645229509373  0.7607036847454751  0.7650087354690162
  0.2671003776346321  0.4968886861032976  0.7460338722484191
  0.8101347447667118  0.4781157586321459  0.9036795595946460
  0.9598507051695275  0.7624853724422560  0.6823410490776476
  0.5275828169611673  0.3070085465621673  0.8204811884380213
  0.6285442026923012  0.2220947271068474  0.1694104018606539
  0.0767246562600227  0.7357508906488016  0.9846732653831275
  0.3620853542899345  0.7775344893802399  0.0014728214451270
  0.1119486860367478  0.7348097703804853  0.0193381897905798
  0.0624852016092007  0.0421816262882447  0.7987350445636194
  0.0459099397774993  0.1864214635248279  0.5120968247140898
  0.6318297737086344  0.1629111324961592  0.0009233849547232
  0.9209182802089823  0.5323206659370030  0.2447887787866665
  0.0658537564824484  0.1518673327590971  0.2917028710314412
  0.3625181860988712  0.2398175222627711  0.3456632317646756
  0.6708352798083118  0.3853254362148872  0.3651969492945287
  0.4483021794651868  0.7186028901375162  0.4091672471816127
  0.0935484248619089  0.9535414691870223  0.2452937043111619
  0.2408784286363407  0.1469855945754899  0.3101411327423987
  0.6810250710751999  0.9683815317933642  0.8324880650187694
  0.4508663700712083  0.5450994896153102  0.1809263122731281
  0.6769088307485538  0.9389324749156032  0.2945987393595757
  0.8835274162959916  0.5388658670469940  0.2139876777114134
  0.9739674459863623  0.1701244249100242  0.9759658699088897
  0.9571984110094137  0.4658773206680671  0.6997710939452130
  0.8703465033541343  0.1859615064646607  0.9573273029976084
  0.5263226467577228  0.7071096093932577  0.0937640948264525
  0.3673605623898459  0.9623005344573727  0.7461074755084184
  0.6394208002053867  0.0945172946510158  0.6743850821403592
  0.3700680647512562  0.3916315582220238  0.4475449374647810
  0.0751769089280914  0.4758621656307052  0.6546820573100166
  0.2158793679158732  0.0777984637347012  0.1896660360145732
  0.3750965806232023  0.5382411548555888  0.1936946224495582
  0.4686606649276874  0.5747262758457308  0.8147898444121123
  0.0910092449354927  0.4499765213896133  0.2261090366951507
  0.6389262307490634  0.0817429180416601  0.1662182968630924
  0.3488251465842722  0.2839439013725432  0.6270771343447618
  0.0634862275552156  0.2656922851092576  0.5859105771952736
  0.6788284684268112  0.4467450166752407  0.9099495624214068
  0.5102043476830372  0.2800890752842917  0.2453221098848567
  0.1170514120462229  0.5824975373387121  0.3194123211472186
  0.6667094397459949  0.5878690214674447  0.8671427609133763
  0.3597462302819024  0.0371135894456493  0.2884887186601078
  0.4348654192021323  0.9112913424726158  0.5758771988996225
  0.7623530701735608  0.2563155747410488  0.0610074583260033
  0.3153799585440872  0.0327146766357801  0.6923223148170371
  0.2527691764345862  0.8341971729756407  0.0417228593376627
  0.4588752638322834  0.5696764528685504  0.6891373321155292
  0.2911865213790111  0.9590691579532773  0.7584276995112910
  0.6860079841428741  0.8529158986038859  0.1667987254866052
  0.5838798847317114  0.7495723729092275  0.7815543270638391
  0.2684100538707309  0.1526732195460300  0.8758652082812871
  0.6025102269534166  0.0867386122672461  0.8874601590377982
  0.9780089107845470  0.0680379410325764  0.8416365819903412
  0.4605404698561338  0.8330107281467710  0.7616811268237904
  0.9654239422087004  0.9044678111012022  0.7375571637968313
  0.4032345296248977  0.5089756568824870  0.9176858857254101
  0.4491508101450434  0.1985361873598774  0.3306671751162772
  0.4118438309276228  0.4958824841790808  0.0879187790294114
  0.6160244645974641  0.8559842606822990  0.6032860571980534
  0.0686554408139305  0.5938798200155085  0.9803602367625752
  0.7409289617637427  0.8498087198721458  0.1167454461018452
  0.5191214399583021  0.7661902295257629  0.7098213223607717
  0.8290921344781091  0.2634784345813629  0.8141016538311073
  0.3687953932730729  0.9600220708940643  0.6301645287687242
  0.9715944511719555  0.6312557775537045  0.4196638777588639
  0.5915763437477435  0.3026900829135744  0.4920033667634993
  0.9611385897080984  0.1110426644959853  0.0376235418040241
  0.0190417911056472  0.3566376533312532  0.1972581449750228
  0.8276606152357563  0.7299297256366531  0.7231008370516545
  0.2558178253539852  0.8969208722853284  0.7076197933872173
  0.7870915781121461  0.6915676631977618  0.2994033778293831
  0.7228449539580003  0.0410804678865500  0.9154158901380961
  0.1175245545623687  0.6050947705766068  0.0924631043493167
  0.7805229486439654  0.1436733349915683  0.6434169740540152
  0.3879792313540210  0.7621684250291766  0.0908310716238768
  0.4634525693130740  0.9964403710212175  0.3806165552295077
  0.7211803555148442  0.2448490974438138  0.8767321713535940
  0.2964480015982225  0.8123581325447941  0.5964041873925320
  0.9230447955991453  0.1782582620347690  0.9783758751107622
  0.3798898235156007  0.3669697085647130  0.8699048864153747
  0.5318665321177427  0.1359446680790893  0.6577886241460532
  0.5652594851135175  0.8028831600405612  0.2690685354139614
  0.0065827378049142  0.5473141133274636  0.5310119804229066
  0.7676614432624895  0.4965679061087137  0.8815364057725680
  0.9493127497073006  0.9482073624716709  0.2273837730692674
  0.0145864740808609  0.5185226830557579  0.9343390348520066
  0.7272947111671488  0.8836342353162125  0.2869036552438595
  0.3829048264459671  0.3753077506777668  0.9683525800836833
  0.6737240132687348  0.2972712900607393  0.2887384260757063
  0.9780878357916782  0.0591382921434171  0.1393434845527919
  0.2220310874343625  0.3978839059710827  0.0835759772631107
  0.6813543692105152  0.1294903283819457  0.1555889611902618
  0.4602477645799333  0.3321178036804247  0.0279248816191360
  0.9125140414741901  0.5612736470106335  0.4107110094017726
  0.9882600546085671  0.5144895630427687  0.8526859881120813
  0.5957213311747189  0.5209868811578368  0.8533055020529035
  0.0674475252376380  0.1038788329612846  0.3933067257752195
  0.1402435483103702  0.1780241987734643  0.9458677212718256
  0.8196184293883074  0.6345798808515223  0.0932197117378153
  0.8828577255596016  0.0247932349368230  0.3794433236256691
  0.3714744587113764  0.8686437921000681  0.8650089444587091
  0.0659476915244588  0.2290524844092710  0.3178646884401142
  0.3973613007189251  0.0333096409981880  0.7228752966765025
  0.4581551599734379  0.4731291146536337  0.2966606287651272
  0.8393987918594524  0.1975056734727123  0.2048303996376105
  0.7749706896191644  0.4997245629084262  0.4142347347203653
  0.1497524885584597  0.7946449613329181  0.3512281418839809
  0.5153006468159824  0.2642996089853190  0.9108109647941238
  0.5153337357200980  0.4935229763983474  0.1004369367342506
  0.3147492810214217  0.8851309237897744  0.1395298229959632
  0.6853123855145594  0.7796440745222123  0.5132616932657760
  0.1867211093410185  0.8535603097314074  0.5222025961174914
  0.1430675027676981  0.1478442384521440  0.3245505095808249
  0.9300928327830726  0.6127550841414682  0.5675924686007358
  0.1406402255408333  0.7265198427204579  0.5568342431123247
  0.3458166940055796  0.0821526680471015  0.1916777287048943
  0.3077492097439419  0.4126372093832170  0.1820924565853171
  0.6872268192605424  0.8664948737045074  0.2140779350666582
  0.9651056437096700  0.9810306781198556  0.6711171930084234
  0.9863296374226956  0.5433571843597818  0.6273505147386490
  0.9178385704828853  0.7958961022723128  0.9774734315746713
  0.0606765643632658  0.7423617543287033  0.1825807312149696
  0.6535020169376361  0.6414747586952713  0.1047339401386762
  0.7178928057738494  0.3573745231298565  0.5821368204203150
  0.6430224433458157  0.0996013902018926  0.0089788350439506
  0.2695903854361026  0.0421915124715328  0.5982969935257788
  0.8662216270727395  0.8466346113141148  0.0945844336329775
  0.5533668110403883  0.0807066533778719  0.8950166577181314
  0.1725035242103728  0.3917565207883301  0.6368559446133025
  0.3964453368855242  0.6396637899045227  0.9536189824551582
  0.0303671315117052  0.1019719014058673  0.3500290230232759
  0.0874821656590154  0.1789503406298034  0.4800591600672264
  0.4906305792035730  0.4274144557750544  0.5502591999085457
  0.2333141655446409  0.7677878236635340  0.8067314885933162
  0.6060214428232735  0.9767185716001889  0.1690847714932165
  0.8549077861684378  0.9022483635921902  0.4584018913741787
  0.6739311437200212  0.6006164581278171  0.1871115250324815
  0.9771460158265315  0.6807767477728188  0.6789207667731827
  0.6020831682210109  0.1583292704963421  0.6179729409495228
  0.1583286061712892  0.2128282998365437  0.2985940000018549
  0.5734552228787764  0.2819680438983831  0.2023803914029712
  0.0400851219265894  0.1068702460838589  0.3987302201030559
  0.4314893177693151  0.0599080420629109  0.5032080364188877
  0.9818639968110521  0.0468617694581671  0.4666445963858794
  0.1153904481217809  0.8961105244527715  0.7818834344687212
  0.0693812388775592  0.6084507239755459  0.1775552103560297
  0.2640242339639813  0.4930247126141618  0.8747756592055168
  0.0339323601174137  0.4603623123905681  0.1917283930789607
  0.9874573573095815  0.4082543681444332  0.1815291895208939
  0.4662538913557834  0.9851853485242097  0.9338499433195800
  0.7090965415133784  0.1952465297684640  0.4039831509723660
  0.0568497780383825  0.6674630436470622  0.1912836233226404
  0.7067056410600456  0.5765383227131613  0.9404001513988610
  0.6458805593812018  0.5827481113696831  0.4031948297939671
  0.9883643155515385  0.4101106723577865  0.5193396339292664
  0.0807223390642974  0.7188150795302934  0.9120386412476492
  0.2127142551825016  0.5626501021578155  0.3732881512456848
  0.3582950975422677  0.6043286790381106  0.3118179176981002
  0.6394561219325040  0.5356468448438122  0.1912544626539474
  0.2349687263883657  0.2529225419818295  0.9758145748745168
  0.2123605011496329  0.4748206968792324  0.8611974029300644
  0.9044050371326307  0.2581497522076223  0.0991805348667915
  0.9083985600213265  0.3850462222351047  0.3309333746067377
  0.7301405014258679  0.6684398936080049  0.3591070691289339
  0.7468369048477643  0.7141672717661093  0.8933340780333971
  0.8656746863430330  0.4097447492594437  0.6484792169329389
  0.8902383013130380  0.1384289550544716  0.7116432615782777
  0.6071138728151825  0.0860749611277951  0.9152008230805883
  0.6982175115583169  0.6664322671154389  0.6307931618568229
  0.7449483878765538  0.1132658227266629  0.8642804668092026
  0.1065155685283025  0.8079271491552404  0.1725504739119694
  0.3823516832676069  0.1374888294126046  0.2901030697610289
  0.1087029455849987  0.0461926624238035  0.9191625355021780
  0.2385467194892693  0.6495071491196542  0.1272788259025028
  0.5803613490564405  0.2141280823357894  0.6370986611493811
  0.9185773541758061  0.1776127304301033  0.9506879136984706
  0.7487120357299100  0.6528775260895587  0.8091610422545731
  0.5861993668875691  0.3027129462173822  0.0557382820128598
  0.2422167695457505  0.2887413387073979  0.2351555688360484
  0.1158596538229246  0.8000472556296889  0.5883020480653486
  0.6401989861132723  0.5165383744928747  0.6867694582141802
  0.8680771609549053  0.4653905629153166  0.2493409774971201
  0.2818285167498942  0.4761935074439769  0.0425625617803197
  0.6494140068965348  0.7831329002364095  0.5568606204308454
  0.2886268742631115  0.5060242810184395  0.8784673656577543
  0.9569617871192768  0.1176447846708747  0.4898081665861684
  0.4011051224935512  0.4830003458501881  0.2144063423834625
  0.8419984535173912  0.0236518748211532  0.3967678132133634
  0.9261724328787135  0.9960486396480015  0.6449297463753473
  0.2994148651924206  0.1645323945572744  0.0734286438308055
  0.5720327354615088  0.0327615858204356  0.0646631154428872
  0.8132100209556842  0.9036421618329331  0.4841522410162425
  0.1655657887945634  0.0562122354564016  0.0637642039511614
  0.3015209133663124  0.0066594162546592  0.3377683265095350
  0.0802011522797670  0.7041716679658584  0.8107203004242728
  0.4365193889141711  0.8944670841221420  0.7913285447545894
  0.8254447169285466  0.8692040253269837  0.6297228552019344
  0.7364459951621325  0.9787489388434227  0.8347365639015908
  0.3969307495525432  0.9947486915073930  0.9088773595279531
  0.6044339077435321  0.0913739294007473  0.5500465871598135
  0.2427847521806919  0.7042408814046650  0.8601855876339524
  0.9850785316648935  0.4502919672133195  0.9234247997360814
  0.0377108430350532  0.8546917341281186  0.5133680226430360
  0.1519231876462622  0.0156404585131039  0.3412426636146145
  0.2659452809421687  0.4031228327135092  0.1085449506005076
  0.5205195046445606  0.4401804828782103  0.8261115307893319
  0.6280959200760786  0.6481606393795424  0.5445133850296787
  0.7008675729478391  0.2579246782491731  0.3738407427670218
  0.7211114589885910  0.4569415921636476  0.9249278288316217
  0.1214380873952520  0.3293194458229775  0.3579277027532818
  0.7143003979501518  0.7174952046933865  0.0383537772746814
  0.3507026528694796  0.6772631583406667  0.1911707585231613
  0.1877165726708632  0.0129922284660154  0.2744043747139507
  0.4335287496702404  0.3095990308149253  0.4814378755229132
  0.2144627004966034  0.1633945572493996  0.8846867421152301
  0.1256477854700793  0.1160781009700708  0.6068065781135012
  0.8667295970641221  0.8485784016992366  0.7745656858254427
  0.3084006264822953  0.5353090560991801  0.0827384152897453
  0.6387552858089793  0.5893004018920649  0.8181398018690340
  0.3885509848649778  0.5486890308575246  0.0209930071225426
  0.3485863926857864  0.9600484290643216  0.0709172990794415
  0.6513125276657987  0.6537815035799770  0.4174688776066981
  0.9355603119508231  0.7315528946916340  0.9446005438486977
  0.8003487403615468  0.5599128129023646  0.1070165793166758
  0.2116377001621164  0.7766987737464918  0.5061676727696538
  0.4268330463294417  0.5732593914095074  0.7867464822869873
  0.0230282871902787  0.5516464321448179  0.6594571620641979
  0.3560595987856668  0.7122107027806280  0.4922892247271851
  0.8131886350413501  0.7059812593232750  0.4500378650990942
  0.7064046683485595  0.4466159405497110  0.9044119137318518
  0.3601889012497715  0.7438918732284162  0.2327231928197120
  0.2978145770544960  0.3388458509017039  0.1015303100911525
  0.9299557241780492  0.7304510082044395  0.1768148176074890
  0.1371502843475053  0.7631532676451159  0.6804351953028818
  0.4919700382241805  0.0676555462540962  0.1808674816716716
  0.2676278791680937  0.1061401678948550  0.9556346680478248
  0.2493256909509505  0.7688104090339019  0.0644502838666245
  0.4718953763796245  0.2027402596828345  0.2335776343166840
  0.0811211937033968  0.0470593737616794  0.8787849816169019
  0.9878242788333442  0.0512110130163370  0.1140792252655777
  0.5072676221399584  0.2073659561639459  0.9712865852097944
  0.0262429235238208  0.9124645371882977  0.9015815316425172
  0.1157462771913482  0.8732926309875716  0.0197190919917463
  0.1227138151974837  0.6313440532115157  0.7713532756732973
  0.5509268248755749  0.3832431605817759  0.4368427330243574
  0.0570114413254657  0.7858240966755548  0.3864520913961771
  0.3265471422334244  0.9656462763299736  0.0541423812331668
  0.6385168296543391  0.6471193821701962  0.5181742473124026
  0.1033619436904460  0.0961049136789945  0.3607205421193803
  0.1409787702197767  0.9491986301728581  0.2508242721098725
  0.3741084242221629  0.5615901808353491  0.6853611330333047
  0.0663593931507511  0.2191568261983874  0.1169956631815645
  0.2818475101729385  0.4519242106068762  0.4090682087216203
  0.4868486285122617  0.9650995388559962  0.7991011226197657
  0.6346612064657412  0.5137723480445717  0.3875985136271384
  0.6493000356950230  0.0118208682312794  0.3378387513696609
  0.4950573021194434  0.9068298040998759  0.8700098676230220
  0.1228518090890259  0.3833911312380637  0.7851820414652600
  0.6417220565331050  0.5785894510775916  0.4520163420105504
  0.0125797113546987  0.9796017911924798  0.8477475788126148
  0.4995251689848593  0.8484672007145687  0.5123820025922143
  0.6537036160146202  0.9310135815446989  0.4169344963763911
  0.8305101905369043  0.3101195932114444  0.4754793718857515
  0.1979478154779743  0.0100183641758163  0.1995324643063055
  0.0437395626051236  0.5148848157804392  0.7881929062610581
  0.3136126227585028  0.0444601175728159  0.5609458323898667
  0.4507617374288972  0.9139096698155154  0.5527164570551678
  0.8934668365007494  0.5364092062580997  0.1661391431047871
  0.5706261955538587  0.5819813765941755  0.4727930099155352
  0.3192034821962015  0.8220430033109926  0.0816086275515635
  0.0729249783706113  0.8595599433759156  0.9475279961504005
  0.0230691064739736  0.9147356070947724  0.5764221854641827
  0.8188114274286644  0.7917886648741477  0.5806671895265901
  0.2848726869277813  0.5674629199937600  0.7803773869934396
  0.0599739534309962  0.0396473917822665  0.6941855972359163
  0.4908801008770380  0.1937063636633614  0.4965408496225571
  0.6034172110597110  0.8433102518828745  0.1702024525082560
  0.1008892652224036  0.2303840499736943  0.3511072426736955
  0.2675033831117535  0.7862489040489677  0.5162880620121203
  0.5511773103413248  0.7195911595408316  0.9744055796093382
  0.6078474560401080  0.9981755069448369  0.5798768120894940
  0.7877534666155613  0.5101745082561008  0.5155515073464474
  0.3540126845366165  0.7371541796650658  0.6191529934114911
  0.5895394472706778  0.6029123361423085  0.2300558612437026
  0.0698817105157247  0.7428505786514977  0.2097186026206387
  0.2132903790011380  0.2630642990458780  0.5642794297885354
  0.9104414742072330  0.7583088535924788  0.0533048764669987
  0.9227652566554040  0.6188528793459571  0.5203764043649753
  0.3396320696555041  0.6133395517208998  0.1641617781332237
  0.5193197851708337  0.4280364776286382  0.5483570586008438
  0.6654573600910451  0.3023422655264494  0.5113845711057241
  0.6510841821786097  0.3736995293248291  0.0720942981572646
  0.3881280544473718  0.4918992736027429  0.0725583647413117
  0.2957251539810443  0.4550217540796690  0.4311873835269069
  0.5820122660813215  0.3711207512979532  0.7353056665367851
  0.6002022980277695  0.4730598635750776  0.2199207521493369
  0.0799863948559031  0.3048573139780297  0.7150745972733658
  0.8167617555237263  0.6943192797952751  0.2044232844185938
  0.0896580959291671  0.8294011144230413  0.7812364470714735
  0.7200930049657914  0.9729305116476296  0.0736470381069094
  0.1146661512942159  0.2083706662379043  0.0642527750181085
  0.8615616867401510  0.4633933442825217  0.9704145735023206
  0.6686204541679536  0.0984307682443222  0.8337489456497000
  0.5551617341917189  0.1522224689917243  0.3129463936712494
  0.3596153354557626  0.2806955376848800  0.6017932993947405
  0.6477412875083155  0.3512907620063930  0.1407222918200295
  0.4031112178255833  0.1175935285246439  0.4554124352718006
  0.2671377948723112  0.9570996228580793  0.7165064094091264
  0.1109479258616646  0.3091037522521863  0.7519165263429777
  0.9421359732963850  0.7372033807398202  0.1267458710516480
  0.0491225024925032  0.2399064650645931  0.9402711111643564
  0.5862652670967003  0.3847963066031843  0.8330726485650114
  0.5188931095430512  0.8982706257184986  0.8549503229872232
  0.7368478076016337  0.1166174182941587  0.9942326700483296
  0.2742866986566102  0.5758355236881835  0.5235311912675610
  0.1914211357532185  0.3400964030289276  0.0690508148577447
  0.0715342149271589  0.5135890174054529  0.8687177430613038
  0.7626356098194701  0.1870854261178145  0.9197546639976473
  0.4317156713843817  0.5052905260805824  0.5515947019275659
  0.6676582302881946  0.9129707082331513  0.0748280082843352
  0.8748538852877740  0.5334222054173683  0.1133477938444583
  0.7310423314938996  0.3902174627804993  0.9740878416348400
  0.9974992821173855  0.9477321062340244  0.2329838376113378
  0.7541852807733492  0.9633737153979620  0.2490759501541271
  0.8135816998610454  0.1224214520029054  0.0264008342792980
  0.6061314312232562  0.3021492828738881  0.8771213003097655
  0.4607222273083080  0.5800073051943450  0.9380053301072708
  0.3496581256665946  0.4178143655828336  0.2554175099834482
  0.0582212956126083  0.5576246347291450  0.4671986480909217
  0.7949102107474363  0.1093362991419664  0.4759895080657976
  0.5819606451874023  0.2278000117998125  0.9428738146095242
  0.2803687065096708  0.1112055605543918  0.5896225321949736
  0.1257226381313406  0.0206510100987298  0.3324939809460500
  0.0905699988870690  0.8531771146765740  0.3976616876713818
  0.7955515651422409  0.0543688485760799  0.9998188528439426
  0.6998434850973397  0.1244746582722331  0.4243707479284772
  0.5904024000901291  0.3897443183097329  0.9813860658217537
  0.8627198747056379  0.7596315204665653  0.0408232669602750
  0.5567972862119035  0.3925608447741615  0.7827243782675527
  0.0966322556388305  0.5108739195542571  0.7212457376622793
  0.3236396420038275  0.6411998146576769  0.7928735651330376
  0.6850484089471350  0.5759050980153314  0.4297563514892901
  0.5806164122895288  0.5870746541825917  0.0143313428810026
  0.7059443862334839  0.7147274667206008  0.4823210626363608
  0.7895745475276392  0.6984154441022090  0.1988876143779720
  0.8679824007894793  0.4970101442398076  0.5390803575024740
  0.9969533198329137  0.9764232302373965  0.4307550211315522
  0.3968480223008424  0.2930235732507064  0.8694703397452171
  0.9688561162090703  0.1014041408761629  0.7790575169410714
  0.3060598785497337  0.7740558172151373  0.0503833229074147
  0.2476018868134512  0.9816124798196191  0.4437100870036480
  0.2911068645684127  0.1825833015224785  0.3805387594420482
  0.8349495340622913  0.5675705851313551  0.3468180030460278
  0.7107176001760968  0.2790186904632226  0.7517428924981673
  0.2672322883144820  0.8043414260422258  0.2464972257257506
  0.8285786395759430  0.5246181037481750  0.7707964856237449
  0.5308769932501264  0.5872308660335571  0.4460198895990671
  0.7310320611393958  0.6534461844459047  0.5531587887047509
  0.8389677955125427  0.6929723963067127  0.0267149686004219
  0.9704751092037643  0.0414627736330660  0.7406911120777175
  0.7217444187145097  0.8120723481826304  0.2756720742027595
  0.8870728305149683  0.5571159969448982  0.4810873754266244
  0.0680635292029613  0.6139843733591297  0.5287886887113901
  0.2902832375991519  0.4050486825542682  0.3005551827375370
  0.6719626364666744  0.1548933214923152  0.5717745407457018
  0.7175268487328716  0.3330538972690984  0.4965388433701512
  0.9920586895209335  0.0558359321521852  0.7965630253026713
  0.6811893392526265  0.8945641540072833  0.7895509991222238
  0.7970129577462111  0.8742365155905216  0.7707833059656168
  0.9349965386487645  0.9873840600581475  0.1997479312141183
  0.0023753091989110  0.4278162132401113  0.4483901658026488
  0.3558799180089328  0.0276073319463718  0.7575404378852305
  0.4586906539238895  0.0625282708403960  0.9175969925417912
  0.0260322148339786  0.3861553987540093  0.7534883780970717
  0.1096449477856033  0.9637585513945945  0.4444758913492125
  0.8919296503590093  0.2636301892312930  0.1462575740118562
  0.1588273929387045  0.9180991544112987  0.0142925729433709
  0.5729663018036748  0.5093872336718642  0.5758591766322476
  0.7232414365970662  0.9876594242190682  0.5333299740488363
  0.2921355301015175  0.5272251685485468  0.1041583453233032
  0.9863783133918393  0.3310491124683398  0.6017828580811226
  0.2751996588511230  0.6819731860675701  0.6445249734510137
  0.9992201497785436  0.2827523922228095  0.1768412691353460
  0.0242282451653782  0.7437503620280077  0.1485203920961712
  0.6085098985158506  0.6564404675454527  0.1605505810098354
  0.2944919582826351  0.4191449385175634  0.2547637357323490
  0.8321894554180066  0.3979547408016198  0.2118687351280225
  0.6165993942250357  0.2333664440208708  0.8034551383968972
  0.6404757372331290  0.1434071395691599  0.2156334667675322
  0.2078849361791571  0.3994849421474058  0.1079019263018559
  0.6442435302559373  0.5205510905539864  0.9104211857561658
  0.1790100076798017  0.4016529739414139  0.1077261527878545
  0.0887178966551886  0.2910837604829813  0.2250703400171018
  0.7478123245128037  0.6373829698535580  0.0221920931791206
  0.2563745913960763  0.9412934163781072  0.3055419961267044
  0.1424560514760270  0.3135690310793175  0.7887877170939913
  0.4923425290215245  0.7017484754379368  0.6821402078098812
  0.2676305847286230  0.3913172764422673  0.0631214000802417
  0.1930915609650466  0.7791732350147181  0.8682997284710413
  0.5908395330083024  0.9343071834449649  0.5780470458872778
  0.8667399156544454  0.2622069687628056  0.7484888091031263
  0.4026777026598803  0.7401307368901185  0.2698111488418849
  0.5774121481242638  0.4728554547567786  0.2371577287270514
  0.1215765035790646  0.7006106779777915  0.7733625964652107
  0.1301598650911992  0.8960961288940450  0.6793010046107659
  0.4052824336419672  0.0216546726407112  0.8197498124238727
  0.2850130641436610  0.0441315471902108  0.5196032130900641
  0.7415285971781441  0.5525135470865197  0.9656617475510273
  0.7728536612314901  0.9174323817814012  0.7879554783903445
  0.1170054336570181  0.8739243805835104  0.1419567447260978
  0.7731092718423300  0.7180902185744150  0.4122209433660120
  0.6717588468241219  0.7455604371279234  0.2162571352310333
  0.5612994748096549  0.9621930026080677  0.1655702963383836
  0.2585184681279951  0.2319082127121445  0.8683917260452223
  0.3075192344012729  0.4749440323408377  0.3068815026495297
  0.9420276567265483  0.1557099731192854  0.2939269288393400
  0.7288181911230632  0.4173128071024780  0.4497414558079498
  0.1076895434150756  0.8979943433364725  0.6963549481611623
  0.0994780040688635  0.3914509404005498  0.9627853016664232
  0.6150078174800337  0.1472371201490915  0.2047526158516608
  0.7532500117424688  0.3338437985430776  0.2707043132105673
  0.7616631338404668  0.2092869877789044  0.7098217904196579
  0.8698485783734458  0.8654010661138677  0.6080002842932388
  0.7779953156011232  0.2685796077638782  0.1907704093553790
  0.7246484360232887  0.9689405270741870  0.4628837232318044
  0.0985612191279637  0.2334249681194089  0.7927916248241574
  0.6767219616328366  0.9439993865042806  0.9558244019181735
  0.4632093500488000  0.4076921785832314  0.2570629950013161
  0.2624469417790524  0.9412218502592914  0.1893189507479029
  0.4644603294103191  0.5699420757799921  0.5900821280165557
  0.9788883291089155  0.9082504323690574  0.9528875724367314
  0.4936906600304371  0.8522282988130011  0.2693071214303807
  0.7049569041854858  0.1162188800408553  0.7694501862463129
  0.9840197371646104  0.5966689510477574  0.6726441111094309
  0.5088785287659090  0.2689275001155038  0.6713052246646174
  0.4763947442060968  0.6684464516531116  0.3421104567913565
  0.8966114422771279  0.1787231889262117  0.4883780146592779
  0.5437832779047241  0.7758673449630472  0.1081018920594747
  0.1940042765698033  0.0786383109286727  0.3182967407964630
  0.9307584659691779  0.5985899303751145  0.2701270285825995
  0.1431309117943851  0.9020908475393117  0.8222698494688109
  0.0026393897254925  0.6441895713967526  0.7033152778376913
  0.0954020968888225  0.3100791331655497  0.7985932707271050
  0.3561911177909159  0.6693050490180583  0.3513414581402576
  0.2635786088247753  0.0443520065038444  0.5695790605331398
  0.9549404963579929  0.3988002407901901  0.6939865501938808
  0.9311437645066455  0.3895903928148710  0.7443525327197084
  0.8060464895233214  0.0528017422306564  0.8982438217264542
  0.1805437554578613  0.2026928513521734  0.1760195365534706
  0.3704395796343428  0.0322484713520267  0.7119556828838879
  0.1313026629519394  0.5758857482539913  0.3681093497025581
  0.8091291685982499  0.8369554536034728  0.2416611012947059
  0.4325361449414921  0.7000209305432680  0.7262220537307825
  0.6110099561541398  0.0915255573311656  0.6057020831573950
  0.8633732393085768  0.9813362691751844  0.9083039113826519
  0.2580297067501160  0.6346660938167118  0.8297087813581092
  0.8144858978691228  0.7869419529270255  0.8842781147059654
  0.9107187441058475  0.1138501515283966  0.8210684163169458
  0.6501685652613565  0.5346525049001885  0.2937750777350082
  0.1990779463323907  0.1234653447127808  0.9796029514887921
  0.6315994705093689  0.5163077151133341  0.7350909235200448
  0.4043482721406555  0.3536529665070265  0.2309017276618471
  0.3536211697342909  0.8650707275905821  0.3163172377559100
  0.7838484892225203  0.8914776849170948  0.3851139270422095
  0.6465467483668026  0.7843795177921596  0.1110449417234758
  0.7735349714700599  0.4875831070352668  0.0952960105562097
  0.0896325156188043  0.4609394044019199  0.7016267474042956
  0.9230284164717080  0.3244792841513692  0.6593361348378068
  0.8740138655085392  0.5633763021796669  0.3781524632229943
  0.0592558064649648  0.4755398418212669  0.1166995753308603
  0.8941414564562343  0.3184488760511459  0.8865503825791550
  0.9190781751389433  0.1947611729197885  0.6327760973292089
  0.1265578937067034  0.3180393095673257  0.8350549779611471
  0.4471372991653566  0.9126499192733343  0.9019103730139296
  0.6848088322160941  0.9191584804511096  0.1475514569948007
  0.6004096544038825  0.8400201078573422  0.0717413425520491
  0.9086233811205643  0.0301794996611926  0.3734558183398206
  0.4988667845342509  0.1231053903801640  0.8994376419205359
  0.6131859010889503  0.7209145145457235  0.0413417019843956
  0.6333058630015760  0.4448316609219635  0.9036291712553074
  0.1277209809036595  0.7176119334561013  0.9004966211503251
  0.2967391056673708  0.7677992551606970  0.0761104858323661
  0.3315112435838407  0.0818601167213206  0.9064851745680388
  0.0310946061942281  0.5541776227121645  0.4626763351403845
  0.5652422444784712  0.7906109750049031  0.9085278715589996
  0.6864481169756897  0.9348452637039465  0.5472306808916766
  0.2699397394450436  0.3206476953229235  0.4238098033562459
  0.3695025713204817  0.7519108529472848  0.1791869822486543
  0.8437257559126187  0.8484651343359388  0.5104781410680928
  0.3802804083502594  0.7659702691813698  0.0629369400733957
  0.6993442336081465  0.8497393737084150  0.1420506117354719
  0.5207281152775316  0.5733030115441412  0.5933756163691200
  0.8277510478822735  0.5399985989364799  0.0139605065262165
  0.4823899199631111  0.7669771556383381  0.6755084734738116
  0.5917944955715642  0.6773871639392439  0.2294036411881361
  0.2463442394145846  0.5460064825475326  0.6590883856685746
  0.7716534157834833  0.2596176851182287  0.8596029143280369
  0.5722552957007871  0.3496792719115763  0.2018654666204728
  0.5764559043430518  0.4299242408004218  0.5508253331335594
  0.5443866001128318  0.9624777608127246  0.0917531998364898
  0.1594797403058748  0.2540472480226841  0.6290738535512742
  0.1945268849894447  0.7168277131262112  0.5424946430524894
  0.8725729295549721  0.5988664559501303  0.1870247277125425
  0.7409337109452344  0.8490793455347005  0.1657534543814300
  0.7568056195239106  0.8574096354731514  0.5538059761271635
  0.0289096082435550  0.4797671017805349  0.0812860475678938
  0.5573295431423151  0.0851678279763798  0.3451817431887741
  0.9160274031037884  0.6592130690298401  0.9295875250662996
  0.9188733188058510  0.6877952216671240  0.5201626254695307
  0.4314169303330194  0.1245023463736169  0.6589580052654638
  0.0095716919256867  0.3849389094434069  0.4040725222161295
  0.2296149841160617  0.3298573927253284  0.4572929118538711
  0.0801464144175034  0.3100699930214990  0.8453755743916067
  0.2258627540174122  0.0171888527108162  0.8424377747881139
  0.6868858650072502  0.5183941294059851  0.6698681538672663
  0.8262150255795037  0.3707757581319406  0.4304619602616715
  0.6658628261357021  0.1523813710377461  0.5133541789013599
  0.2229513302050446  0.5770867312240117  0.4709833702454306
  0.2485975826655188  0.1909244365240350  0.5811442935508728
  0.4547418880282651  0.1488621689293631  0.1110200265889118
  0.7668974670009771  0.1360820026712760  0.2744463619963554
  0.4553918008828074  0.5733257755106315  0.7888933823877032
  0.5984409714741858  0.8451369603422552  0.0228265700024175
  0.8864409645512170  0.6760209714205255  0.0498598888543680
  0.9354461225335665  0.6222859829698220  0.4951140461169303
  0.0874370161167510  0.7225418227824120  0.3499146786376506
  0.8376926328403160  0.3344876500447296  0.1561105338091221
  0.7506155945732970  0.0157796748285899  0.3746773260172543
  0.1515410810583522  0.7678028752311339  0.7273282048952557
  0.2608419065008523  0.1552181945982161  0.8268622292344284
  0.6972937102272221  0.4418419798275723  0.4730157919436607
  0.3581340336941173  0.6207205002684894  0.6388842257906151
  0.0015087555793472  0.7423233500934906  0.2430213864316811
  0.9332796514139060  0.1886583479242311  0.0337314043356338
  0.7837553199358540  0.3293389768888740  0.9504667978799705
  0.0192839503045977  0.7167788406961940  0.8685725527949696
  0.7292499747817162  0.8793913476358008  0.3360405471382446
  0.1500068057258121  0.9378308731578426  0.1571593117554916
  0.0860251391213101  0.1715687491327222  0.8808545339865281
  0.1994405561707650  0.9855245507784994  0.4577403861504487
  0.2198867640929747  0.5326744836156603  0.2679207530118774
  0.2601845590454114  0.4928928276111276  0.7955360561000518
  0.0573919256068337  0.0930994382314759  0.2691183996873673
  0.3492430619546870  0.0302639299506171  0.7298501901853021
  0.8057669996511576  0.5597713545901003  0.8636472431435650
  0.4518114957454354  0.8586283516854937  0.3425312177271358
  0.6027360317969297  0.2464547070184686  0.3798083335474338
  0.7599264238260894  0.5966540291964834  0.5796000292675485
  0.3654454893598720  0.2360064980762254  0.7048706935239696
  0.5327994895789990  0.7072955712140599  0.8273762939087170
  0.0492169242551878  0.3769460870306506  0.2338174724906369
  0.6539817554078269  0.0729386379047220  0.3357240873245513
  0.3119931046408915  0.1494135057798435  0.1275304935647192
  0.9777318413886023  0.7962225426736468  0.1873738428345882
  0.4164561491757752  0.0994531959171384  0.7846390831558739
  0.2041185335178069  0.8968426923090022  0.6846372859663701
  0.7715396620532003  0.4320813088614385  0.4967598491748106
  0.1698806097662392  0.7950373994810673  0.9490190497393067
  0.3727955222729241  0.8456959029021496  0.4914557858725478
  0.6972434483831595  0.5083251393757702  0.0383868518357799
  0.1498109649021597  0.2430470120672187  0.3379614728092002
  0.3428688562305840  0.3074919773411576  0.3354973147943823
  0.1078888694836581  0.5315999328784083  0.6736552323182202
  0.7203692389905003  0.3481785165373705  0.7823456066144296
  0.6763867244516022  0.4615806662246909  0.3645092027693900
  0.2222121015781731  0.6846193078991710  0.6579341044488769
  0.3886556570060423  0.7141986180054464  0.4552697753238047
  0.2333146070740282  0.7609057114773300  0.7045130405277770
  0.2723628031497130  0.7899015301893736  0.3944575065545282
  0.3584156059371967  0.0472924899995974  0.4989458901998318
  0.7794546348036427  0.9727593770943008  0.2403958241106465
  0.2872959077422259  0.1854002307425683  0.4089805176892437
  0.5276371210961595  0.5388592233128940  0.2455904396433254
  0.0597449766336184  0.9040581070810640  0.7010920221307045
  0.5643038666024667  0.5757692380985933  0.5710139390546813
  0.6675319241530101  0.2483201368924078  0.3349197881359647
  0.6393597597958451  0.5899344333503375  0.7695150724096174
  0.0343384519354229  0.3966267637912054  0.3513685155443397
  0.5558670728099357  0.7105426243127569  0.6086158797410769
  0.2831136942316085  0.8158882484913770  0.6235348666933649
  0.2059273764723422  0.7198115324861256  0.9979404105178010
  0.2498839327677512  0.6179959218755843  0.9503049395166290
  0.2888486634644606  0.3909184971387822  0.3463737951603963
  0.7015348437680902  0.4385920694382235  0.5244004226252399
  0.5232329348266945  0.4092882078465419  0.0595222192686211
  0.9492396053945645  0.7351464012914977  0.1545559252243850
  0.5459564319793506  0.9967168300596182  0.5371370910208292
  0.1389403716691152  0.2750668325893023  0.5018914327774655
  0.1100395035124768  0.6996957011488302  0.7160811079020994
  0.5401276951175562  0.3127894581891625  0.4268379823303343
  0.4189352804730616  0.1303389399328411  0.1982563853632807
  0.5683907179872161  0.7298073520992345  0.3180971316837136
  0.1655724719188351  0.7680666562723837  0.7746691088370539
  0.4229051895826094  0.1306576775618663  0.2267873320312387
  0.3563292367761757  0.3090973609837706  0.4793683751598300
  0.4360745002929318  0.9107309386631071  0.5282697594250866
  0.6935978208981772  0.1741662730612439  0.0764640333120452
  0.6193291180775485  0.2214843264813108  0.6742130364953595
  0.2888223437854304  0.3752919317109064  0.7293212656414988
  0.1280349210049855  0.6630442161985157  0.0042726176964686
  0.3122573992362647  0.1657713947386806  0.6934811286069760
  0.2557529146295974  0.6550154206775923  0.3399146845420535
  0.4920002363121435  0.2004902566901153  0.9260421070185525
  0.2244284755303654  0.7410303840984335  0.6330153434286732
  0.4876612531988559  0.4369399675809749  0.5016998826786176
  0.7169626430139097  0.7207199723870868  0.9631164153237113
  0.0274570516257652  0.7573834752034641  0.6102422563549234
  0.4738759786900583  0.6627941011483249  0.3948403327177477
  0.2979238751933748  0.5160343376319382  0.9046300551761471
  0.6573770150802326  0.3559193804760080  0.1152546149409225
  0.6508404056471985  0.9327877760926766  0.4667932030820335
  0.4307230335178361  0.9030785465610983  0.0298268429041892
  0.0232240629814093  0.1614026307003597  0.3726804327888481
  0.8673717685628645  0.6670025145559827  0.9369690537337195
  0.6513326301822439  0.5162859966192088  0.7881242476231400
  0.5718443847313679  0.7067452033611815  0.6554327497543582
  0.8698441470482242  0.3236706152410118  0.3200733883158371
  0.6827277749193951  0.1962642062236809  0.2832526159079369
  0.8519619920187552  0.8498684192028408  0.1189548400648911
  0.4544361056316966  0.3523675078225206  0.6695569347128985
  0.7254679874614959  0.2006321900881721  0.7416552173714518
  0.5429846188127967  0.6576139905719223  0.8292027957002389
  0.8855865330400582  0.7603473372445516  0.3671632606754439
  0.4065750835216931  0.0112252160400203  0.2347343538431442
  0.0884886965428784  0.7233200796377228  0.9390233641857656
  0.9720094903285286  0.4561492933635624  0.1527304441612806
  0.7016347677246114  0.8735357702033657  0.8572212066862702
  0.4671827745734839  0.8445342692518405  0.9556456534298916
  0.3305367419221850  0.2335264734532294  0.6480877676848523
  0.0007789265058116  0.2950482466144983  0.0272747830304705
  0.2748648664446920  0.3080808725779899  0.5783910431654495
  0.9494577394208951  0.9831969566456760  0.6942207636601914
  0.1573911453288359  0.0142122972069308  0.3694602476585355
  0.0564105829566450  0.9396198081803032  0.1567605125827137
  0.9671822098586027  0.7949148564672716  0.1598937927795485
  0.3070587029375207  0.9546794471357563  0.4115464125035311
  0.6383795501296957  0.0995691594491071  0.7967410076945709
  0.5455176606452466  0.4146625331427535  0.4722160793321097
  0.5195701090454045  0.7800860875275847  0.5597085507279137
  0.1500680208363420  0.0143864688027955  0.2098852115816511
  0.6125971096326458  0.8226190897828133  0.6906412093177695
  0.1975548618435336  0.8889991011393809  0.6276522967057278
  0.6856201506116659  0.3799685145707550  0.8537335179014207
  0.5037867798925362  0.0044629019774364  0.3432881429556218
  0.4921321826745822  0.9171886593248860  0.6009549279195320
  0.9665578218040468  0.3746241995317802  0.8953979176843082
  0.4347286149014426  0.9121177777159654  0.4781498578586143
  0.1145042500870609  0.3510447607718057  0.4919869066926638
  0.4209581454998239  0.4686135241980568  0.3527109624370920
  0.0459668601545384  0.6331092143952225  0.4217377506720560
  0.9837065303439497  0.9853511216180256  0.5272907202525265
  0.1567943538726298  0.6978672648597098  0.7083762625583266
  0.8274779854558505  0.5057351484042034  0.3482552578665308
  0.2433808493890750  0.1945415974569974  0.1200397201532580
  0.8408975055339136  0.3690036582003454  0.4545759420328924
  0.7711716323873535  0.4819897818631170  0.2315101142027352
  0.8911088761673607  0.1975121937925188  0.6369714751481569
  0.2757915926630358  0.3183751153054666  0.4509226124088295
  0.5634807579616110  0.0111687282752488  0.2856829056618014
  0.7494437137646726  0.5096601677441589  0.4839861441196527
  0.4513327141595069  0.6464525971454320  0.5226979244345656
  0.0716479810918085  0.9080255312196155  0.8706481539255883
  0.8410782092304444  0.1222274878561092  0.8496693805937936
  0.5631456974518856  0.7792285976623740  0.0878415825173465
  0.4554382216948173  0.0370459239789702  0.1309450151444294
  0.1460577097150242  0.7366883298736391  0.2012529875647069
  0.7615949584963616  0.1204867489236076  0.8185956512192739
  0.3075188007199454  0.2398043560351971  0.0622434730285606
  0.7026340766931899  0.6061452887613243  0.2374210358536246
  0.8823189962054501  0.3764865510958316  0.4297645345187940
  0.8122922100016267  0.8423452985428569  0.9941044379154920
  0.4473657370117332  0.0526696779568355  0.4024763053966756
  0.8676232292521229  0.9017359730712720  0.4331354426115074
  0.0474574187349164  0.0110471406505297  0.1705441606984383
  0.8585056756061958  0.4602595000583031  0.8483579276003723
  0.7392355446416075  0.1858291535783356  0.0670343171629077
  0.0439596866732516  0.0205314462866921  0.9588563153620943
  0.3608561255019515  0.5464780504658414  0.0166388502476598
  0.8678197048164762  0.1897097247239472  0.1129725704377388
  0.5827232155666129  0.3036327251051208  0.8243329610281210
  0.6453644081045853  0.5092580422886817  0.4143265302691297
  0.5631158936466242  0.9247773644455166  0.5104286848460236
  0.8227243440431077  0.4261558236567454  0.4445619421752354
  0.4252936665378899  0.9124388412768729  0.9461357769958181
  0.6410197323774323  0.9346607717253457  0.2185720584706788
  0.0426157407645245  0.3741412561818815  0.7936816627995094
  0.9879249604817714  0.4799510918237838  0.4237604571480175
  0.3086461160760268  0.5089264512528969  0.5035319971762721
  0.5856962991334475  0.7910855165805507  0.9921329578843109
  0.2883964590739405  0.1537722256258259  0.8218421696625710
  0.0593965086729950  0.0923715062889130  0.8676867993586540
  0.5466555520314503  0.1993640773581359  0.6714206351843726
  0.0303894258170818  0.4185111250133824  0.4940142717547202
  0.3761377000825611  0.0503756823941687  0.9830475288498092
  0.8215274576306870  0.1906342248171654  0.9657859711795566
  0.9155011999804153  0.2484098373494215  0.0228693479842997
  0.6657778154618098  0.5447782165997711  0.1978769450260308
  0.9189212955777293  0.3960052253047638  0.2567593347979370
  0.6422422026181974  0.2300999656665745  0.9000503330029768
  0.0489015923870853  0.6618469840285195  0.9766672801530558
  0.1172175677384552  0.6032295639486145  0.1489361614039556
  0.2208082811028863  0.3128786388071452  0.8173982085694523
  0.1466297453292662  0.6644402927324381  0.9566063963006006
  0.5936987671287067  0.2990352530535402  0.5850552695893368
  0.5272765226064533  0.7175164125175076  0.9606887619015227
  0.2924269803068117  0.0943317482743642  0.7535693542846561
  0.8710710542149969  0.0487184022878460  0.9361877854426418
  0.0861462682141409  0.7747260772199827  0.4641263135616390
  0.9475605793861451  0.5701610922302496  0.3688536313403585
  0.3771068843751512  0.0621327972669859  0.9574922917547836
  0.3074823018332888  0.9895646681184146  0.9872403583481538
  0.2074361348662682  0.0622372281937210  0.9236864246510160
  0.3386602102965784  0.7224024823187094  0.5751260724006726
  0.8688387161865412  0.9091983346932412  0.5341756444423190
  0.6210079976507121  0.6655272953809700  0.6926227586157615
  0.8683806446188446  0.4619259826700521  0.0181556743987511
  0.2218005256866849  0.1903243765306664  0.5878024572120061
  0.1005811792857513  0.7395624144325165  0.0662811522075003
  0.4264932242734075  0.6653453701412203  0.3781479486550181
  0.3118561197037512  0.3586581764930346  0.8971495620580457
  0.1209901754446067  0.6600747253762222  0.1360800397799994
  0.7283826941057138  0.5092434997505577  0.8511340008571329
  0.5290015087599276  0.7219194431902438  0.3826002227939980
  0.4723803234394937  0.3826410226070903  0.7898684890655174
  0.6809471322597954  0.8679406361931905  0.8763912824664879
  0.2243122956771671  0.7140143281521785  0.4043157808204055
  0.5071665500172299  0.8446594601230126  0.6595146072913610
  0.4450045151036629  0.5167801709543840  0.8018632621235258
  0.7402088938879761  0.2716148391943498  0.2315562180030374
  0.8544370747718150  0.7164980978397899  0.8198158947376643
  0.2237065166254370  0.1716090367465348  0.9319895812681112
  0.4812952245034540  0.1313027615906178  0.6580522173086124
  0.0469803923913817  0.8322407508035475  0.8059920275619945
  0.5958534156833327  0.5868180474560070  0.8419828195503620
  0.2287783428722827  0.2694548724964553  0.1863754280243864
  0.0268548302373554  0.9536882132937620  0.1062511326161065
  0.0476758166896703  0.9713403619479151  0.6818955630312112
  0.3669842814093919  0.5368725467620302  0.2420563790244524
  0.3585903353390087  0.9599304534358907  0.5720160951355711
  0.4655444371318554  0.4157822345795421  0.1090022143286899
  0.2405183395335342  0.7837697795884425  0.8800046090577839
  0.4703929896428709  0.5723473244780103  0.7646406591614707
  0.2552030467793496  0.0677597658338719  0.9126004459280905
  0.3517327820363892  0.9155598657312406  0.9654846412693507
  0.0019952890844959  0.3122626445841187  0.3672007513921372
  0.0744508485500101  0.3809740262263525  0.2480598023129391
  0.6700449890940074  0.8021567968697830  0.6809048583910230
  0.0996359657884735  0.0367666256113729  0.9922247094275388
  0.2547626467754299  0.6766328009044730  0.6247874082751629
  0.2769058019031156  0.9385600667064304  0.3495791664269822
  0.3623670690540680  0.4289144099451287  0.7298565289827839
  0.8037394543168542  0.2508867841645873  0.4522632650758509
  0.0276884365296422  0.1844404521815564  0.4909781537818293
  0.5620752814505399  0.8569197441859558  0.2422926787532348
  0.0070337588687313  0.9689539413169060  0.9434552537601710
  0.8652924342273133  0.0762303868858855  0.6835513253420615
  0.0424271413059543  0.2276756483458047  0.4105938086567898
  0.6897770405114376  0.0848169902402568  0.6703423075203638
  0.8163356579939713  0.8470146002256124  0.8964852944867858
  0.4608478030941262  0.7688933113539035  0.0857579585773812
  0.8102306713716835  0.3358940543134771  0.2611884940288388
  0.7828728042455390  0.2785722299019452  0.6795286092456216
  0.0494537492371865  0.0167189391537205  0.2153614725480390
  0.6631109187178797  0.5112123445316236  0.0883105751211343
  0.9197382839094761  0.4507453498509950  0.0850769677021684
  0.7890155434720307  0.6439582448586880  0.0140217227678095
  0.2307111758035827  0.1853341648022542  0.6353440464019419
  0.7338260404022041  0.0521070863344657  0.4533823438667440
  0.8302565060148237  0.4710406346173382  0.0489473348462823
  0.7891127309367810  0.0451300073285625  0.5023049368002552
  0.2827718461342263  0.8403603519967555  0.5186099081227297
  0.0324194693467060  0.4489467323800653  0.8628923741737762
  0.6720023613470195  0.3823250483318557  0.8786384351799484
  0.6890043215497309  0.6546757933926317  0.8539268662265027
  0.9392719210557481  0.6142282591987717  0.5411578168668763
  0.8092332773357055  0.9811538210393917  0.1730239834840353
  0.6810012520627023  0.2572007019264122  0.3958125970379659
  0.4800024401815564  0.8452555464459452  0.2460500694691856
  0.3391998547915253  0.5885538579552350  0.6006391001853604
  0.2779171324431676  0.8137250924188599  0.1533294921272859
  0.0579776179456178  0.3053111221618605  0.9667169343036864
  0.4175737956530570  0.2854074035139156  0.2804297307617898
  0.0012590227173909  0.9426782513010107  0.2057124626096302
  0.6253812040001482  0.0282096361742475  0.0428319670741011
  0.3002785991031932  0.6547049384692942  0.5694787239098259
  0.3934967846169939  0.4136765885449417  0.1825882313585599
  0.8827014958980902  0.0257704050233936  0.2790944367689414
  0.0079909364445416  0.1488135235667045  0.2428310904906184
  0.4884475099578039  0.9062144194442604  0.1682654086094720
  0.4910750068990835  0.7656169629705384  0.7029935253581298
  0.0962015045340961  0.8198117275747694  0.2682419874262615
  0.2987867000648879  0.3761982030637041  0.0189753009156632
  0.2794419001004140  0.9485983799429769  0.5440644165451179
  0.9597630473510073  0.5467637335746017  0.5461934163938097
  0.5739237960462399  0.8096772792583764  0.2206142613994818
  0.4690532355484947  0.9039007268614845  0.8587334209373918
  0.0685085164390339  0.0516791804183923  0.5187039899591311
  0.1808045389947668  0.5234082826047425  0.5842400350249747
  0.2793454137379201  0.9411982129843599  0.3212272174786618
  0.5153469706499044  0.2072822056642160  0.2956219360875816
  0.1707126263018431  0.4911783590373423  0.7804954878516652
  0.7487950203219836  0.0659364708160251  0.7162663172032140
  0.7527742611802625  0.9165845235485354  0.0700408314113649
  0.8654298972501761  0.5371937517704997  0.0871860774484937
  0.7212076678134313  0.5112263450493593  0.4790318308193097
  0.9425774961329494  0.7528209805457746  0.0163347089237512
  0.9860761922879627  0.3303784156062712  0.2855322567087117
  0.7099811625558476  0.1940011032327472  0.2893428741210937
  0.7475199183742290  0.5650849594427820  0.3325707966102007
  0.4801355284817050  0.7028805464745579  0.7382463485029070
  0.7049086246965680  0.3571825690384432  0.6078512015371919
  0.4862767673257928  0.4168391711637127  0.6245777959039072
  0.5401115330973322  0.0822035661776471  0.1784359693639981
  0.7493132175568715  0.7149602459859696  0.0725197454826369
  0.2326180938033268  0.7130605595179651  0.0052820549934055
  0.3072088894787670  0.8196377251482374  0.1070033150479030
  0.6047421694257049  0.2491072132778630  0.4578962637613538
  0.7884513190862470  0.2849388466512954  0.5439893170968838
  0.4655801199387255  0.0580727074342931  0.9446493599902388
  0.8847296673418701  0.7672103547868503  0.4182277330780272
  0.4166242120707249  0.5093451605675987  0.7218141291714071
  0.0160416986332003  0.4425376120553398  0.0186183482075737
  0.7940362327853276  0.0223944625121352  0.3144731217483500
  0.0489228026489659  0.3023313953956936  0.8088151187340616
  0.7129548695650996  0.8712261643638071  0.6254404844384360
  0.6671709915074020  0.5897742375662238  0.8184906240058386
  0.6795877293506732  0.3040965583187781  0.0918631934747491
  0.6003844058384967  0.5265651071760244  0.1623628966165985
  0.6063509914585635  0.4642883035824483  0.2762091797758151
  0.5897510957654040  0.5123040778802747  0.4793790625044009
  0.5954059495385974  0.7798548699931620  0.6239522772076290
  0.1042118322328428  0.3558824830704153  0.2210727690841658
  0.8914158578223946  0.8697284999260234  0.2402484275667413
  0.9209643551933128  0.6607973277616551  0.9573690982558545
  0.6318929472219973  0.2471089547605037  0.3734352797558688
  0.7085712425978689  0.5026801428625115  0.0637924044990620
  0.3721164637759745  0.3875517676482921  0.3984854693110483
  0.5110856319031388  0.9905749177609144  0.9195600375117603
  0.5553346984434342  0.5773693364812899  0.7677675705570489
  0.9505006681033511  0.0608061627578629  0.8361443490145207
  0.7808336618143680  0.6858058760027086  0.3697184141383658
  0.6174873475178961  0.3665520705408805  0.3106497127266604
  0.9061951038812434  0.6520155278880376  0.7161822506268287
  0.9709290908154183  0.3466631744259074  0.2038618197809332
  0.9286704673721372  0.3815955730131232  0.9702563275934607
  0.9849742781644588  0.2205886311707178  0.0712944595298597
  0.7126909042147151  0.4716024505960231  0.2983085600907641
  0.4924176681658461  0.4618746190606738  0.3610105826092682
  0.0960536372758746  0.6282559481221193  0.7003730996833347
  0.2424499996165471  0.3248673598578796  0.3831775974332901
  0.4271175104718878  0.2937640772965872  0.7169431623568550
  0.7716296913114293  0.1388508021306535  0.5884213570755714
  0.3218352119396129  0.0306904398698693  0.7200101262104548
  0.3785773396741677  0.0140697621874204  0.2279467598984343
  0.0065285139802554  0.8220133199510792  0.9906622028491581
  0.2998305873052391  0.8252128938727078  0.6989523549399584
  0.7053465450425137  0.3549428357083082  0.6578756270918620
  0.1224653866715723  0.9743880498197557  0.4681629614108275
  0.1977156473812296  0.9210602040916557  0.9265595401166212
  0.2096929282380295  0.4036903412427403  0.1563448322861277
  0.8605974753638500  0.2577789919735238  0.9085067849060956
  0.1461407868632726  0.7761173699271475  0.8561633615991669
  0.3587795765334184  0.8900583572390079  0.4807068315505387
  0.6598546419999035  0.4368231549586550  0.5489131505625701
  0.4488659893889407  0.6289750769227718  0.0206923428960864
  0.1208903453216966  0.0926212048284643  0.3825381489845148
  0.0714610072188956  0.1544164891133852  0.3198976062007536
  0.0017327889075109  0.5360936490672941  0.1070285934281667
  0.2480258040781718  0.5091103969526065  0.6966301787878267
  0.7752767415883378  0.5822132671751935  0.5093806929985528
  0.2787806856622828  0.6620945692302700  0.9949510104224691
  0.0581607136168959  0.1710569727983591  0.8856631729596374
  0.1266567921662144  0.8536931124627742  0.4747262131311242
  0.8178709431689992  0.0204663100489959  0.3544749983698071
  0.5296081154478443  0.1460105317736769  0.3012102631529643
  0.9650774499328506  0.9574521054181857  0.2691689940526259
  0.2005140471677987  0.2492041470559040  0.6599249189125159
  0.3334157826911507  0.0246921705193985  0.7735395827317880
  0.6115138217530521  0.7129485545027867  0.4600599579749309
  0.5395323231505954  0.6459949550094611  0.7066054797767931
  0.2143679145874413  0.3331744669680614  0.5030554732249681
  0.6550985166080945  0.3036229791864306  0.8042827485182236
  0.7792642963207789  0.5212652964125862  0.5617867441846719
  0.7797341731971674  0.8744082488486776  0.7001265806688676
  0.5049316594778206  0.0274548548447717  0.8272152876525788
  0.7320427041319072  0.3217625264246213  0.3972245546758396
  0.7352960452871294  0.6517655567777808  0.4051485835950177
  0.0686240080043897  0.6030574424985109  0.0646993309991531
  0.7916589752956760  0.5619672281531733  0.1338954391361920
  0.8949701382206872  0.9066915316556542  0.7828333679795085
  0.2412129567497062  0.3085829030091768  0.7990125234731396
  0.9745953965272164  0.9565549788364022  0.0063033401809211
  0.2417447363753269  0.5574349871080867  0.3736166965798530
  0.9399695141677872  0.2444235525894584  0.3047272256207252
  0.3756682478756901  0.7372271386988885  0.2787471170727775
  0.7175618253807748  0.1873832080838702  0.3151632165689268
  0.1684253491644390  0.5314275948508547  0.0613953149220997
  0.7215664734457338  0.0443029636591687  0.0636514403644158
  0.9381207147743504  0.0959808257614870  0.3192105337604214
  0.3393032509403202  0.2165594945674257  0.1234648348656863
  0.9307968698139596  0.1240358356861741  0.5400500474988175
  0.2575664129356399  0.2360425234060802  0.7390284168946452
  0.8930050190071189  0.9121117105594313  0.0569813205990894
  0.5964407724077659  0.5799734442785380  0.0882295301248930
  0.5014741066102267  0.8477134640505951  0.5613129025708319
  0.9431281001201247  0.9084224021878045  0.4850142214616869
  0.9200859570289077  0.7255857662877611  0.7291438473205647
  0.5785352143796334  0.5946231436691041  0.3756522046663804
  0.0164465176407338  0.9517058210605909  0.0316930066855715
  0.8549932580475699  0.2547032348941591  0.0404977898121141
  0.1999639520155692  0.7737103982980450  0.8414782400694021
  0.2152081319510969  0.5573184934480162  0.8007211924401569
  0.8310068508577640  0.5414344624897472  0.9188516163855578
  0.9033472668774114  0.7272767687862739  0.9076620906354185
  0.5153652678301801  0.5847239759225951  0.4696144320198135
  0.8812051427301155  0.3780506979715106  0.5283492814297208
  0.7865083725820572  0.1320472968129173  0.2290644165104036
  0.9238209442881475  0.3829491008188338  0.8707141522288105
  0.2569974537293688  0.3171891785701107  0.6219176512320796
  0.3212374714814174  0.6065408792430378  0.2361920892403010
  0.9590339252816207  0.9065274772867233  0.6530347520631464
  0.4005247696650100  0.7202117667208935  0.3992112426203228
  0.2689403935514055  0.2262392832861075  0.8133945408694844
  0.8834442114572112  0.3216918037741267  0.8300441795544335
  0.7367377469168785  0.4058653405836068  0.2445246515569164
  0.0837706507656350  0.2414612236058922  0.8746039376012845
  0.2376865587139325  0.1986047136043926  0.3245392801680566
  0.3741542043922824  0.4704123050962026  0.3404094027823742
  0.0100459561303257  0.8495385996083824  0.5130240973739237
  0.6906757876478089  0.3101864267025425  0.3057078109878113
  0.2982526790480940  0.0136781058018425  0.2058877746655758
  0.7965465211613145  0.4063898940402781  0.8024347120174279
  0.8958963119973972  0.5535726896263697  0.5079495769503666
  0.1497052466132396  0.0674422186891371  0.9094930909929033
  0.2420492602572469  0.8026152857890662  0.3169088201826786
  0.5702729107617974  0.8431407142741486  0.0242692851098771
  0.1620298766331474  0.8494808425330682  0.9014339250721884
  0.0029420171915999  0.1675268733124237  0.8949802711403494
  0.6578705478574650  0.2992362543054089  0.8787396679160018
  0.2400070706625237  0.1799923847836281  0.0288246448180147
  0.1258594837392400  0.7784491027172381  0.4933626657764106
  0.2817895184375697  0.4797457480234664  0.3162364115871993
  0.5832426501806625  0.3838446626858735  0.3910984799566213
  0.3042704297923519  0.4493044585201279  0.1303033938222858
  0.7773819976922688  0.5663429560917830  0.3381680487984498
  0.3528775216598621  0.8614176487347516  0.3673568330287107
  0.3230830316808176  0.6476694431766311  0.9409266956431996
  0.0754611439603623  0.6633567919153944  0.9858523237200253
  0.0454240038942441  0.1025907392559582  0.9404504197231005
  0.6454391071977724  0.1611839126451589  0.5301031920885789
  0.0448924189712966  0.4208837601603864  0.4688290412100832
  0.0530494544100652  0.2905465373380321  0.1909173876466641
  0.3406302042337702  0.8035034773961395  0.2319603768501140
  0.6127876668564854  0.3034313530438991  0.0609132582747293
  0.4236131628646518  0.8462491648643933  0.9323250254702234
  0.0544165853226021  0.9630492083042866  0.3702467366064222
  0.0897982959085717  0.4030011180054450  0.3467195346577560
  0.9888150141113543  0.0347620849613247  0.3552635175731194
  0.6625430004296364  0.9323109367747664  0.4933840664688239
  0.7896215198632603  0.7212232594987530  0.7866690485450766
  0.5246914239282299  0.0812930448068901  0.4894284228107431
  0.9862895380643396  0.7545780100981835  0.5703367318554915
  0.7299938971484122  0.5986288152205298  0.6269092092181630
  0.5337776274241668  0.1498368105111638  0.1450785986854018
  0.3354231401036490  0.2270447023037748  0.6013010114601757
  0.2866232341732305  0.6392358933805631  0.9743742176637034
  0.2309775978058505  0.6461467265385826  0.3306632766258096
  0.5336332459235462  0.0868070368728472  0.5730055316162126
  0.0068335945255839  0.5152006045519784  0.8311842869909328
  0.7427088732798761  0.2596984739434289  0.3334705718105893
  0.8161843611019080  0.4735662413003774  0.9524965012362068
  0.3069432744934529  0.9435850771688566  0.2792972882896169
  0.7891520698630372  0.3477264546004747  0.6004996866457940
  0.1061975898728789  0.0192388422658457  0.2480581561058304
  0.8034748298360019  0.5922195253830910  0.2743179418398625
  0.8786841999461579  0.6259006164750935  0.5047326802337680
  0.0193811098617204  0.1902634286134864  0.6421431197908765
  0.8325439374866800  0.1912584576246645  0.8725011150459485
  0.4075489657538644  0.3133358952880847  0.3716733360863806
  0.2705015497201908  0.6350123613641395  0.9507871401821182
  0.2571207537018919  0.1090308204413203  0.6602556025156990
  0.1646150839386594  0.7308930620839454  0.3208501400386871
  0.7191970680244212  0.7160017855693612  0.4273608161078605
  0.6606815450010342  0.8675256708558075  0.3120710415435186
  0.4275633424578260  0.9292766435551705  0.2726924273344775
  0.6716991399881115  0.7154180219216224  0.4157001010775703
  0.6734972924232594  0.6660179019902031  0.7581475342638038
  0.6892129933399255  0.9250701909258848  0.4976567380120669
  0.5168671460184637  0.9184487514893841  0.6430376343294232
  0.1988399030602318  0.1194696493129584  0.5541843577312147
  0.6854837905419066  0.5200165413308202  0.5953397414749806
  0.1199002674546463  0.6625663183814114  0.5469586246643822
  0.9470307991569984  0.6002032280587294  0.1967168202711600
  0.7826729137537973  0.4815630808373143  0.0331382535115457
  0.9262738953697118  0.7591687727089730  0.0775304164733204
  0.3530958692592077  0.4441620704207114  0.5970664507116378
  0.2874085636598564  0.7117955510204915  0.4621946745428410
  0.3896682579721077  0.9623421671919401  0.7904242829897477
  0.0744665122933407  0.8465393118712459  0.9010806846311380
  0.7404287018353700  0.9746454599828158  0.1197906782213836
  0.8057754182255638  0.5663280735727244  0.4662098076852721
  0.1040080688033155  0.0783731608184056  0.1370632268744079
  0.0335423831077494  0.3719901760180691  0.9912707834144562
  0.1603491209935311  0.7238911884188296  0.3479964393046622
  0.1426342414209673  0.6432064066916193  0.4063921180436316
  0.7138450534865470  0.9188605288047782  0.1465443026850856
  0.7662936945751067  0.8970904372165672  0.2631030669005511
  0.9888302019196106  0.7467170075714474  0.1145178706513931
  0.6969762682177950  0.5403817773703773  0.2792027083905544
  0.5636245298304171  0.9718717366236973  0.7660683007725392
  0.6261045861967833  0.4534019937974400  0.9760536169483126
  0.3643751001209899  0.5897021416182708  0.4336539058391763
  0.4559663912710940  0.2541748927756653  0.9857647987085356
  0.0169576145537730  0.3006154256320184  0.7717245363814710
  0.7983835105916658  0.3977747003839555  0.8989175044822352
  0.2851238890215870  0.8097800782185631  0.5653476821849784
  0.0177811284203390  0.6564940480637536  0.9401944175155564
  0.8729716320218142  0.1123491966883040  0.4925460150338796
  0.6578138468389927  0.3833158945049361  0.3901881014222311
  0.6314365388668362  0.1559053651437266  0.1317836516529816
  0.1818871919156849  0.5211270852611491  0.2384883241287719
  0.0086826542224023  0.6967444229743633  0.4703813525057992
  0.1514981218331991  0.6552462125172248  0.1740934210295816
  0.8869746544712114  0.4564068754989155  0.2344968599641262
  0.7784949049002639  0.1810636752928503  0.3915426018314318
  0.8928815916848507  0.0527478236657930  0.8054874640830478
  0.2295107666329512  0.8569363915265316  0.1502510534300401
  0.2720486000642960  0.2493210770151983  0.3791180567039567
  0.2258530504083810  0.3124597467470355  0.8456381794298505
  0.6476953164957698  0.7892999993009716  0.0362985927126639
  0.6427839253653832  0.5182183235886805  0.8362685946458182
  0.8474954265097417  0.9197048890754906  0.5778063256023469
  0.6524309672261251  0.6603257308727979  0.6137301531659446
  0.6335610347121393  0.0895090058125537  0.5895121523081205
  0.5264244592016157  0.3527893604295437  0.1853558449510130
  0.1847578153182303  0.8747296367883083  0.3135938751306548
  0.1732763900274826  0.6000927069675729  0.5895548236765897
  0.7105544870162706  0.7825582452438319  0.1550087101890957
  0.7463423442416985  0.1048212267419710  0.4003549985158333
  0.7476880927554788  0.4938127039557769  0.0883639500362128
  0.6303689826793993  0.5160377669692426  0.6601815191953035
  0.2300402905349186  0.9372227239889178  0.8370448002999674
  0.8285845436529014  0.8536504443286815  0.5335380982328638
  0.7250644419801830  0.5681797545876931  0.1632510033489815
  0.4000890577011489  0.3118874708124604  0.3982953213886078
  0.3034789540218978  0.0073036496200254  0.9051369369467572
  0.8534011533315579  0.8996680076800893  0.4087857951912774
  0.4430820264070400  0.3194554563772604  0.3423021949138595
  0.4263160418632467  0.3514050726836804  0.1021035106052994
  0.3046635121438717  0.5031480850283909  0.1453279734591509
  0.0957730067265387  0.3264889205489298  0.3482756704346285
  0.9098313987511931  0.3816998285829241  0.3802009749455043
  0.1947737452944501  0.0551287767233934  0.9705982106056374
  0.6508894634612269  0.2108560354959752  0.7393650272434699
  0.7855505288778436  0.2691916509203091  0.7771755921768055
  0.6740324892549832  0.1077518676079818  0.0757657354594479
  0.2880775924866109  0.0342499405619671  0.6831606861958934
  0.0718475976364531  0.4948352633953069  0.4426329994956629
  0.5072673697791451  0.2060779255964243  0.2681887267255523
  0.7245221144845726  0.4799322339246347  0.2270078717772634
  0.3241252494450783  0.5004054953292046  0.6773932325946668
  0.3637885288639713  0.0339025445267497  0.6838902599833047
  0.7184450823539165  0.9569775546297351  0.6943324237081011
  0.2912487967065520  0.2397656002875493  0.7072786464676482
  0.8130284153974485  0.8253089389847982  0.3170051663039488
  0.2809529561959907  0.8640077754417477  0.3932674888388349
  0.6380509201700111  0.7847313808169670  0.0835255125141591
  0.7488049961461345  0.1137215012369381  0.8923907173495347
  0.6702429764780302  0.4915058217659796  0.1778776259190137
  0.1235832158256709  0.2795562823828314  0.2574544582511643
  0.9719314350548072  0.6448885319314495  0.8211810264843898
  0.8619038564707395  0.9727354228141076  0.4868324022063409
  0.4754195281799476  0.3147442081758481  0.9340525548100573
  0.0744322915203962  0.9464803753195365  0.2020453192476659
  0.0082014994259936  0.7507694892801456  0.0937634231419481
  0.1423339462199507  0.4707855217429169  0.9934943691629655
  0.9042926844396303  0.2506418028168384  0.2713143219555442
  0.4648593850793157  0.2849011942772747  0.5527036734468669
  0.9374897218606739  0.9851674832369582  0.5472462208467527
  0.5132075573695748  0.5234026378778595  0.4170748200304586
  0.4851015707090690  0.1434143483398635  0.1500459544266096
  0.4414342823467310  0.8497475565561343  0.4651247951802459
  0.0132459485688459  0.3561440595737497  0.1687471438164021
  0.6660970802523545  0.5849570999714998  0.0638587710486133
  0.0043485043092438  0.6140785673743863  0.5693429948338005
  0.6138586005199602  0.0922676021008037  0.6335118378924599
  0.7396426020430171  0.6823215085549028  0.3102811363562021
  0.5462282572600662  0.5079053513994125  0.6458365044542492
  0.9869321758610822  0.9726988584431217  0.4048716807579731
  0.6918475380296008  0.7915803718022197  0.9248102740420967
  0.8123685129794956  0.8986210398704045  0.4344356001838557
  0.9285599366814398  0.5217299164813940  0.9158158704594739
  0.1617469672194473  0.6556810076759250  0.5181340482549739
  0.7639603845473459  0.9797941581108912  0.8840303455342166
  0.8090830981950832  0.9943625735585578  0.7658704498809910
  0.8250374138124872  0.0625521887775191  0.7724624552187698
  0.8932055419221452  0.2573447278565292  0.7383465511093603
  0.7879251062845750  0.9594118096714401  0.4255299617687462
  0.5534555603340895  0.9558069751318279  0.8474314710432120
  0.7846753811422271  0.9477148382904741  0.3513346252806181
  0.1580386957289384  0.7652193526429336  0.6998700363931262
  0.3782634572069852  0.3000528076337480  0.3024470967585476
  0.3343701514409601  0.9505688185320819  0.8684091942428900
  0.4425183345150757  0.1064632535987911  0.8248186841367676
  0.5054018947923286  0.0801103121564979  0.5345031916509134
  0.6378793635883784  0.8559757232554740  0.9478641024358092
  0.3127906822814287  0.8719506508672042  0.2876135505555288
  0.7904350479340372  0.3061477772547533  0.5032947653302203
  0.0565719220788834  0.1165971669067339  0.0237220012562958
  0.8376425463975107  0.1572324927971019  0.3236247071059544
  0.6317597976107256  0.1588472083626336  0.6867695722285244
  0.0147327399624227  0.7353411674111368  0.3149796174703914
  0.2264865594320733  0.7827685472214780  0.4109311731004869
  0.0246519082741405  0.2151268337845486  0.4562911038167686
  0.8040270721684982  0.1909424544961643  0.0114148773215380
  0.3019931217522233  0.6223795534957659  0.0161016402414656
  0.4241545734508264  0.7607067371423067  0.7369939289364598
  0.8175401258443019  0.9374201703216261  0.6735597983117027
  0.9606666808249384  0.1809333797803942  0.5278586016974833
  0.2415047674899880  0.2482055208548596  0.9489851274715587
  0.3783625017223085  0.0408521739232879  0.6377403258769856
  0.8433209434384114  0.6455649644310324  0.8016106583435367
  0.9117262923341953  0.1449075232383682  0.6946692080788195
  0.9840596175850320  0.5367272540408449  0.1294772948910816
  0.2753139677849022  0.0084259644039082  0.9023919395996456
  0.2535926583068167  0.1610991916409960  0.7782734182939075
  0.4181467542020628  0.6966284525543226  0.6789744135224606
  0.9356886688737113  0.0590476919622835  0.6071491872170272
  0.5475307966865933  0.3932510148835652  0.3079329209280785
  0.7492266736453222  0.9164593663277252  0.0206407928105890
  0.0012635832496814  0.6266563866019074  0.4561440013098561
  0.8152230559015381  0.6499557601140620  0.7591049947215535
  0.1984203277585163  0.1359983095778181  0.3959338482925419
  0.1368318639715588  0.4096619178081574  0.1341255568872220
  0.8507916564804550  0.1897248026700218  0.8942893942213771
  0.7485284908896580  0.9775008242746822  0.7309662605977121
  0.0935344468407582  0.2347866688226518  0.8202478370801725
  0.5621364963992267  0.7263457903936967  0.3460210747847750
  0.3437419233763427  0.8640263804977991  0.8682512843763074
  0.1875927797339444  0.0680363006702997  0.1222858623395843
  0.9347926865360016  0.8904945893077580  0.3100405840924098
  0.7456581307085401  0.1342083921573594  0.7352392341789545
  0.2377279002230533  0.3211200020790501  0.6421356988572515
  0.2907294869380354  0.6078011498737603  0.2835478510513623
  0.0136775147519245  0.9073384940258816  0.7337316125056236
  0.8111761134646086  0.5746678447415680  0.5406775984507731
  0.5928760304030681  0.9399692944001692  0.2909277795174615
  0.6812513441551439  0.5158535348965858  0.8673862115418107
  0.8486567065901849  0.8018720790099875  0.9730601223378513
  0.8534115993429056  0.9823142504659290  0.5351608343887055
  0.2525893722199223  0.5660261832619040  0.3441738883909308
  0.7870793137836323  0.2137886590982793  0.5022451252753892
  0.9756200790950256  0.1010973596727855  0.9647554935355412
  0.8950468757001609  0.8988129592833779  0.3835786818935792
  0.1063449927781786  0.0253949406985583  0.3525306717547873
  0.7840890675901723  0.7855383663952541  0.7904272093579130
  0.7665392632045603  0.9875018006562113  0.7872029877197688
  0.3795260158791177  0.2738791122599982  0.9084011016101188
  0.6523840550175338  0.1044532439252642  0.0940400667463787
  0.6818715651405758  0.5963000481982563  0.7461546574443605
  0.6241168185778284  0.7170498067252429  0.4043295165484924
  0.8715955151717952  0.2658445275361878  0.1654790892636549
  0.1601661758692222  0.5294383136046866  0.1105472367073899
  0.5896305075627007  0.0982536354007892  0.8070539591632205
  0.4252096035571568  0.7701744856879900  0.0495194590250158
  0.2623725939865932  0.1506518162333120  0.2927483225593153
  0.3925878338613283  0.2384971193113345  0.9340143340015115
  0.5767860802784549  0.6548544643072867  0.9477018340208793
  0.2482363181944496  0.3807076888781010  0.7552891626531175
  0.1954651286417236  0.5118367396050720  0.4852501371421523
  0.3172078799369740  0.1649567748744739  0.3419521228714240
  0.0472486953367912  0.6398706067920619  0.8226424403443325
  0.3674576996048208  0.8575105309212111  0.3923535238532346
  0.4639020305174478  0.1849309392367834  0.9939017304129352
  0.5267635349924369  0.0074360670678709  0.4536181055278322
  0.2902101784623849  0.2243328535505266  0.8327806538292606
  0.8438114017614444  0.3954613999599201  0.9702711694607106
  0.3134690545203108  0.3707581675300882  0.9951445687739745
  0.7785630289688878  0.7523510826550910  0.2865931501793310
  0.9896315059366950  0.3956246475411021  0.2788875987467255
  0.0259172038834752  0.2204485090855751  0.1554530536917892
  0.3722028410147152  0.6386936739412605  0.7348571401078393
  0.7355840649168822  0.1437472838105355  0.6797797168373760
  0.2363386018495190  0.9423275406456019  0.2619944374242824
  0.8773077119021736  0.4078558848058069  0.6222364013339132
  0.0773050673283900  0.9429458979262930  0.1750245493744978
  0.2139569744996264  0.3785666988636426  0.8757053341675836
  0.6587264423498614  0.1041764932985925  0.7768936827098786
  0.2895119111454805  0.6604696112892371  0.4068529920260186
  0.5315244428711365  0.0038317439043317  0.2485391006132828
  0.2562711345828063  0.2715409529436901  0.1943805291432282
  0.7093859080987367  0.5606002012920596  0.1849959648746324
  0.9319287926018939  0.4869227493783220  0.4159239812438522
  0.1120308322496058  0.5784561774623447  0.3483932092221403
  0.5633049635716090  0.0994660957774681  0.7980686827288810
  0.0856332800273178  0.9566375845088105  0.3024682874245375
  0.4183957823729829  0.7102680154026184  0.5503239120499565
  0.9521527655806753  0.7610051002054252  0.4992915856916552
  0.3141914561040743  0.1496445624791600  0.8925434205610698
  0.7494468037006815  0.1225287595458976  0.1061499740893893
  0.6933140725882958  0.5826084711924457  0.5037879433767699
  0.1882384248115925  0.6916635089464351  0.8471302691491120
  0.3486899504356733  0.7855535265881032  0.4565935358656340
  0.8528664566622350  0.6808298368539489  0.2699405691242033
  0.1311652577199005  0.0876964242397168  0.2801365658788232
  0.1391282554973509  0.5118997483115364  0.4770031095866339
  0.9773563599944879  0.0158123130562194  0.9176206175140403
  0.7971264288539279  0.2775471527912143  0.7239180898699326
  0.5471766470687883  0.8505677691607925  0.6320791676487409
  0.7778376553480650  0.9765493052877255  0.7393015172533012
  0.3687570857348504  0.0944938127590075  0.7884789522483991
  0.9500719566972478  0.4049126534763897  0.6443736984191574
  0.9908131727560978  0.3030198931917011  0.7618546346527469
  0.0545854865339282  0.3798955038955313  0.9405810041518797
  0.9593403759853526  0.5218620625450433  0.7716328708490638
  0.5238400980051788  0.0279888523700319  0.8061035915978250
  0.3554860945183621  0.3567054408845285  0.0880642989372178
  0.2861044384962828  0.1701330721193734  0.0481620420488829
  0.0269928741896805  0.7096682098433748  0.7930457107906198
  0.6324090935961862  0.2817496072146948  0.2783974910864601
  0.6281469536625126  0.3471879186114348  0.1922909338520094
  0.6590159038567671  0.5398683298039059  0.2464167095960458
  0.0575392700784070  0.1860193095153332  0.6107991084122769
  0.3753191431274558  0.5161205246096940  0.9134016147228433
  0.3742412504206562  0.7918270446793654  0.3867109099580456
  0.6088442067658046  0.2304479074101672  0.9353650439338337
  0.9341128483870950  0.8424682955382110  0.1223906865274770
  0.5297574863516468  0.8480956683798856  0.5597148535208658
  0.1718543101888679  0.9592846840302102  0.6005462225004529
  0.0764933752998730  0.8187603595657872  0.6062571369885145
  0.6301773545356394  0.1552261146624827  0.6596244891155530
  0.5136930630055034  0.8394641733687068  0.0268558215210763
  0.4563275691084054  0.8329271933589576  0.7124784286503414
  0.1631360604235919  0.4682245639298138  0.9387588789109700
  0.6809267435233731  0.2913513774531672  0.1172568142368831
  0.3547314993561151  0.0253549812037960  0.1191042684644234
  0.0797444114154883  0.4811387687016258  0.0996773923762529
  0.3646834943318084  0.4465474155084714  0.8248398347977246
  0.8658708769527810  0.2583107045100144  0.8803564833269569
  0.9413603498271093  0.2711782046412030  0.2359737897761253
  0.5239057980397267  0.2817621951953055  0.0560167588479285
  0.3488128101032037  0.2245164659032856  0.7874432639488331
  0.4436315930279278  0.7615854637735017  0.7163116989126701
  0.2288540882928192  0.8016702159157020  0.2155339862519249
  0.5826739767161671  0.5760944656889195  0.1125874859904054
  0.4802837137309282  0.5022717041173369  0.6093608534659485
  0.1361912571779167  0.5205272804034711  0.2558669165231205
  0.3686149422194931  0.8282863372833051  0.6698244283661771
  0.2022410922280516  0.1456452558624659  0.2164142349956972
  0.0743075455271850  0.8757269746125795  0.9941360578935898
  0.4983875656189879  0.5494690761943177  0.1627538326001115
  0.2518684026095620  0.4019442101335163  0.1325869537161202
  0.9933388069917748  0.1701447208916448  0.4501082159499090
  0.4784372793479816  0.0952041718603144  0.0723987804640722
  0.9605494228794186  0.1578168747596166  0.8017660858978204
  0.8991198509958266  0.1124967569886060  0.9297516697172780
  0.8068044999483184  0.1236213313913911  0.9698302139842635
  0.9587068084315569  0.4049969101257566  0.1810115892017872
  0.7733454800612325  0.5961968485012777  0.5552235604729313
  0.3982382747763260  0.9561270829742586  0.0754660539566277
  0.3624735391246048  0.1693148495670904  0.6381466129918189
  0.5933601686711494  0.0942750722172529  0.8341477718258754
  0.7261546240983611  0.7217397330461980  0.4006158593346375
  0.7838977352684671  0.3376879844690823  0.1914688038201310
  0.1161703448868035  0.3112980018356268  0.7796395781699815
  0.4527572029022371  0.1311389614790988  0.2668310399154716
  0.6002777313468046  0.7154540466939738  0.0886189371160440
  0.0202971855038770  0.6090445902793821  0.1783936036339812
  0.4283085681648107  0.0005139627055685  0.8583213310925192
  0.4640756643949733  0.1958287865848155  0.4881897849781706
  0.2130222482775863  0.0017906662480785  0.1526925545944081
  0.2329605517690790  0.0681756508749512  0.1354258430757515
  0.1069479596283533  0.4575258586508219  0.8735983610900717
  0.8435122349054376  0.1893362967239559  0.9471479863415054
  0.5718209189102015  0.1666030851253001  0.4889223231385285
  0.3834409200386966  0.2956694618121213  0.7378075973037792
  0.4323646711700642  0.1877525359985259  0.6525279062970660
  0.7906562871548511  0.7640166882730239  0.2317605157056566
  0.9987007699619682  0.6295843660664971  0.4279075888971450
  0.3997054573118906  0.0458736846258389  0.4086376665552680
  0.5225136215598424  0.4156880589185386  0.1093024088960585
  0.2366501986895233  0.7231416182277975  0.5810400184320583
  0.1910403458188132  0.0224506466441046  0.8079958156578415
  0.0831087752668176  0.1830550644493797  0.0287046305190597
  0.8414225749315054  0.1356772436173715  0.2776461685628484
  0.5141703660267291  0.0234831130323432  0.1700935534077000
  0.1318311192089970  0.0843297252454378  0.2055836344018005
  0.4965516120745249  0.0562175648509011  0.3969730190302321
  0.5613797377905146  0.2428408836961983  0.7170285831036078
  0.2548654912944434  0.8568631423508787  0.4707167266991037
  0.3951292095324873  0.8455224941684144  0.9329007278991353
  0.6588032580540636  0.6474551921570390  0.4655936761699917
  0.2629730002659199  0.2487323141773320  0.0443493181714873
  0.6303000803039375  0.8616933747040989  0.6264107145027252
  0.8453643834044189  0.7210441012479951  0.7693056540627718
  0.8116232972680827  0.6613634974051813  0.6158775493290699
  0.1158774536184767  0.0474291017004742  0.6092167333342474
  0.4483842396297114  0.9928989284302535  0.4266519889305727
  0.6236623265921466  0.5900633835383448  0.8911776027280282
  0.9952101363994845  0.4771673084694978  0.5981540935475849
  0.5903237411484460  0.3490008638989198  0.2234954738837700
  0.0443788563516529  0.6588509718087507  0.9490599568858199
  0.8162883210531002  0.9771575078140334  0.5035570363264383
  0.1779558210679173  0.9926013093115317  0.9702148303727105
  0.8762246462610110  0.8751994656202734  0.6832388240263852
  0.8931305756256885  0.9764154768151969  0.9555247822231294
  0.7248387801459881  0.1829997710121434  0.9834191356015186
  0.0199807851259976  0.2436332554271247  0.3261722676136094
  0.3010613983985351  0.2265527474479667  0.7779879923845784
  0.7163683735849630  0.3868095974142504  0.9501924353625225
  0.2833593051393804  0.9731227520925679  0.4755757380095382
  0.2901667481233708  0.7425835028668493  0.2038763256059057
  0.3500782490678796  0.9303173692216498  0.9099704530496490
  0.2783698533207467  0.1577792701578445  0.9246822279326625
  0.1139227827033025  0.8139325212407232  0.6356815868677844
  0.3787457584582709  0.4144410453593372  0.2068974536929246
  0.0900679572073281  0.7375585721169170  0.2955515592334953
  0.5132135674769885  0.9978334216367264  0.4996298422475887
  0.9772352692574479  0.5164391749427689  0.9018862499790196
  0.1739631639048003  0.1166207327091413  0.5991081115722433
  0.8211176276509649  0.9945543717378337  0.7407120087067147
  0.3484134568531418  0.2549901787528392  0.4384371736203452
  0.2472190023139909  0.8501369112500701  0.8994527358194937
  0.8906985148638352  0.9381524689629546  0.2184679313704865
  0.5492854174828232  0.5879828550169336  0.9635526062007258
  0.1961574476710354  0.0517425759311594  0.5323249256040593
  0.9715724035992562  0.7209226900992387  0.8791159512560711
  0.9326477871979174  0.4508553998315627  0.1816749854634281
  0.1947371743999517  0.3151023318736443  0.8075173634639461
  0.4091701093138104  0.6136301458193522  0.1922042351444768
  0.4342987979950370  0.5361577600133605  0.2783418980923258
  0.7889472501565772  0.5421810567458980  0.2458888771896439
  0.6699121876839756  0.3146014839676554  0.0066141358020045
  0.6150203071174858  0.8509074225669460  0.5554585280341141
  0.7833667751342299  0.4261946710958441  0.6595381762565639
  0.4655707934819751  0.4931488220488149  0.1087437484111874
  0.3532494338365970  0.4685612351893998  0.3222508522617793
  0.4139168959860494  0.8912415628390171  0.1580517228294022
  0.3763570368987875  0.5778383130180083  0.9042047156643388
  0.7199293559261861  0.4805349033495986  0.3678939366015147
  0.2631504536893864  0.6683685340081424  0.5992120906538135
  0.3327666242453858  0.3894965896480855  0.3186029513206970
  0.2131863443116772  0.2022051044954801  0.2127953016990237
  0.7649623698637643  0.5729934368623448  0.8411166885827419
  0.6903022002298445  0.8672221618222699  0.3606329350975730
  0.3741093379570899  0.9309957496794656  0.3517079882532770
  0.9704706784353913  0.9046567034348250  0.8218257295942520
  0.7400174949925945  0.0478478558448808  0.1589767620082428
  0.6791136581251226  0.1173085051299189  0.1307638159478249
  0.6344295373660981  0.7150137225505193  0.1222577638045179
  0.1169546595483293  0.2215857136687610  0.4027620013399777
  0.7402663779419337  0.6432108158208792  0.9944448127379237
  0.7142482133902320  0.2826360991452411  0.6659931823585190
  0.1734133892146527  0.2730590723939073  0.1713775633485207
  0.3789056440725864  0.9843771908566687  0.4541513286124333
  0.9286645594050169  0.1307218492456254  0.1839040246980384
  0.4021043252080454  0.6048891786133900  0.2900489809561362
  0.2573606241128054  0.4078223840633864  0.4916259912860286
  0.8724411717791550  0.8372458041406589  0.4641033906777193
  0.8786992909521782  0.7869176066616334  0.9408949436484929
  0.4057066808129274  0.6405040633345321  0.9271778559067044
  0.6556951686584116  0.8053209318777577  0.7053386523977042
  0.6191786605058867  0.1690015496503820  0.3794948041024090
  0.2694139733607350  0.5307381656763230  0.9761544296315194
  0.6592238298174696  0.7208758874457443  0.0257822008492526
  0.9363482312578648  0.9597922562131541  0.2705632654654020
  0.0139789857551504  0.4465929654072082  0.8410265592436027
  0.0713291928788787  0.3491544940448327  0.5289311566352275
  0.4254498797044237  0.3145447099616580  0.3180934152161461
  0.8845335950029574  0.2393400087785775  0.4651341543577206
  0.2247266737903375  0.5293976219230050  0.0705020080318268
  0.0842803021333566  0.0427176112275950  0.9067681801728703
  0.1181405126641214  0.3971044812199879  0.9855286269958589
  0.6634817686659920  0.1835629441876746  0.3010136744202078
  0.4010682927068322  0.2911456159511344  0.9157671023239726
  0.2102407091386685  0.1450698164964522  0.2727887934582643
  0.4063828465930447  0.4846063578079188  0.9977453399760475
  0.1260216172015875  0.7177366518258761  0.5107940348105688
  0.7075419074887654  0.8657065577196187  0.4340119588856990
  0.7505426706107621  0.7348027187067204  0.6194684030930677
  0.5383132385461593  0.6573237153661379  0.4358341841391912
  0.5641215067261591  0.8649233130555896  0.3397263388463505
  0.8745512961094378  0.3165036087206030  0.3466668020234825
  0.1914560100991580  0.9452900978706560  0.2315609846027215
  0.9770592943582133  0.5257147537860062  0.9770792759861008
  0.6512556072995799  0.4432514366491462  0.4520237529429171
  0.3233376283982416  0.5044569219868947  0.7545041718937174
  0.7898579885775013  0.7051434626862783  0.0332304017046761
  0.5087835359909441  0.7800846531777894  0.5331682777058786
  0.2326505113204972  0.5300920031259586  0.0212164358320268
  0.2628330607115283  0.9412741503032483  0.2186285415767977
  0.9336454283990723  0.0430239140442209  0.4774339157862043
  0.7631970983651239  0.4047914165419018  0.0702760284014122
  0.8658841978037597  0.5388424052567219  0.1624138388256192
  0.5111880199756602  0.5822738364681207  0.8936367581134672
  0.0799698665089419  0.5727790347439442  0.3880995386609145
  0.1669616885861746  0.6549669017483051  0.2579476022934357
  0.3791560650795334  0.1381208457013333  0.5766667642345483
  0.7195540965162479  0.5086770483499576  0.8989422475951571
  0.2873442275249187  0.1069174524132882  0.5378327125367175
  0.0059089243514714  0.5252694417767263  0.9822793202017603
  0.6533681114736277  0.6675700800490854  0.3445916829535118
  0.9311786513772154  0.2629596571305048  0.1073071266703320
  0.3661225868623698  0.9505503736276066  0.1418788045204691
  0.2002423858004108  0.8481146210296072  0.1021057488868967
  0.0866525037486137  0.3961370964567661  0.0198280823637851
  0.7163571895628953  0.0134159064360852  0.6782910715514574
  0.5894620984349650  0.0868646316028870  0.1731282185978169
  0.9938196025671441  0.5367092811971016  0.1565179708686294
  0.3462446514234169  0.8297469458582519  0.7706026852417898
  0.7216073523105440  0.2513502234808148  0.9775513333754682
  0.9821912907734153  0.7011231886486998  0.7010826469512167
  0.0957584943447251  0.9816194409631270  0.8568920072698122
  0.0230072109516688  0.8000321276330533  0.1654669839406887
  0.9242914784687309  0.7245652087274371  0.8888742769474547
  0.8964151313547153  0.0251807149512162  0.3250811323382798
  0.2134829499393675  0.7297209146077446  0.3316400775167721
  0.2659100980719559  0.8266170958442134  0.0846514783715115
  0.4366278383814543  0.3895740477333551  0.9646767016227594
  0.5677084421306765  0.5028747304476506  0.1007310981425898
  0.5210734937823889  0.8516736117198399  0.9057103230842573
  0.1862860620879515  0.7272835437150157  0.0161343307742495
  0.3001800904119976  0.3685962614440406  0.9703294707955802
  0.4598970348017525  0.9789109951786279  0.6050054015081318
  0.2035744483884742  0.8268278073075154  0.7796229620795172
  0.9477076319704201  0.7164062060525330  0.7661687914152302
  0.0770437907913535  0.2806636422297774  0.2714539895270702
  0.8137136701495401  0.0767103621776233  0.6636422725914217
  0.6360620606036799  0.4450553826755440  0.4267533196789571
  0.9375839504714631  0.2447569376465845  0.4787040135767424
  0.3639584772578022  0.8126426703634352  0.1571862045388629
  0.3505689440173610  0.0946893694237578  0.3148417001190599
  0.9062531813622168  0.6652878776657721  0.6507585876997408
  0.7573426805564097  0.3380451135739720  0.8113629832799676
  0.6353710113077022  0.7386606301499358  0.6819192160069835
  0.3270947960315549  0.9504580771241341  0.3540699574117524
  0.1211159511244640  0.9672140889203736  0.6673072096758149
  0.2370902506044320  0.2406193868395407  0.7185688928894182
  0.1287061483733188  0.9259783472981856  0.9774336825738639
  0.9968086097287249  0.2267358480825812  0.8026273842574518
  0.1148594444950571  0.9196396465499711  0.4803854091124994
  0.0974954932980805  0.0377388474629473  0.8341766934644962
  0.1868439825271995  0.8576738714787220  0.1239681311852121
  0.7022166111009907  0.1251856848552160  0.3951867402991587
  0.0488148785966540  0.4107437821009856  0.7164705989038199
  0.8176882131573980  0.5303015872729150  0.5914553867857388
  0.5954338394879477  0.7935647709161229  0.3494516143797058
  0.8850926328086719  0.3329049216448200  0.2772527270641174
  0.1761420680069748  0.3854946322780967  0.7336757754807879
  0.1593816363485400  0.6305028967156678  0.7391793758867407
  0.7558894975178271  0.1977460868851552  0.2773776947862608
  0.8498556937507664  0.4677614984154733  0.8000428250950095
  0.2585737569850985  0.0245464769034100  0.7759083587466314
  0.2764303415875847  0.5067402479933417  0.6966547998853979
  0.3424195030273187  0.1471549242610223  0.1662296940969743
  0.5495054583842932  0.2204155279756337  0.3284708547980218
  0.2413995054194227  0.5500845439883690  0.8501989392173701
  0.4042563482980921  0.1310390353869181  0.6188181432841191
  0.2150199256748878  0.4132392796242799  0.5163714345011827
  0.3527073426705779  0.9788141701821684  0.4449265640481798
  0.3259472192042312  0.8014252072541850  0.3298033024327710
  0.0701755556162347  0.6061017818584404  0.2343218639479415
  0.9628893266025399  0.4069671532167964  0.6191578600237578
  0.2963383802827687  0.2297524280496289  0.3126630620253987
  0.2435294942986621  0.6627695445674380  0.5795455784171070
  0.0731569974558233  0.5624443548848865  0.6832627910416668
  0.7116604441546283  0.1763125474961378  0.8997756464447613
  0.1893278027964559  0.8494229918563460  0.0760676774466588
  0.8761810958825234  0.4610798574343801  0.7928361004196158
  0.7156554640530602  0.1788956726521544  0.9276362435762894
  0.4933436398579288  0.0606511323112104  0.9503717639237832
  0.1172039545580895  0.3888121742913049  0.6873573521769046
  0.6144947181768086  0.6033348308760832  0.2808475153231126
  0.4009417535136741  0.8450916415289823  0.4908812235870770
  0.8413181337101174  0.4969890007648262  0.4509282871227632
  0.2035782570000126  0.7824670048871682  0.5518879868256316
  0.3188459262831512  0.0282209875566457  0.0861095496109205
  0.5308510013288357  0.7701683800302779  0.6620705148491554
  0.3388106843224279  0.8461182228314458  0.9372709517153941
  0.0956305612615474  0.0513861191842827  0.5269173252758412
  0.9165907094604110  0.8941320330264632  0.7098887528441761
  0.3510571710476265  0.9356441892713990  0.3670695728886176
  0.1311263876210868  0.5667585017965764  0.7636242272845482
  0.0323609093150726  0.8341847977546373  0.8299087625176658
  0.5551652721112676  0.5799846733145199  0.4964879209636219
  0.6330017879602204  0.3756305301316176  0.5362468970258485
  0.2456180690573899  0.0186321227673581  0.8229352331804921
  0.2543761974593524  0.5152743498555598  0.5684505405544542
  0.7336863151513920  0.4791378522343607  0.9627484590312648
  0.5153012007062653  0.3868932556466151  0.8116297208381221
  0.3301235382429707  0.0856468175056208  0.8783432960486023
  0.5608122873254732  0.9843073040365035  0.9532058184751491
  0.9798096690155514  0.7696408037255734  0.7008628352967929
  0.0424328294674690  0.5837537127889436  0.8817098275907035
  0.4529838599884726  0.0551203862497459  0.4587215455897585
  0.9657550200640141  0.6848789781808162  0.5334335910848577
  0.2838909852391983  0.3968297070540344  0.5882740565437454
  0.1082990278345324  0.1190191614038151  0.5650923900667705
  0.8690792505542155  0.7513335579942899  0.5731211721649077
  0.6621009965205885  0.3645920564348522  0.5843690072509232
  0.1153204874209081  0.4559345103392728  0.8462114435519998
  0.8785104256733662  0.5245437394579423  0.8318485805654644
  0.8581196707404447  0.8314373572222694  0.4205556879571786
  0.7133527781947947  0.9359554638626517  0.3706004111020810
  0.2190922816705917  0.7770369533273214  0.4585788316349681
  0.9462241760113458  0.8398645927693794  0.8769327005821029
  0.2247778487408557  0.9461991987265823  0.8103883746648145
  0.5575702387571606  0.5214618458102442  0.8219623187784872
  0.8679309026409157  0.3317634764759384  0.7473861703805522
  0.9328079415664788  0.0393868265389528  0.0505356422706580
  0.2070236949696932  0.5398915767135745  0.6841827807852396
  0.2573080476575580  0.7822109865929132  0.4900546615976156
  0.4936671473323367  0.8610351562208040  0.3172855335768528
  0.0110968023417500  0.3015493599672298  0.9797639057383873
  0.1433680406881075  0.9329269979296126  0.4382245968761428
  0.3535604793384644  0.0774274609099562  0.2413077988458542
  0.3860344576623070  0.0507624874557285  0.3254600680120382
  0.7115286448886832  0.2671983811890119  0.5149980237128741
  0.9629525350368614  0.2192870350239356  0.0524477400309774
  0.2215674013714302  0.2510550855200792  0.9292410634780940
  0.2263214689879620  0.6784281521399039  0.6308578099901809
  0.6067546015181685  0.5198755922946513  0.3833931785554721
  0.6336838608326448  0.7892630043618917  0.3808550412333446
  0.1950768701549946  0.3323148817431137  0.9373405084663036
  0.7834485153557357  0.7108478251366488  0.9283616828435381
  0.9370637234311467  0.1959356523586215  0.7306523831089001
  0.3041858438547903  0.5288333970041242  0.2828563380523650
  0.0199241125134251  0.6063029700180539  0.1504673132376074
  0.5779144752132257  0.2951740033803558  0.6074716837902030
  0.9926753135032087  0.1188302494730917  0.7090813472647756
  0.2306346131631630  0.6586714234410486  0.2018849830758309
  0.1099747369721308  0.2437403425365935  0.8648508925742593
  0.6088202883910203  0.8205339224490439  0.7934577166249230
  0.0450939323274885  0.9506269257332324  0.2401569740610092
  0.7141675912739852  0.8060477862970103  0.3229851306410734
  0.5286043651520983  0.5144658501535231  0.7422558329346759
  0.0537258361829924  0.1095555840694619  0.9965121508289724
  0.0563319973878878  0.9488357336905413  0.0573789246215059
  0.1535732724458927  0.8637618050743562  0.3579845899102342
  0.4874988608009259  0.5857970625920903  0.4678997042905455
  0.1619493079341791  0.2763326624274510  0.2193840666291280
  0.7473261672327838  0.2815140999906383  0.7139021797719490
  0.9330659715232348  0.9719469291131501  0.7890246068970107
  0.7783237368465593  0.9521359660389134  0.4002024753269467
  0.9218654913221612  0.4041119749942136  0.6456207253071538
  0.2739247882702803  0.7793689891555319  0.8435045109938054
  0.4798075290248098  0.6436463669686727  0.8651458896877383
  0.5983752333504410  0.0265731458340029  0.7962686982734954
  0.6069004262641939  0.9291598114545934  0.4877650615438708
  0.2230993546075712  0.8565112646440751  0.3869636517553987
  0.4909210454714751  0.2068794269018912  0.2130055681525692
  0.7180601263121319  0.7913259363503767  0.8607933961021133
  0.3416856942797890  0.2225821063843529  0.2970985358580582
  0.6983613322385909  0.8445566331785549  0.0437216512049360
  0.4374562019636473  0.1040283023462496  0.7403873858660340
  0.5712042231966331  0.0897139829397407  0.4830065028713459
  0.8574781113326323  0.1892274359018387  0.0315629677254175
  0.4111109872751947  0.0399885843052047  0.6759079697342899
  0.9028869630626711  0.4512531466449657  0.8638099776171296
  0.9738264356243236  0.8293333757119705  0.3885747984531750
  0.7791491641552508  0.9890745183319692  0.8122859053924608
  0.0394072693420864  0.0801978892703168  0.1733239662247542
  0.5343018190155451  0.7779178079687741  0.8719400244553467
  0.2763859933870775  0.9206705183027183  0.9594504661119826
  0.1474506289650420  0.3329738856604273  0.9453992943392047
  0.6763736874173784  0.8048347236559751  0.2912351961934410
  0.6275512720673055  0.3808689148017043  0.8071034513898195
  0.9250962123634995  0.6003516399972268  0.2419590867841513
  0.1074209980623492  0.9939117203653607  0.8787733801573265
  0.6191139819824918  0.0290454066873409  0.7769210661549799
  0.5634960644128166  0.1727730396541478  0.7072617403406944
  0.2555044789628479  0.9755602201044151  0.4697592502393407
  0.9644732869801105  0.7163040451366690  0.7177524721758270
  0.1192615710863795  0.0151879825903041  0.1726861615827856
  0.9844866347962022  0.2392944535903306  0.4682163441268875
  0.6229899620634607  0.7244292646165260  0.9922306301724256
  0.5385111561155296  0.5989393250448253  0.3486636632478623
  0.7687255533038460  0.9084511548225891  0.5054522527629246
  0.5769722401946564  0.6594388736708486  0.4051578567616714
  0.8439965781041271  0.7812679376970899  0.7459189957958547
  0.5881303242026084  0.4570310427935938  0.3487645919456649
  0.6615377170051123  0.7889302969290319  0.1650893804345298
  0.0498552745322065  0.3759616395843616  0.8913483582107129
  0.4041370922078911  0.1228418754079927  0.4827959823858406
  0.6503595214846257  0.6591908949491148  0.9587075586470665
  0.2108029244609962  0.9128583641189212  0.0673530196587521
  0.8955764468000069  0.0583647412728380  0.1553025637587057
  0.6729384471637676  0.7183051778909624  0.5179734640519341
  0.9848226768680999  0.8045188330117905  0.1394835759776427
  0.0943253147512936  0.1493728237965253  0.1434378004571773
  0.7374687479344094  0.6609590008362152  0.6008207370370263
  0.9734675639159426  0.3361520026043968  0.5156919270125943
  0.3243970328606314  0.3147725214109075  0.4418961787965204
  0.9386258461585664  0.1148639348471313  0.0541991813791724
  0.8668093715915751  0.4678567177933943  0.7433252454770763
  0.2692979587800088  0.1650632443204780  0.9501839642967808
  0.5163021711264326  0.8330141743298670  0.0755940464593176
  0.9356430392746921  0.3801662044765370  0.8450559661818148
  0.7930264830212419  0.1398833806792211  0.2839563504445214
  0.0453234400002813  0.0289215934266907  0.3099074673450405
  0.7384128234964972  0.4928070788817465  0.0129786750023519
  0.8243545798763262  0.1910124730650568  0.2521700514218752
  0.8457619816317122  0.7484886589777068  0.9945004297350778
  0.0596280417896687  0.6371987844529517  0.7315436512390173
  0.1869880659737380  0.1670850517356645  0.8890372874557472
  0.4977882085766139  0.8506706374674583  0.4633420208900650
  0.3747219454887409  0.8299071798617923  0.7679509876326841
  0.4504085800604095  0.2856109630689028  0.5764902100223275
  0.9649133749997899  0.6643481851933641  0.0775891498625466
  0.8239596500827117  0.5737652062979773  0.3212135717618992
  0.9916136020987782  0.7803601853835089  0.8794651851930648
  0.9018243524105810  0.0568710663996599  0.5692297505865832
  0.4661992097668900  0.2158923178785068  0.1313954058079140
  0.4807201463111715  0.0728754372708878  0.5241813370621654
  0.9570670707682873  0.4497943860496461  0.9296594881199450
  0.7700811905974140  0.8881834604701954  0.3606707318527689
  0.5714523288816503  0.1647187267206227  0.7932645043169533
  0.6408277920202097  0.9939709522239368  0.5123202988292865
  0.9809562019868311  0.9646758502275625  0.9579410882177022
  0.6054541358886836  0.7127357928197741  0.4879219492818597
  0.5362330332711497  0.3188517261515062  0.9843064692366386
  0.6480645203518620  0.1646282044058586  0.9543851108414899
  0.4839533725899837  0.5788606037852558  0.5169674974916493
  0.2939315389330081  0.6464439091516577  0.8723546006130214
  0.2726862805446628  0.5165823914441344  0.2063324326078287
  0.1136444119273430  0.1483322949182642  0.2843401267272751
  0.0900976404816877  0.8109584424552649  0.1951283602275833
  0.2079291045572332  0.7368850503930083  0.2294954647404236
  0.6091049300220811  0.0944078587975151  0.1289116113226388
  0.7535961054000901  0.7171110637258347  0.9972478233836672
  0.6823496611352687  0.0671600682846635  0.3745684883244240
  0.0533757853612677  0.7187390586478145  0.9044528228786167
  0.9406858980693611  0.5249314900347558  0.7168593118076481
  0.6735901894061000  0.9332489291726414  0.3434846836823387
  0.9290812096151477  0.0662207780663586  0.8542316085660249
  0.5192899665293574  0.2166529233248894  0.5312364306609090
  0.8248715818282718  0.7082062785303070  0.0699715746982032
  0.4054149332156527  0.3662322248689850  0.5991934563094334
  0.9708919231933328  0.2394573462721857  0.9723617864804728
  0.7383277697076431  0.0773304200758715  0.6625818211764172
  0.9029047733708606  0.5356593074419469  0.6082936792051453
  0.4286899064976742  0.1368150713007025  0.6049820745733786
  0.3588057888997425  0.0009763522790558  0.8388355955992686
  0.7673717029645890  0.7143379214401072  0.5400166072917173
  0.9399340318797283  0.4490893769995108  0.8305669213203839
  0.9852977402815514  0.0732928902648856  0.1857080474614820
  0.9446054905813687  0.0646652084017762  0.7080708761377729
  0.6373058322495451  0.4401647857003931  0.7907934074291584
  0.9176998305990063  0.2557817316837719  0.0510820226105686
  0.3645162309699458  0.9761500690471400  0.4993620065512778
  0.2988911559590335  0.2324933006530071  0.4996406256042388
  0.6772889807126610  0.3603532232150573  0.6580050733774518
  0.1063748585712684  0.2205707518981075  0.2803282099894986
  0.3675074783744033  0.4215648993418769  0.7059424563620600
  0.8575651943185228  0.4321808432274061  0.5456641198031994
  0.0523401699997529  0.6669669072192036  0.1630741777026116
  0.2817264063314426  0.5867629916839631  0.4270502470352791
  0.0045665935425676  0.3029035819284380  0.9516644805599900
  0.4235856932854238  0.7371141425277492  0.2888543246568644
  0.4849543843449634  0.9231164250938975  0.4070430559378898
  0.2720789658900843  0.7166476930929652  0.4152973444069010
  0.0201640438697382  0.7520735956609499  0.5351147665929330
  0.0042571985852097  0.5732392736580791  0.7280471153411159
  0.6185473563761719  0.0788117614904951  0.2116132729884242
  0.6198371216204964  0.7347524057169318  0.6371958093715634
  0.5428572418010841  0.0762403911417419  0.9685422579469859
  0.3965858319040800  0.7834291347130206  0.5142703901695643
  0.1471692756217756  0.2592447884876204  0.9264129116693500
  0.6623206350909298  0.2231189392018440  0.6138136896756423
  0.7042697929450391  0.8922800640127906  0.8061234400949571
  0.7614644348561598  0.2837098134496551  0.5436666405010594
  0.5118970179998908  0.2208254313426650  0.1172105368147376
  0.2765662357980597  0.6624640302449101  0.3221504136256312
  0.5823408833981726  0.0993112826423746  0.7259876282377972
  0.2014781002032032  0.8614138347451450  0.1477939969086585
  0.2783207537072228  0.5816161153260504  0.4755550374052028
  0.6018880420118549  0.1538177395455716  0.9633439399485010
  0.3049472281501922  0.5090857834619915  0.8537378664485098
  0.6672087636539705  0.4223755436163940  0.6759467406120399
  0.1425549604940490  0.5808956582220972  0.3041478387282723
  0.1978879156211192  0.0915444288535992  0.7933002308116904
  0.0894980949017309  0.9759806101136761  0.5887881752248285
  0.1852486633009469  0.9128910694345070  0.0543631336059421
  0.5082890736760028  0.2829804914206573  0.6248849845511985
  0.5548540196029129  0.5762407997499348  0.0641563350850358
  0.0627239116699781  0.9649813760656210  0.7818732331853014
  0.3073942463855523  0.6664489327833018  0.3603858780154119
  0.3667763886564762  0.8233251720749383  0.6211678448992194
  0.0666614266672535  0.7100383054886656  0.8576433858004701
  0.7665870142894530  0.5841355989328163  0.7926934544733816
  0.1873348335263609  0.2422016089907876  0.7093228296455856
  0.5740656426799392  0.3516652447117258  0.1267234252277471
  0.5822550845108614  0.9239775236673701  0.4374960512180802
  0.3175815762271716  0.3178254573250538  0.4149569955877406
  0.5000158972916587  0.3167686892810162  0.7226577173029212
  0.4912030310495503  0.1306824122015217  0.3630674293804077
  0.0811779306803200  0.3371634325119568  0.5845969579293145
  0.2148064550548935  0.6036189938934622  0.6142713072483416
  0.5238751979189780  0.9659818719740714  0.0460932061693981
  0.9837783079384070  0.8287891767407225  0.1297203372681541
  0.8811842435716811  0.3898995534531250  0.8467845516545206
  0.2371548381459851  0.6071647990169221  0.1398042831256917
  0.8448723552412764  0.2055004124760882  0.6949088502281106
  0.0562138132662481  0.5741292461754173  0.7534503793164590
  0.9373313144977217  0.2625706340142634  0.6061102145042504
  0.3255873735972930  0.7213675377278023  0.3982030877847319
  0.2111785785131125  0.0248866897168549  0.7882212958327397
  0.0338341890739469  0.4738913971833222  0.5328921829705010
  0.3467578656251134  0.0916985848599138  0.6059940018835832
  0.4871186647648061  0.7651168692163249  0.1697516263899870
  0.2655367160001967  0.5213095369280419  0.5933723779616971
  0.5068672168570065  0.4010794176210751  0.9853712131916857
  0.6930526429893576  0.0370146433309991  0.9969438391395207
  0.5453171127141915  0.8375289471011772  0.7548574663415627
  0.9181031882275204  0.7790411713542098  0.1528773138389010
  0.1670433567768715  0.8795188764885852  0.5888930544196417
  0.1747815758293358  0.4031708177629613  0.3457935381584753
  0.2086067789167820  0.5905658432324268  0.2430959478122211
  0.0854424699290573  0.0380661748815784  0.0382666781167683
  0.3593354734644896  0.8907333417929668  0.0775077040158744
  0.9181018129258017  0.4759735897164892  0.5795899039936916
  0.9474133672012682  0.6597141526715529  0.9668984971460411
  0.1162151385689755  0.3240849973374971  0.9089522229464924
  0.8249308642467549  0.3177525850394178  0.3580151577559637
  0.2420661096899764  0.3404649397513713  0.1888697004278845
  0.1941440451935541  0.9220517978617595  0.8986562096088228
  0.6654134436598163  0.0664439867880758  0.4740262770724249
  0.6574633337566186  0.8443487031675763  0.1187890834111072
  0.6789907927749822  0.2067677051696789  0.7296860155305488
  0.3383419430234492  0.2192245011275027  0.8435525010314145
  0.6946580383452194  0.4473567433785527  0.0106400339987831
  0.2784546968592991  0.7393404711424468  0.2591068221344597
  0.8553988864662154  0.3021787223203973  0.5198801219278636
  0.5103899112775433  0.5775665010828227  0.8425498408871087
  0.7067817281139677  0.2538556054617750  0.8039977446619927
  0.6866436651950405  0.0581149846349502  0.4580674973041831
  0.2836402973310687  0.0826709630591699  0.3525758034327871
  0.8302378703103237  0.8446591211325937  0.4862968188247917
  0.3415974722787037  0.3716071612775902  0.9948412986196674
  0.4556115333748979  0.3109885399286722  0.8766534054440838
  0.6341527668672154  0.6702037126181732  0.3235675419140224
  0.6978599570459356  0.3007923058922417  0.7744854737339888
  0.4221856903928757  0.0638845029140573  0.8555741554713597
  0.3561808502669142  0.3102935204077947  0.3844528018662930
  0.5097054174543139  0.3581339763752281  0.6646668974991063
  0.4454699839752784  0.6626634454168895  0.3992015073955377
  0.6697438607804111  0.0114787030101028  0.4202132668773078
  0.8864986985013069  0.1694057867510675  0.3911091933044637
  0.3552516884852560  0.5137549547640685  0.4885123075546179
  0.8567632786940581  0.5275374327374648  0.6223253045187905
  0.4003510800640779  0.1584159115472006  0.0551300770948217
  0.7223096029579595  0.0621833108289771  0.7058504687891370
  0.9426080971578020  0.6636991427221979  0.0952887514429434
  0.6814464008008331  0.4583599722289592  0.3366414067321702
  0.6865432204666239  0.8751509699802221  0.2622867161957677
  0.3511071303916685  0.5093107221355895  0.7593615830028313
  0.6171556059774731  0.9323400999267737  0.3406089098822894
  0.0231314703782206  0.2381947265986322  0.9507956172486148
  0.0116179202215401  0.0256610758165835  0.2733456995224124
  0.2462378041721321  0.2510366079447171  0.0222030525579160
  0.9564937524042825  0.5338004704222136  0.1252295516840634
  0.9050287860525060  0.1236679517552933  0.7943453322955257
  0.8694774743073908  0.1879212972640759  0.8404948003432100
  0.9886570772982155  0.2320899009349286  0.7264125156927324
  0.0753017411100699  0.8807005284557795  0.1156583687370398
  0.4232928502806644  0.3990364794391410  0.0380857297517207
  0.1832319072511076  0.2045450981583344  0.3082546854091501
  0.2026244626248918  0.5677221108543197  0.4215739520646132
  0.4770186247663108  0.8349968769097679  0.7850710775049249
  0.8363338167667426  0.8465125711128150  0.8234142194415783
  0.2146689033219676  0.7336533405149315  0.2016473251761775
  0.2948617418623704  0.5395249247340481  0.3301738710538737
  0.0379706481111558  0.2372281248816184  0.0230773517531778
  0.4977240423691076  0.9785102827098100  0.6889436697509379
  0.9520298700510580  0.8296009148678675  0.7259307730848711
  0.9420137787393837  0.2023339961378794  0.0569456377098382
  0.9202848220576835  0.0491735982197730  0.7962442071922815
  0.3795768875927493  0.5318857823784232  0.3433072673616563
  0.1720950515942976  0.5218990819181525  0.1354395243969935
  0.5697117678141448  0.9241834134392204  0.4120042681061769
  0.7169085444887224  0.0182430830465589  0.4066046447815427
  0.8743288917810175  0.5978559321217788  0.0707519278741506
  0.3938556568621484  0.2582125307231447  0.4200360785853136
  0.7963877348806956  0.1216519123384544  0.8852157926748875
  0.0709268045949880  0.6628941009772615  0.2758542151178414
  0.2039021162835820  0.3083914436419289  0.7332781554563582
  0.1177863914070973  0.8005717346951208  0.0725556814037220
  0.7690254818183659  0.8178122943091956  0.3343985305567395
  0.6345894698717921  0.9316407175945947  0.9790370962987578
  0.3378147028207067  0.8850031185192796  0.1225241859229871
  0.3688662531638419  0.9629542191131933  0.7178212648306058
  0.5124883665781117  0.3917314808429211  0.4088334811906355
  0.1551875276111893  0.7366251478634359  0.6026955469061698
  0.8933741768820683  0.8215200596802749  0.3320418700661457
  0.5937915980197918  0.1668420096127678  0.7759925713413872
  0.6785215074984462  0.4504481748889138  0.9872398182802080
  0.3682214206524164  0.8648406352510322  0.2916585534558632
  0.6823338616587720  0.5213614362201754  0.9409437677910403
  0.4038435529795704  0.0609281537477551  0.2800152806199692
  0.4367446347602401  0.6767021513948835  0.2465533527870756
  0.7485417727516768  0.0024287771300735  0.6117955477739483
  0.3506278012643532  0.1029833956784775  0.3755355979961378
  0.4234743433004094  0.3898038555659973  0.9899706238418563
  0.8721868034438131  0.7585298119610725  0.2080022126822487
  0.6105377829680527  0.3096770907115584  0.9576604829148518
  0.2651031216168497  0.1904059596672739  0.0995290851177710
  0.5539186318941254  0.3736333666178245  0.7358702355650080
  0.2137973430156310  0.0475741315444403  0.5841356598935775
  0.3624814740494294  0.8902733900320253  0.7838230884958844
  0.9375814371104539  0.1053087819312025  0.8204726913690081
  0.6601781459271421  0.0650455703663181  0.4181742343473714
  0.5984074369858329  0.5156970586326707  0.4312367897426849
  0.8678199211804374  0.7529209167564095  0.0130091584374617
  0.6268558052898539  0.1012590216696106  0.0832083294094688
  0.6228793118634871  0.9291702142605079  0.4643356598994251
  0.5288866482166437  0.7683312959032301  0.8447690480847541
  0.3665186523546755  0.6750716976588262  0.2751758017669059
  0.5688981189837384  0.2343437518370403  0.7928015820768757
  0.1366009654443290  0.1192279463913630  0.5635544545796698
  0.1714709282260963  0.2718694153258095  0.0691236444204053
  0.6262533948611351  0.7837331911226145  0.4289244968339603
  0.9717984749498950  0.5963922293060042  0.1535388502665568
  0.3258050575601717  0.4714956365359461  0.3285875974853766
  0.9025083976284259  0.1123796299300324  0.9581713831910286
  0.3613849221783241  0.5827700687692584  0.4823197384697678
  0.5673035321623504  0.8927684507790001  0.8454826298602162
  0.5931079485457990  0.7814250563892343  0.5478337567644314
  0.3424041460769510  0.2470903355835356  0.4862496928958959
  0.7159602810542434  0.7908052173628792  0.5918506265107040
  0.9356123070119254  0.4439568067011367  0.1074109215287251
  0.9268801537389104  0.2405021743308195  0.3518001318458287
  0.1086040372386153  0.3515540604288916  0.1469072313450075
  0.0450741538174886  0.4130290044326997  0.5176235380278691
  0.9727007536006358  0.8121835584999558  0.3382643289114156
  0.7663300448011270  0.1185179577427864  0.8465998944228619
  0.9950166574094326  0.8140194494866609  0.0347855425563775
  0.2946111767087910  0.7349045542423412  0.3055332910315195
  0.2398710724816457  0.3226493340399199  0.3247188727625351
  0.2832993355595229  0.0974255718150307  0.3986626836063140
  0.8945826674640832  0.6709120713694290  0.6014429893223585
  0.9394336989283114  0.0298035788782673  0.2636755469240533
  0.1444015320582377  0.9646639216978626  0.5962017859284778
  0.2258064134857135  0.5694543595041197  0.3304512759540826
  0.3506756638902681  0.8501125610822911  0.9122745149228301
  0.9413206994924914  0.9017341992598686  0.7518749271093934
  0.8595363122502911  0.6981236329629671  0.4604837652939746
  0.0389882955226600  0.2208906208683711  0.2107888492679777
  0.0697759477868868  0.7725710348291341  0.7507610089677598
  0.7790818751621771  0.2580944443497665  0.0366165343127802
  0.5214497836771933  0.9628460967199863  0.0743135869651773
  0.2577477689191917  0.9368548895087020  0.5602927022197991
  0.9505056382637130  0.9010616961920520  0.3830141588711444
  0.3158426357124159  0.5386224526272132  0.0344936120287047
  0.1048507388885363  0.6328994471145669  0.7494761993263289
  0.8475591522321787  0.6345161560189673  0.0995611405506533
  0.0736677393701549  0.2750746911265040  0.5380802476790232
  0.3607856077854019  0.9476653832798856  0.1972643275528507
  0.5197306506907792  0.4879028732224098  0.1589566128732875
  0.5905750429304524  0.3705343591111921  0.5617479333018890
  0.9483851632624142  0.8722601003372703  0.2394403659047993
  0.6001422829445551  0.5815382156563625  0.6952410140175153
  0.7798042251927961  0.7093163110950622  0.4856719082050153
  0.5937475923416075  0.8591269800628516  0.9255894420689410
  0.4841597787274962  0.9802032751962692  0.9564383611601610
  0.5670038981015598  0.3507488576979596  0.0769296762944183
  0.4918486781822127  0.2689751478264550  0.3389623747323048
  0.7230482876321777  0.1467218800396268  0.5954635970572061
  0.6064708630968576  0.8654843499534106  0.9002981221772420
  0.0157069585413222  0.0509443307165317  0.1088788730111639
  0.1408807109811366  0.3433371358670076  0.1827469261238903
  0.0983911354232118  0.5251760115180248  0.2237488037551084
  0.5276433087361777  0.0312851450146410  0.1229935737765012
  0.0133693695843875  0.7548373296220863  0.0170990194613802
  0.3740303823828963  0.2116622499129513  0.1574236514119671
  0.6219202254741840  0.1483675993068200  0.2603413054443531
  0.7977502000249748  0.8637307737526525  0.7971977871618285
  0.5694761765825208  0.4587092768397180  0.0359492293593883
  0.9987459854528736  0.9831543177361548  0.6269044206157106
  0.6242922081390407  0.5148430001351322  0.0552952918804334
  0.2453935401621250  0.4699307824131372  0.0746927774709961
  0.4941870443740348  0.4890048454928755  0.1472783706379061
  0.0653340214587848  0.3815332917609098  0.9145866898167071
  0.7920806741403861  0.4007021757486876  0.2396268593674736
  0.9953632848675669  0.4470432946281227  0.7440185967073409
  0.3355549327901621  0.8897228293505041  0.4997741344009317
  0.9614692850960791  0.3791971599589244  0.7936509069301247
  0.4231585373341680  0.3781846526239110  0.4992762537627508
  0.0222951077093352  0.1212033154459248  0.5276720382260013
  0.9227919553780356  0.9863397678397735  0.1739380574833507
  0.0543523253976447  0.5481306089427634  0.5145002710907989
  0.5039555148211442  0.9330270117012689  0.3350237312130052
  0.4058351191074135  0.0661518941717277  0.9170288270611001
  0.4501678434393843  0.4826191624410897  0.2099355479144467
  0.2839737677403956  0.3822885780655986  0.6341222046824824
  0.1899486343613819  0.6181630578432665  0.6621532472576894
  0.2356884741015117  0.3213938782906535  0.2958940663241870
  0.9865247160354523  0.6519541058543590  0.9036972358184850
  0.1399934536688492  0.9236804616942824  0.4656972151961987
  0.1797323402775844  0.6131700710569699  0.8481607687958953
  0.3753045275219032  0.3635360105987663  0.7727860599313602
  0.7965917464352880  0.5936981783956886  0.7430056472685428
  0.4945129041522142  0.8605785818625524  0.3661940607407547
  0.6357367915026654  0.0937156800618863  0.1398146326277588
  0.2663596779311048  0.0958488575414137  0.7426627081234944
  0.2666755252619905  0.5824067710790432  0.4502155494534978
  0.3486234938977977  0.7587139646004464  0.7510887381992544
  0.2008766571338023  0.1721900105435814  0.7129593451542708
  0.4262414935623065  0.4932078532672307  0.0465890011451825
  0.7288003715799960  0.1793290127061069  0.8536345634519976
  0.7804563831685647  0.7864472615298507  0.5521005035622844
  0.7680442254762883  0.8376169102219732  0.2135425497100225
  0.7414293764133610  0.3469710050647885  0.6939980456401187
  0.5222980735160569  0.6686231809189668  0.3403045455903293
  0.3186897084407151  0.6738336738005926  0.2854448857165992
  0.7857006347673958  0.3640922157448661  0.5045572661649882
  0.0245869584185860  0.4940409337912616  0.3821304156877379
  0.7781727200529999  0.7859492743579275  0.8180032146850504
  0.8924235322458915  0.1821661216596220  0.9399909599186307
  0.2354186692218369  0.3886574119836319  0.9434759443632482
  0.7630894235827003  0.7892212506290840  0.7715211447928497
  0.6194200261778903  0.5125100338595410  0.5590978118910842
  0.6032417504607664  0.7822243436391686  0.5745089387593151
  0.1237963953779704  0.7263694761084747  0.9731775871160521
  0.1453401752243644  0.9468469183406638  0.2221185886583437
  0.3663696095761271  0.1406906652223658  0.9610943869330595
  0.3538954812927591  0.4929392148502538  0.2204093056140695
  0.2849814165764484  0.8949425330703291  0.7475542895315611
  0.7494745834415366  0.1440317147807295  0.6058065002940768
  0.6813537967473077  0.5786486604990929  0.4788118011374560
  0.7878155998176353  0.9926877384312474  0.5715053628805331
  0.1641174784477959  0.9596178216944157  0.7715199386411041
  0.6731368057156923  0.5904933766833421  0.6244838920899027
  0.3147737946811552  0.3473285100547439  0.1207138801690828
  0.4820061276428758  0.5156671538955706  0.7586948711240539
  0.3658192027895392  0.7190882841309173  0.5675990974347069
  0.4583200767279822  0.1957810660428826  0.3578747380898170
  0.6782997808485507  0.7216184199725777  0.0046101325390874
  0.9102498054717748  0.6483950641513813  0.7447993969395325
  0.4311182652254430  0.3948154339218830  0.3532984703512476
  0.7485064069917404  0.4085338538486556  0.2192203260289831
  0.2378205931301494  0.2598646665587506  0.4215855095186523
  0.8098376763126743  0.1922426772215616  0.9122682261316395
  0.7544223212347841  0.0704074204821563  0.5893448212562621
  0.3458795479656742  0.3863302168991929  0.3460843567462554
  0.4124166855881691  0.5830557928638875  0.9324282484566696
  0.3338627948353615  0.1063297746330182  0.6640737668775599
  0.8464739760794356  0.7893863888611780  0.5873655942504369
  0.7226978024509408  0.5779101401017559  0.1136379343469287
  0.1169091626111588  0.8547883157476650  0.9240704349632129
  0.7147344605390812  0.5431639083507966  0.2571062184392410
  0.9618093708961851  0.0337117015203686  0.3609854634490359
  0.5520444967189850  0.4081838207084486  0.0591035605973268
  0.0314752728360517  0.4089378399640355  0.5422221267673153
  0.2832680975708891  0.0123912112982947  0.8563026771264025
  0.3452230400612008  0.8913076383480038  0.6137297651171243
  0.5982465867883919  0.0137635584502406  0.2207432996337349
  0.5360382646910712  0.8645153659093301  0.3406342970762430
  0.4069707404283043  0.8985493430375505  0.0454564454587661
  0.0670664942051107  0.9169532172249804  0.5151355490148820
  0.3849286790756252  0.2645478082024046  0.6040277665122308
  0.8311866827061745  0.7081895658077375  0.0980372798342943
  0.1555765519524106  0.1952391264412824  0.0409535121463742
  0.5730294918219626  0.9299642452748882  0.3630892981317073
  0.3239610303865514  0.2244861659749236  0.5760335305676524
  0.6002403488200423  0.9040887132682445  0.7301629755367126
  0.0008624465543752  0.2260562027413610  0.7734729503487923
  0.5038062001067377  0.8472291587238715  0.6103089747487400
  0.3834633786144953  0.7797374235567855  0.8771048462396850
  0.0866399784174999  0.2526130875588589  0.0022962356485665
  0.1648228901783365  0.5083042615015383  0.4042374209619803
  0.1077676993251120  0.7390652649979951  0.1690198599267161
  0.9492142119687600  0.5124867214821651  0.3220273621445694
  0.3185499594071499  0.0146524699695198  0.8170447821049982
  0.1793280293155588  0.3219629169820877  0.8535038670091261
  0.1398799442926904  0.0527815684461559  0.9553617057065327
  0.3382698777731253  0.7455571104483288  0.2147325654254641
  0.8210981907202780  0.8468124437687076  0.8472946438290303
  0.4160026672632154  0.4927439350473495  0.1150716583232174
  0.0204531884751905  0.1210263055422583  0.5568078657938039
  0.2083420881627689  0.4707372404675076  0.1068845127014232
  0.3565040222026084  0.1446929078671352  0.5615027744585446
  0.7838156348166737  0.4128263935201620  0.1427614093606610
  0.7742596688323381  0.1190770497055554  0.9028353713876366
  0.3864364296263690  0.2382065762342622  0.7237096776496673
  0.5875266819124053  0.7158183665741950  0.5718338542079067
  0.4994502945242709  0.4817149299304922  0.2042083333756817
  0.1063848853526342  0.7410389783599785  0.2452454402390766
  0.7516238331474229  0.7831919260382842  0.0640682508031846
  0.0506507447635901  0.7246535963584282  0.5068560433733075
  0.4793684117524566  0.0652783765262184  0.2846663417682700
  0.0578497104407113  0.4940470719073220  0.6961061508600649
  0.9752950560515643  0.1667640395087965  0.4289416009858274
  0.7259462941367395  0.7938839717675295  0.6181646190644763
  0.5501983782907871  0.0062110826055284  0.6440882085017753
  0.1336538525209670  0.6189537627801168  0.6670500193187903
  0.8708742692554823  0.8017089872243032  0.6352880133524444
  0.9698804648478359  0.3226320893906853  0.6485981939013878
  0.4770015775579374  0.4511440708693922  0.4255853027311724
  0.0599878438207133  0.0322075332196204  0.3636266997420072
  0.2898424428885511  0.0812841838899877  0.2000369205717636
  0.2866279023619595  0.2101972385350633  0.1056436581899713
  0.8103760001097897  0.0405485680501967  0.4845221215507772
  0.6321133534070538  0.7944155178648202  0.9795862453870036
  0.1990626337635266  0.6536613323806439  0.1655641793688099
  0.9901529570735805  0.8713958452695050  0.2140338775237949
  0.0888823959461939  0.4133171261428636  0.4438867232261866
  0.0855629140743884  0.6119703607978885  0.6572681726682432
  0.3913187534677540  0.7775484795631088  0.9062590161151267
  0.8053105150112160  0.7568701567995524  0.2790337311315873
  0.7520179745850594  0.5810005681665016  0.8172918591896758
  0.6704437017867377  0.5939895179392982  0.6728221335063636
  0.6689363806585968  0.5386959367046577  0.2732039036831297
  0.0320103232738154  0.8791552049832971  0.2369958623627034
  0.4482523373015890  0.3104269622680577  0.9276675815189046
  0.5153662283681243  0.9611353750963266  0.1314861772278331
  0.6883799003508051  0.3828118033332051  0.9517528556784314
  0.0886570205100532  0.6814829265109810  0.6278167193916858
  0.4333689905970909  0.7673292419499480  0.0782450139765707
  0.5210751558637987  0.0729679706836830  0.2221126639129537
  0.3891510599309592  0.5194488463717641  0.8654192400778508
  0.0341195146672889  0.3574595638911024  0.1496385445705247
  0.5438140204936791  0.1484091232427627  0.0453785318564843
  0.4592267770258474  0.8956892619664708  0.7747236897038527
  0.9046228876721510  0.1015058959607160  0.4271034037229026
  0.8958454237410082  0.7819943709818276  0.8579925637304177
  0.4868822462025973  0.6325110589525380  0.9891977126021761
  0.6294385338914616  0.7333989208197170  0.2745427321206454
  0.7114087409176706  0.5905223807342292  0.3102597976715900
  0.0599010745687908  0.8917231789778670  0.3331441087383897
  0.1423827640995599  0.3145857466937870  0.6578553945464128
  0.2825832985735331  0.6204643471916259  0.9971326748968783
  0.1237514766658791  0.1841134093987862  0.5766253410231093
  0.9420809412990692  0.1842036483974581  0.7051687770257458
  0.3127840646874488  0.7834586762209047  0.0066224365063130
  0.8358161778918962  0.7726545868089142  0.1024886286568605
  0.2462186896571812  0.0738848619531321  0.3836792505460846
  0.2347380614115057  0.0474293508049994  0.5630257500635480
  0.0429746131043326  0.4407840236443316  0.7584977443236032
  0.5039135710155828  0.2863316900360005  0.0984210503163182
  0.1521511826500548  0.2056800963645872  0.4337987740649947
  0.0145622804059595  0.0265678462886108  0.0382815279850248
  0.6535531395995879  0.8527372938282571  0.9715698868518702
  0.1670147844573409  0.2610095164283455  0.5811046585644097
  0.8518556840211694  0.1209090523620512  0.9350238750114964
  0.4892226306828732  0.2857517645746916  0.1934011397266042
  0.2511034595935330  0.9120215936855500  0.5461642587254941
  0.9019391891852105  0.4027328678576845  0.1832091340741033
  0.4591626673576392  0.1148762700282313  0.6977185357136131
  0.7924847058117196  0.7831822198525352  0.1038567223762306
  0.5962704680902365  0.8512628819457979  0.9741568483165454
  0.0237591736692958  0.1461237997949263  0.1682010641143146
  0.7296944263825219  0.7814043765579443  0.1348909227776246
  0.2757770982877974  0.8917464714291263  0.6625025672055042
  0.8487815175814205  0.1333574380534259  0.5883634017842375
  0.3511596205654910  0.5164692241365582  0.8339309205438949
  0.1738733359694274  0.7260121493618754  0.0608188501972836
  0.7878392379561610  0.4313203347750289  0.5206907599139320
  0.2855052902243731  0.6623638529550688  0.3783157417650079
  0.1205101334339087  0.9164091384493493  0.8940290614690087
  0.6704531986972131  0.4341113964084227  0.5931041522163142
  0.8341229059313576  0.7731297769743758  0.4874749870497049
  0.4609893982965813  0.2447557588841299  0.8275124250353242
  0.3811635792450742  0.5702735888831632  0.5838405647677678
  0.1407539527436800  0.4548158844130603  0.6264069220255951
  0.4609019874401447  0.8973285485608080  0.1271747750118983
  0.1268188198223188  0.6471988554117020  0.4810461102350658
  0.5278656624965421  0.8482171209863695  0.5110048853375966
  0.3128794953502060  0.3602431235322819  0.1968794307291221
  0.7937247439507974  0.6330987916533454  0.9885061796006623
  0.6963874372209160  0.5181411424139261  0.3485706615473524
  0.9143323486348650  0.3170247495329702  0.9995344010571674
  0.2947884491022026  0.5668487948184517  0.8561099828836103
  0.2463905416471217  0.4824278514959954  0.8950638416543252
  0.8901645848304498  0.7350834253537362  0.9549314915814510
  0.9380070167906173  0.0992683216320733  0.7409416275949831
  0.6476912202063791  0.0735148554206230  0.2517265696275929
  0.6366713168343572  0.4308886007512620  0.1106708880639218
  0.5561332075945498  0.3883528126425803  0.3862307395479820
  0.6869226525981675  0.0395053320522821  0.0957878932397901
  0.8861019729039767  0.8406125922950436  0.4880099043474543
  0.5401644955533021  0.3879826022305736  0.4107181603014247
  0.5201927762105159  0.6603460280861041  0.4141845104016621
  0.6582904686232390  0.2902385989186868  0.1371672731644336
  0.3030678683970874  0.0393125471649653  0.0033899759716363
  0.7393194893973262  0.3239789614930664  0.4456884439000051
  0.5200835008550794  0.3977493193262779  0.9601204824064874
  0.4748568898412711  0.3976479116177878  0.3311087466702328
  0.8299272527510430  0.6600006768777764  0.6381814533750747
  0.7035935791025659  0.0330088733237519  0.8198648809005955
  0.3604569898962753  0.2847875407145629  0.9497812336293829
  0.7997463725824518  0.7059215785403909  0.5053188539800726
  0.7171784304568284  0.3614364665352470  0.5330658788231126
  0.1816676545100609  0.7200804271637244  0.3666605054239896
  0.3957166580945939  0.8300734583556243  0.8385057481012755
  0.0512600850878299  0.9840947648478560  0.5594356023883830
  0.9602629088430390  0.0341074491104298  0.0464598973026753
  0.6515960533584672  0.4422777712864440  0.8160042611974436
  0.3062059840998915  0.9472499415499183  0.8688053720858794
  0.5765266543288888  0.9280842548573733  0.5347972046405801
  0.1727344107817980  0.1970134644656216  0.0642877958240633
  0.5142368295298640  0.5560865068308933  0.1387510072134346
  0.1861137361419057  0.0025599233919942  0.1443311740521823
  0.7837533608182888  0.7781461120855871  0.4295630871747774
  0.0908184088778868  0.3114536197455793  0.0020830963335873
  0.7583475072734964  0.7516320959314514  0.2664635456811565
  0.2545096563292559  0.9411951896748586  0.8487974368948760
  0.4416373378637414  0.0357329536851760  0.7886630754128670
  0.0725407083157874  0.2211170465695344  0.2454949216262387
  0.4122867029531008  0.8310979583676252  0.6910213751462934
  0.0550370573677208  0.7847906671944231  0.9348027271889698
  0.0501280735584084  0.9840752429248659  0.8761486399397205
  0.9037901809232534  0.9801758563606736  0.8357815013647907
  0.8472495580322110  0.7343321006057585  0.6386070589203526
  0.7611026062865012  0.6421472837895718  0.4744014262698081
  0.9005847603931033  0.3382305556544064  0.2301279083079174
  0.1982443714976811  0.1620510761286382  0.7873834924290002
  0.6338841995966967  0.0763460564508656  0.3793861164284525
  0.6472763647817709  0.7340624893420921  0.6279851125771708
  0.1572610610812898  0.9946315074361123  0.9914071665727716
  0.8816818479861073  0.3806646217022066  0.3812648387898252
  0.1036885754899749  0.2826028671172523  0.1016347138261482
  0.2977794359706697  0.3995746995722920  0.5642512082379925
  0.0532010499529124  0.1797020366964245  0.6860055441064260
  0.5063053528983685  0.3770259770210335  0.5101469954067783
  0.4196354585636021  0.9107737310460656  0.8619731385250756
  0.8480014605882054  0.6018103135908472  0.6646009011961356
  0.7924195364695714  0.1217735673069649  0.8570678133879155
  0.4746603025357398  0.5279575418439783  0.3857339470466993
  0.4799382794521332  0.0344942953077576  0.7466635834721577
  0.4127200301980077  0.2717571110893069  0.6983246559693806
  0.3784165430303310  0.4231355270709313  0.6549385915844997
  0.2457456717792044  0.5199715578698001  0.1232182162386871
  0.5757176073553630  0.9913726724549661  0.9993923491856734
  0.5802407141400980  0.3499524450657649  0.2498977535449109
  0.6641356800998220  0.7399767943958685  0.2423412688663392
  0.1579694062181779  0.2483597384559885  0.8732753864567514
  0.7150565431257634  0.3848283371047297  0.9008696440802034
  0.6307181436724020  0.3850128496390300  0.9048358650690145
  0.3913087445082457  0.7030070921740567  0.7880563130763195
  0.5894815541179339  0.0850574766920004  0.9605186364981080
  0.4011178789440628  0.5770326050794697  0.5102962541849706
  0.0002006764344086  0.4773161666371884  0.6262212666683625
  0.4022269131878237  0.6322594816664562  0.6550104066195230
  0.5360576403267863  0.9395913098382954  0.2883519794569987
  0.6578759153817686  0.8567282554715524  0.5783255129211134
  0.2847172277899651  0.6839710760229409  0.1189805348975486
  0.1631415233889282  0.0245829510090469  0.8018393451145357
  0.1169276333711207  0.5903299260855156  0.9220714094665469
  0.2652313603648379  0.3844925018282881  0.2545812947795195
  0.5562323320261060  0.1421134535756812  0.9729877512328692
  0.5950240900204836  0.6506222220286206  0.0429761664157675
  0.3578819520812488  0.8343487649373967  0.0084711444715855
  0.6830220048202487  0.9897381596649177  0.1950482171448114
  0.0459392602178980  0.1474346752896050  0.1501343593488005
  0.3742073028321563  0.3899579281800586  0.3491390770595000
  0.2942966024430057  0.0973200696213179  0.9967697192335591
  0.9911224568072573  0.4075279651588275  0.6173248154090858
  0.3497710333763362  0.3015723602282608  0.3086561699197695
  0.7111869659163812  0.8884952762846170  0.7217628447193289
  0.3217652112998918  0.9471151005308813  0.6346726879385793
  0.5742191825941653  0.2214259000189849  0.1570868880438910
  0.8592485400233404  0.9727802855793150  0.0521077622584983
  0.2649628590916200  0.6534355163404104  0.4528651547993766
  0.1407478679303342  0.2510929541258325  0.6507569354918772
  0.4206964341198201  0.5206106521999740  0.4514079494689074
  0.4890259772121329  0.2581554303258317  0.4626295092492363
  0.5967569821092547  0.3021689591624525  0.3465340273191456
  0.1664097903839834  0.1893891264164395  0.0151252957279197
  0.7382803331080902  0.5823270880410414  0.3105700327021456
  0.7038016319456902  0.1888966165916736  0.3603726443504894
  0.7160530402022250  0.3218738783394727  0.2999210389561400
  0.8753120672475789  0.0065122111744184  0.2419473153031856
  0.2506230210074261  0.3353595631823634  0.1152938274742370
  0.8922740161236207  0.8556158905568066  0.1938622445380317
  0.9845054170890224  0.6817006429804376  0.5548461569919375
  0.3283165660166431  0.0955802622119698  0.0928544843886962
  0.9047892908820687  0.5581711610380550  0.4593789943031406
  0.1575299891767313  0.3086668442677155  0.7421387061990040
  0.5797248601715801  0.9971074539169195  0.5733291243272931
  0.5091895958005543  0.2659762432181473  0.9586904084894114
  0.9058340177081117  0.0241421461605210  0.7257211807161320
  0.3105486988351719  0.7882463209773946  0.4254518619430357
  0.3031452451512093  0.3010680663670681  0.6185135869680005
  0.5729977845573315  0.9685690395617350  0.0530645484314165
  0.0508453731897494  0.8028228502639821  0.1677660927907316
  0.5294296841797909  0.7073116055670811  0.6173632982505979
  0.7545682318328538  0.8995681355922970  0.8295887502570404
  0.5762582428614390  0.3700405519934932  0.4882701070834654
  0.6599630137779577  0.5292627477111118  0.3194770712934108
  0.4309793056026469  0.3084213562108091  0.9505117915406064
  0.9467840709613626  0.3984399288579000  0.2558452657992509
  0.6695097527749938  0.5148965046497310  0.0374333764793943
  0.2710773343632549  0.2985897382899146  0.8394090797490995
  0.7596585518128102  0.5122137661414394  0.5102098273116372
  0.6164696826560828  0.8425790349368733  0.1449656438745985
  0.0195670410384812  0.0452337714331706  0.7531245263210129
  0.4142437669860448  0.2831192698946984  0.1321797298834388
  0.5115650483963369  0.5246088925148423  0.9143252469246725
  0.2521003476913585  0.7981220056263465  0.3428593550099673
  0.2936601717553068  0.9712831168489667  0.4288165032473267
  0.0752720230884069  0.4004595975292518  0.3226506245569853
  0.2947357096075829  0.1474574965756186  0.1738626163921346
  0.8392331107749025  0.5843213051683024  0.7647772403446994
  0.4242849330761216  0.8340702081911190  0.6653780069635278
  0.9016014682568314  0.7707873406703439  0.1314558022063628
  0.8838102366034424  0.6471585541539845  0.3605324124508556
  0.5069354849004684  0.3490653983434199  0.2384843156244635
  0.1606770872672985  0.3304281851242010  0.2935477111300988
  0.2882526816639575  0.6128578397200989  0.1099157978663004
  0.0752050201067232  0.8299275090164380  0.7569094605021969
  0.1156179801503787  0.2846402778499528  0.2311617343731963
  0.1792761734784719  0.0085486272725370  0.8527084569388762
  0.1272989833402692  0.5306561381489836  0.6523059243696010
  0.4518663372522610  0.0950144280623453  0.0621387038475883
  0.5745524246332756  0.8344064759753035  0.1225293043669367
  0.9170460302363345  0.4016330115902921  0.2073957903884819
  0.7861458417209047  0.3237115676019126  0.3879177177860968
  0.2076249811522883  0.1099712599527462  0.6660350476255730
  0.4347222184391694  0.9737203037956259  0.5957844694260414
  0.6564673814427506  0.3808353867836066  0.3399821710325041
  0.2022771277715376  0.6938567004499675  0.6982921458792981
  0.0612355078503169  0.3746463820598856  0.9873045644258970
  0.3148596627494504  0.2089542690029393  0.2183154241836131
  0.9677302496523649  0.1655133039583397  0.8496262671697093
  0.4671096438147899  0.9589597004141482  0.1251725173085895
  0.9277790716156141  0.1079753983063909  0.9700082023769181
  0.7955965217881006  0.1567774069634910  0.3052028334567730
  0.6064049606781504  0.4432034205833826  0.8938532513504022
  0.6678514561436791  0.1689245168600438  0.0668937360764527
  0.5035368532474469  0.9022713040262224  0.7417318830167285
  0.1561052648950088  0.0289442171382807  0.7741181435203091
  0.7656100994504758  0.1205776168876272  0.0328237495439166
  0.5971089759917176  0.7169493534750948  0.4127948095639083
  0.7880143050012567  0.4806140144496957  0.1886670643343118
  0.3684042680955356  0.1803992385643262  0.5397133731419399
  0.9529147821748967  0.6553675247720123  0.3092488364829328
  0.3965852738017304  0.0906660474938187  0.8283411672990851
  0.9218145353762953  0.5948719299842146  0.1855353725373130
  0.4249218259954071  0.5699542924239753  0.5620844436381313
  0.6914884696809511  0.4824984996264231  0.4081765205386563
  0.2956405677270412  0.2969448726334026  0.7736719153805101
  0.4713967527722631  0.1303681789608513  0.2213852063917892
  0.9885768075314824  0.2360179506098622  0.3942322162108325
  0.5725375432260753  0.1649102835747951  0.5175103797914727
  0.9719468395381867  0.5852207865178537  0.9252957011134988
  0.2724031669117312  0.7435386608090868  0.6437852943922621
  0.1713816993532279  0.0454448518769103  0.6249218911944098
  0.2754551981235856  0.0911500078661978  0.8265059544116233
  0.0046238548917454  0.6129261439224737  0.6701853457730639
  0.2396572794359684  0.7092297579854353  0.4512171074591440
  0.8273261320901069  0.8624012386789203  0.5814822060635223
  0.9976549274081508  0.0191086919490731  0.9378263015837579
  0.2855606749502096  0.0228599296258165  0.7834383480918351
  0.8226368102313759  0.1226508785315056  0.8957618274676650
  0.6844850141967965  0.7398195243633815  0.2618723280617482
  0.1947336225201065  0.7281732014156723  0.1813756374025581
  0.4792003555333160  0.7643636643093262  0.7516156924951815
  0.8216876963407588  0.7966459616926742  0.6252956782204186
  0.1012554279906472  0.1177605053410839  0.9880603775144650
  0.6720854827772819  0.2476202079457822  0.7668597023384806
  0.4944585852359289  0.6342667165140540  0.0383788944346622
  0.0135838257378008  0.5047494174488660  0.7111565103402826
  0.5960709974568433  0.9089410784268473  0.1008790253532580
  0.1999093343754043  0.8264179949187097  0.6820417694253841
  0.8134354868634702  0.8456393549241960  0.9452877823099171
  0.1781461736333336  0.9197949280333283  0.9709044651354076
  0.4343285733224501  0.7603946297672669  0.2380191070967489
  0.5173515693105967  0.2849349227302718  0.1967550616822979
  0.9096912651015209  0.3255575242348652  0.7085731973346189
  0.9295339268255678  0.4543693639270109  0.1323091253626367
  0.1087694846502765  0.8769242023095292  0.0689233032155516
  0.5533943845170758  0.2177753988611816  0.5668577841703566
  0.9640309054961489  0.3811491343161629  0.4773102522281373
  0.1037629807782400  0.4725971908516662  0.0271324677258341
  0.8118573965755526  0.6214604620296325  0.5366387503247686
  0.1226309877902735  0.3866286793074298  0.2498807514058780
  0.8416243553938655  0.1911364497248715  0.8456199331342907
  0.8879395876745039  0.5305237686771800  0.9665375757386510
  0.0688978633126512  0.5056346916482235  0.7189757080706873
  0.7623262987645627  0.6126738345830889  0.2187315565370722
  0.9775448060909898  0.5757709558575304  0.7183269604519869
  0.9814059025376142  0.5802243231870261  0.7719125500353999
  0.1500559691571738  0.1482400446215255  0.1941894463031661
  0.6021161374214773  0.0173537158333387  0.3495951904429578
  0.9738116232452788  0.8264938117339230  0.1037296099842671
  0.3828264483259820  0.7120370127206168  0.4832934889769628
  0.5486804404435921  0.7587762708185398  0.8256717034548159
  0.8160096277028859  0.0525848483266176  0.8714803426229436
  0.6194838483731856  0.9332361204073484  0.5128069260516792
  0.2136380415631011  0.1907983573998476  0.4243119265281783
  0.6577515703393935  0.8662256199637509  0.6260445084304733
  0.2763394000478429  0.5316550154485207  0.2785107693379555
  0.5685531955633595  0.9017753320856211  0.6929709824256717
  0.2706246240628137  0.5800346625413719  0.5714187019777566
  0.2439333502532993  0.4077972837395160  0.4670813833378860
  0.2749544988381044  0.4803483929099074  0.9961947448962480
  0.0743258232090924  0.7050922345695444  0.7826844372425871
  0.3024239793812828  0.6191806273969682  0.6527282535026746
  0.1035243669497602  0.7920903770129388  0.3694665164472095
  0.6581757040715583  0.0119803751997090  0.2639137188883809
  0.0873601274717049  0.0375360661328789  0.7026283134109483
  0.5531238925963651  0.2978902245735068  0.5541684817338612
  0.8334726243795286  0.5563940743165279  0.8591071179520764
  0.9760273463837675  0.2753070548074268  0.0945073937406168
  0.1656201254888845  0.1179893904851926  0.9168557392849902
  0.1650970941694692  0.4001948343689758  0.0046005066680601
  0.8798620765350071  0.5824947240560308  0.7914644498527600
  0.3199939297471155  0.2121043551988901  0.1431300195353722
  0.3902613914813881  0.3676130595951734  0.7960175466762049
  0.8187046015001406  0.3273874373294308  0.3089129242219342
  0.0215645195226368  0.7392085704296686  0.9689819612658995
  0.3611599066616305  0.8606174060380950  0.4702644918035970
  0.1388944748632545  0.8019686190648593  0.1291152937478502
  0.0219171867789895  0.2255245270299606  0.4295819615493555
  0.8350679047312025  0.9874707364537586  0.5566073245637851
  0.6490669520152720  0.3007866184724720  0.8528958845190715
  0.6388903710069493  0.5810492094579831  0.1133839135886701
  0.1868312879805300  0.3849138114874829  0.8776002225627990
  0.3637043704379011  0.1463837655564192  0.1477288581135705
  0.9253839036129952  0.5298760568911041  0.0446574441367022
  0.1087860625371020  0.1082020488659505  0.6772286818926032
  0.9079544836814313  0.1092228905184753  0.2542782366518874
  0.2617307896320439  0.8963950221509086  0.7635269770495317
  0.1466195845902418  0.5080092630906701  0.4277955988077128
  0.8058880915515310  0.9836445380036328  0.9081335579505490
  0.3851521398085676  0.7271567037246877  0.3526981428242612
  0.6474721126055913  0.5151758582748671  0.5640062574208198
  0.1924472617309167  0.5254467152443889  0.2649341092633206
  0.7820477657514175  0.6437036973974026  0.4212085140889952
  0.8244181463189070  0.2664826181410356  0.1778403184253715
  0.7997054966712671  0.5554994089705179  0.0599970082016429
  0.1347996586843443  0.6729167141657448  0.8816198942762260
  0.1014598874600819  0.4680018842179476  0.6497301823164360
  0.0878538809533737  0.4088535896895365  0.5409241994755578
  0.9355653236674117  0.1585881045984579  0.2671190201461591
  0.3069945497879552  0.6127385706525855  0.0414363446913599
  0.6017174417139629  0.9567472420428281  0.8568989361415310
  0.6692175793133819  0.0698344579939040  0.5017434881646079
  0.3893055840938450  0.7741666889426410  0.0121079415356931
  0.8401307553776444  0.2800866636791715  0.6013416625744774
  0.5945142592840909  0.0294782292408576  0.6969934504909067
  0.7621055971162760  0.7215281253659129  0.5665728643246950
  0.7890366017611202  0.9490746865989507  0.7407101584739376
  0.4330319027625337  0.0383796719434780  0.1476692398130139
  0.5844919369492931  0.1639224396438019  0.6906823644954874
  0.7443558522092333  0.1967608035873026  0.4899294238414993
  0.6346653308913365  0.2966143960210787  0.6108641805989848
  0.5056354054310760  0.6097022395533669  0.2242386733854273
  0.5012637660380267  0.6875377154338874  0.1881249749342427
  0.8602749446775509  0.7754827478278002  0.5674930980989693
  0.9216055509247268  0.7625174965949850  0.4985232870322820
  0.2011762749251990  0.0769907205574778  0.3668920005483066
  0.2975384045692365  0.2885940932317905  0.0614055016036823
  0.2941261632983459  0.4073858617153780  0.1084590331912698
  0.1073804308492005  0.7395834299942978  0.5900014778699902
  0.7271852963715536  0.1095163915407051  0.9102103292283833
  0.8532617460568577  0.4061873427017872  0.1139584796746191
  0.9327079998488055  0.3362499040772938  0.2677658935290625
  0.7814912861744576  0.7894951638806534  0.9219530105708251
  0.7974550607699392  0.5524452155766475  0.1971835125855492
  0.1405886642253281  0.5943038638012514  0.2187465924287322
  0.4346054131060646  0.2005625820082071  0.5804762355027343
  0.7064939765978923  0.5019280937902834  0.1150082315435175
  0.1086896924043013  0.4809635140434279  0.1023199322332252
  0.9752249424470142  0.1029107887865761  0.3611808140260204
  0.1179219105306512  0.8281432930891808  0.7811265712480363
  0.3380919932695175  0.5162425871125497  0.9514057280064260
  0.1920151111625523  0.5828437058230782  0.2675420433665556
  0.3067680360182023  0.7857642851264977  0.8801333112497596
  0.4884276721621796  0.0341638082219457  0.7736727614869585
  0.0971433251681382  0.4523642626177142  0.7487653238913506
  0.0968037582981723  0.4517067589746706  0.8247546840849446
  0.4164544687413254  0.9002382104178672  0.8357551400482831
  0.9163353877073607  0.0051521039583021  0.6699340621591643
  0.1407648979617189  0.9793433965805908  0.8376927038124712
  0.1116760127289537  0.3238010279418220  0.6209342915159537
  0.1871633131590338  0.3295931444370385  0.3038518034841866
  0.8712111377891201  0.1173241504587147  0.8888453073027943
  0.6317550809703257  0.6725366778509296  0.2030790372993557
  0.1102484593794510  0.1963487316646776  0.4708923467938035
  0.3727622157999006  0.4834301400690015  0.1743692305290737
  0.6161421593351041  0.7276112200623437  0.3296884359814649
  0.9253735602700580  0.8398312988043481  0.5637130725353366
  0.2374738670853924  0.3097550732930085  0.7702265499203427
  0.9177589769133623  0.0381954300341179  0.2458064528198641
  0.2588804922194770  0.3170953138085776  0.4951012585081259
  0.0613209774162355  0.2409734228879405  0.7301100748813005
  0.2921132434604448  0.0178931409525863  0.8101242994416072
  0.3549626808096289  0.8421363755145830  0.9600598687807094
  0.7802087569177401  0.6433569162046423  0.8452687149476593
  0.6212919342793579  0.8970299586979436  0.7126938377508815
  0.0624710017288789  0.8076801218628797  0.1927412033002439
  0.6727239428496659  0.3809752434850854  0.3169845437094277
  0.4829878454648424  0.7153457633703850  0.9185693048680491
  0.8084754651614605  0.7891929900209462  0.9120594658675871
  0.4081522753280953  0.2289795320558931  0.3321959734538365
  0.7543019196581783  0.4083538817081365  0.4417520426628062
  0.9884398290778986  0.8400196702861442  0.9018341474240161
  0.0189554415249890  0.3023242057536458  0.9036127071839686
  0.8659159688489272  0.3223172379261395  0.0079438301903688
  0.5481002328603739  0.3406890431474245  0.0570006540314215
  0.0811570797556193  0.7137945208012725  0.3752753692568555
  0.1607459993131527  0.4024339565377660  0.3212193704914352
  0.8542754716441482  0.1011394724023159  0.4336607987063654
  0.1961743352393344  0.1764020490965044  0.9363503218912929
  0.4150966076324351  0.6747892580988573  0.2651351705587685
  0.5849934324179968  0.5165743012334868  0.7521169935636854
  0.7711320228262438  0.4020126671435478  0.8519843498392270
  0.2894135192334857  0.8304860207134481  0.7749316398659866
  0.7275999904523651  0.1891849282493937  0.1417842438238225
  0.5965707016219739  0.2295847602859807  0.3159889744572245
  0.7733693250284723  0.6489833068430590  0.8193919854057864
  0.1292592362930350  0.0504175941703000  0.5626452021869590
  0.7651574366288495  0.8243508463645740  0.2593582137619483
  0.1049476588953378  0.2100854782442143  0.4481673357684838
  0.9483608271771671  0.9092246959597478  0.8663322469429102
  0.0058029047357840  0.2341137811394679  0.9056690258886722
  0.2645577832825124  0.0128091881828918  0.8770306849094752
  0.1430179591812918  0.0224349456608426  0.8220122950659857
  0.8990779849433105  0.9129165451317501  0.8383513546770953
  0.2143919918808916  0.4078860414945721  0.5651533037302962
  0.3514273919711488  0.3020897222010170  0.0166704018171512
  0.2804264069706444  0.2408755719790502  0.9899872639353404
  0.5776563111789530  0.7228621369977720  0.9646574892056523
  0.5837825035466192  0.9652317689932799  0.8109197295143736
  0.1782897179411111  0.8955943348514588  0.6733029559984653
  0.1499008325739422  0.1227747563208242  0.9812851351236995
  0.2255567992129168  0.3721963559073643  0.8514970345302664
  0.5777147839035809  0.4192587264134183  0.5060528983299235
  0.0419943598287406  0.7061605459652606  0.7452869022723999
  0.7389126879446566  0.5046638533843648  0.8779406193879989
  0.9916750528073170  0.4595615942459247  0.1369970839529912
  0.1115068176929193  0.9537787431931988  0.2910697233753664
  0.4705017595460278  0.7793919787491471  0.5017306585505188
  0.1424549574864836  0.5956736516181338  0.9643964703669677
  0.6396283561980798  0.4490866088354835  0.9310133104438361
  0.7512656552105181  0.6446096305297094  0.5010807967916489
  0.6178598793322090  0.0945041126266757  0.9985997134644635
  0.8155909406249423  0.9382179663021726  0.7017892438479137
  0.9056094994959859  0.3361247401286398  0.2582032244531661
  0.4818987436077863  0.7049768297653344  0.6067585240678394
  0.9780719409247762  0.3348574617867635  0.5444265281022405
  0.5007946758823545  0.1371781006235661  0.2614681072068704
  0.1144903662721351  0.4745225459580864  0.5897012500984442
  0.8579340824928308  0.4939399672189805  0.4280842271199352
  0.8448217946608646  0.7687342258891446  0.3923225759596914
  0.9913062691620992  0.6649574093109765  0.0872686656388837
  0.9482412971948940  0.5354470128159992  0.1744189897892680
  0.7118415378500571  0.7404250603218331  0.6831708294720154
  0.9200413296148199  0.3627493879114684  0.0642588489822717
  0.8373190107477915  0.3877105804628636  0.3098177900627745
  0.8352361492833196  0.5720807073867066  0.8121001420216392
  0.2746882449838774  0.2047221661727872  0.1546279636875177
  0.8377280696301667  0.1052029758009999  0.4578068525125573
  0.3252982079164283  0.8118064142777567  0.5980756156743123
  0.1039441377443855  0.6455318478673768  0.4996774522373841
  0.9806160082187443  0.9066180280989558  0.4313002457260590
  0.0032717084717001  0.7768056335301315  0.8230630012549469
  0.5886220629439871  0.0993354033989129  0.6752438281788840
  0.2892631031680397  0.2196916020624172  0.5446133756094569
  0.2978485864681716  0.3883919450985419  0.6110642977756536
  0.8074057690361469  0.2087207953868332  0.6507085774079643
  0.5055646055376688  0.7783268817691963  0.9684698728402420
  0.5171867198423712  0.5577802333976862  0.0890382206659540
  0.2889368890282796  0.2399864334571756  0.3593485915147769
  0.1861390366131281  0.3406699344081863  0.0407246607546643
  0.6182109408707004  0.3479845918100584  0.2189108270910350
  0.5823728781435927  0.2202248883080626  0.1842967469062757
  0.6588507775057757  0.0864311625017727  0.6017737769386274
  0.1840278030034767  0.9137866846938764  0.0259362334280349
  0.3542775259813503  0.0419744479653581  0.9986481655602039
  0.5863118803066044  0.3080666287648487  0.7270820759298607
  0.1464270617340341  0.5194944207951225  0.2831822490551089
  0.2628170271651859  0.0432752528587334  0.4732996416546889
  0.2848181060178878  0.7267235320160440  0.5915051630480722
  0.3409767712963989  0.7178042649460541  0.9348182291392645
  0.7051107240818781  0.9191113750162880  0.9995536374772944
  0.6922527249532484  0.5058445460252176  0.0894171919441918
  0.8731161261807699  0.6078729429543157  0.6199624352470722
  0.4341689302834167  0.6434919334037856  0.8479361765400258
  0.2396273114398594  0.5770917148153095  0.4479856649125399
  0.9934821763872573  0.7225016247480582  0.3590040721709243
  0.5293167402382974  0.5203287861778512  0.8172258968909831
  0.9375028644701442  0.9052585784607804  0.4569232073414817
  0.9314937527704129  0.9846061370718305  0.8849982053002996
  0.8155650586526870  0.3964786171155427  0.9711712787031249
  0.9414114404588347  0.5538193839900247  0.4922307453699186
  0.2567154861938008  0.6480459102892637  0.9051296420289862
  0.0409223388748944  0.8502130880831371  0.4658473980906536
  0.5112477678379589  0.0736012446507282  0.3524073082344679
  0.3209104255496666  0.0929214624525298  0.7934638433957300
  0.0572034843844478  0.6983299304524963  0.6980434965968230
  0.1223335826445320  0.0866195594446820  0.2320640438924267
  0.1476267774253743  0.0482431996457829  0.9818173780849917
  0.1559261198985465  0.8198073579824109  0.6601007930391755
  0.4861892377249948  0.9689501836408885  0.1702454275149258
  0.7544151079386910  0.2551823069493573  0.9420021869503675
  0.9821846438688814  0.4755644315680632  0.4722921168983680
  0.6985186704175125  0.9470462806995275  0.6203082607552528
  0.4431974087223865  0.3032177826674948  0.8218015085470110
  0.3706944027827336  0.9812087210070012  0.9927384240577884
  0.8924284061253565  0.7768232105770028  0.7552197079150423
  0.6226110022190013  0.1712036735179540  0.4876068116345076
  0.9929804299233193  0.7626978122628804  0.6457154212208119
  0.7720454562532985  0.4985152696832186  0.3351338550676471
  0.5953716932981733  0.5888483068160385  0.8908281087583199
  0.8115039171652521  0.8949291524084074  0.3849443417067405
  0.4958995558924498  0.9175639531918999  0.5729308162162955
  0.7240150679051129  0.6533164700356414  0.8223858720655713
  0.4423937742825538  0.7786766482339925  0.4974085207839483
  0.3836815385722608  0.3953616346427943  0.4742382637423902
  0.7290657558174556  0.3348957467755958  0.1144805351542279
  0.0127310566145060  0.7411063450612965  0.1959704337685472
  0.3555209939563611  0.3695965290034670  0.9698435756652917
  0.1876319574878857  0.5925653144529358  0.5660545771191714
  0.2915296283628255  0.6483676933161396  0.5223031687705001
  0.5553446629040133  0.9376783359470120  0.2165176920115865
  0.5631626255820563  0.0303463595030946  0.7645192298844977
  0.0615038165076369  0.9964074910365364  0.8972013845778180
  0.1994089059636088  0.8769432878452058  0.2900269661864661
  0.5078607954503576  0.2441257016954979  0.7368217532751028
  0.2145592483679034  0.9098762675185962  0.5084616393727526
  0.3242240555083060  0.0998182019326502  0.0357055429012842
  0.1314345146140497  0.7098931714157353  0.4844792321548780
  0.3659002532398814  0.6784683971801668  0.1441311114823836
  0.9508259471416585  0.1331067836259292  0.1659431938524834
  0.4928975509841790  0.5326094307150941  0.9347013404335393
  0.1601832925164840  0.6442079245297314  0.3593167275059777
  0.4828177183542133  0.9827332599225359  0.5902130624893739
  0.6334796934328715  0.7265219639940028  0.9430168746078503
  0.3207506845670200  0.7871973486314975  0.4518589582101520
  0.7530600427573244  0.7123364018740084  0.4935766046919873
  0.8043328586917561  0.0538451554174457  0.0478865133847225
  0.0967724203252545  0.6348355545131982  0.8151431588624741
  0.9371603961291043  0.1963150246143004  0.6546427603660824
  0.2976772365133479  0.9645712209339878  0.0942024491756527
  0.6898593566964334  0.2450249476051710  0.0144415389847341
  0.6403462187119586  0.7977121702362545  0.9025805233252950
  0.0367300330797608  0.2822933400885431  0.5042098664587584
  0.0708798246067257  0.5395500033017446  0.6417078930351577
  0.7344924853608855  0.7883313467152742  0.5702232075730430
  0.6967960240275082  0.0326178560515083  0.9217421740455590
  0.2067276153196465  0.7081962857228817  0.4876557237881278
  0.4644408746546770  0.5307640474245944  0.3590720307207646
  0.8497428141057569  0.6424299161770359  0.0445090880720800
  0.8969667537916205  0.5959913712199066  0.2020815398045610
  0.7457571874355229  0.5093949209548282  0.8285192797073420
  0.3874154888127477  0.3019319564996890  0.0553807856363715
  0.5705659402208012  0.4554558964456507  0.3906987256636800
  0.8664421340052130  0.2509155637359734  0.5069087640060710
  0.0382804893890260  0.5259179977398084  0.0634935725031180
  0.8028002154102407  0.6935666896234044  0.2531893436586584
  0.1175871507017476  0.8986747361001624  0.8103869944911752
  0.3423186018055995  0.7605331888323211  0.0884323220380694
  0.5474279179355186  0.7803559399037449  0.5649289835086512
  0.6932517967723878  0.1476900208865281  0.5554050453054716
  0.0140600323449328  0.1333109620090467  0.0834160145382588
  0.5772591413328418  0.6715101322152253  0.7977947422645314
  0.3706987177004268  0.6017553602317701  0.3369488614129311
  0.0343374651228429  0.4067367278838624  0.6401906301488692
  0.6842975614668302  0.3022526765512675  0.8830677164262009
  0.3005207346056722  0.7133630702236903  0.9743158543210325
  0.4313579201457240  0.0470844347048088  0.6580008008399254
  0.4148830242522114  0.9247653712521816  0.3810712944400814
  0.4743417060200378  0.2524953783621459  0.8730576050577533
  0.1214197580950829  0.0336890646456149  0.7384747052323836
  0.1767717721747315  0.6633504355387894  0.9965983936791538
  0.1642516442907363  0.0800047347147425  0.3985433665950845
  0.5753012457832996  0.9562344151743887  0.6567737144606371
  0.1293021326264882  0.3485025520051360  0.1274360950884815
  0.1202144028604583  0.2741332015777697  0.5230480564845507
  0.7568244829581947  0.0591575103600200  0.7431362076943022
  0.1014868585805881  0.8860791615215446  0.3100015911867266
  0.3710489577574726  0.1094700531522002  0.3583632995555561
  0.1666484740924727  0.6001759643957083  0.0073218536997342
  0.9931863277492849  0.2392274522767291  0.9897429571991992
  0.0741059939344936  0.4043410300486455  0.5653818604849379
  0.4506785432921301  0.2593562661340582  0.4295785771235622
  0.0848563788284772  0.3066667992203523  0.7428453911067738
  0.9368826637849168  0.5240869581992863  0.9446912452598092
  0.3148292866533016  0.2726722885601901  0.1361639135321255
  0.3449741712186277  0.8802821653595554  0.8273438918322236
  0.6259704171898339  0.9271187355719184  0.4151064023845550
  0.8740851130999003  0.7254698339895899  0.7317767125603769
  0.9490653666509071  0.8954615719463448  0.3339108792055015
  0.3446307703243071  0.4952728985395968  0.6568797598021628
  0.2435655652110868  0.8269688996494849  0.7033489100689501
  0.4792458186647634  0.8389121820545228  0.8337019997434528
  0.8764299406963263  0.2573839943482954  0.8233467509533926
  0.5576915532727836  0.0985205898981762  0.7129767453433822
  0.2304610218186453  0.2662708639829224  0.4691316792848686
  0.1907546069806127  0.7756254076466932  0.4540358480838703
  0.2222358285084134  0.1919817080118077  0.5414355158040779
  0.5748599294350042  0.3112011769726495  0.9231698196571309
  0.6269097065459531  0.1548881239402199  0.2868131178533835
  0.9998576985641716  0.4011575487490610  0.7148320667606906
  0.1725566256907473  0.6878795093919515  0.6627949999963666
  0.6378788709995846  0.5845937899075416  0.0636776806656985
  0.9439704351594429  0.2125541407787351  0.2361674241371934
  0.4282406811548711  0.5240229524469716  0.4024204883743565
  0.6982358476630691  0.4225215282575784  0.1537407512676479
  0.9011762306406990  0.1831980186351685  0.9962633655293849
  0.1019594975811204  0.6082787928165022  0.6077806546617153
  0.5417949376655178  0.5208823229390749  0.0422816516391176
  0.7771407748693165  0.0504956543381282  0.1278683860748522
  0.1897453580836643  0.2638170681881221  0.9632541926574273
  0.9232916848046115  0.4806988424605094  0.4938321068366185
  0.8226052605809487  0.6023946917828414  0.6517093513149633
  0.1566070744650779  0.5266193095467754  0.9589977291533116
  0.4017300753934843  0.0641279081758423  0.2523146636154823
  0.4778832899936816  0.9010014053970449  0.7298816941488042
  0.0650221375160939  0.9163273934516976  0.4859785087783213
  0.3437480584047979  0.8032613040492568  0.3077783354797399
  0.1186657818799454  0.9950800115467735  0.9419072830105375
  0.9715142860689288  0.6084304303701236  0.6269797840971627
  0.0611057214536988  0.6100658398731278  0.5759906311704950
  0.3909761793709255  0.7306074375279266  0.3250508585295430
  0.1585156918677760  0.1821173596578275  0.9671856812765715
  0.5673198883978464  0.3087858975888594  0.4226328252810650
  0.9648605500550756  0.7188715335358227  0.8508186371813442
  0.9446097526183168  0.9631295693243243  0.0537936027534740
  0.6574631243411758  0.4199698877688229  0.1819613090856982
  0.9342308029039308  0.8540495798548702  0.1694244540285520
  0.4156211577106214  0.5720298461450878  0.9563038022313515
  0.8311109204580083  0.1276043975543797  0.7934330995278551
  0.6011914763453050  0.6699385205634457  0.6709785555664978
  0.4580438463781891  0.8460737342451958  0.5389998033679878
  0.3819230490840641  0.2359782097618544  0.5096379073585974
  0.2465921226486466  0.4788613627780856  0.9242818775647292
  0.1185981880529317  0.8325184204326135  0.8299510598390762
  0.8980771905410819  0.9038711130423656  0.4812121751276291
  0.8998210675424073  0.4047327860514734  0.1339073402334647
  0.8966380361989906  0.1627792951458403  0.3140713171974665
  0.4605288438468055  0.1317619579473009  0.3233814985079697
  0.5714758021808332  0.2950326398008676  0.0786590278635063
  0.2578843697099549  0.9772339343074588  0.0060399406027166
  0.4619254087306413  0.6431824911167145  0.8432906700905597
  0.8113463995589163  0.7611399205710538  0.2514687591925565
  0.9830141361907604  0.0041624124900040  0.2111097536408394
  0.4993031522375695  0.1733112433462755  0.7848231723160638
  0.9586823258788102  0.0672469552540601  0.1927706784084965
  0.8062552157171657  0.6855158013819238  0.9896104265255637
  0.6765088965613150  0.1413861419464101  0.3500212000390692
  0.0890930075221802  0.5840498189389837  0.8511550775087787
  0.5303846887179194  0.0666002402465514  0.0149517353523523
  0.2204621884227218  0.5278866990894056  0.6126900003046938
  0.4076379694648051  0.1697858821183656  0.7813742084031763
  0.5620704958452467  0.8322497506154040  0.1482185345195799
  0.5318878204689945  0.7843498452005775  0.9766808778637789
  0.9670278158394704  0.4766560888270968  0.5858089104046119
  0.0318158824844346  0.6242146180231368  0.4973357976346756
  0.6631711255963445  0.3046816595132812  0.9242179675242305
  0.2981726269330227  0.5351000358091249  0.0563969148752192
  0.8311504206235640  0.4311362057563740  0.4964364804919149
  0.1140348607811579  0.6606389775141002  0.2390034229331640
  0.9417762796672355  0.0480853624197422  0.0980326726546667
  0.0205403616040993  0.1665879605444904  0.9928605314200710
  0.9703785451654643  0.6631614262082256  0.2637094831935629
  0.0069964330363966  0.7710958646492557  0.6923184923361323
  0.3887200913372540  0.6623401847381949  0.4094826408611761
  0.7401939616601562  0.9973575196520622  0.5855392344767821
  0.1965223130343266  0.7949892050094468  0.5956565653344744
  0.9092428148675857  0.1123381304291216  0.0150102188901448
  0.2191202695041750  0.8497052336505516  0.9018254523300896
  0.9406247824582371  0.4632258469623521  0.6760076562758173
  0.5659063867911984  0.7171128029351705  0.0550655341747005
  0.8585703242052419  0.3933101345116181  0.9940533174840491
  0.2167424290403417  0.9992298356292387  0.9166635851101438
  0.6729659648328813  0.0717479155739602  0.2645974689107210
  0.5393447881142940  0.4629294127911326  0.3550077093899855
  0.8803011165861349  0.3837378111561671  0.3320841453847881
  0.5327737139514470  0.7152603193090548  0.0198110953066497
  0.5056781745675801  0.1388273937388408  0.6452522169452516
  0.3157472874135680  0.7617238046333734  0.0959051359900576
  0.1008248732781223  0.1173749859964931  0.5929659088239636
  0.6075999639386761  0.5789793716429015  0.5487114391853355
  0.8300944395667501  0.4289395685732814  0.5479721501756558
  0.1388612931874998  0.6611272082710012  0.0895628708720044
  0.7941707530883675  0.0525903651604679  0.5287976338367730
  0.6759272602601673  0.2399949291184309  0.9671324285768688
  0.6289695947303396  0.0146054388092281  0.3575134726391428
  0.4098112495491513  0.7977992329434256  0.3434707019232986
  0.8611134726888525  0.4070370713390406  0.5974658569607918
  0.1815733503648133  0.9442690824470746  0.3133423814903320
  0.8279120683543302  0.5271678947205638  0.6183134677910801
  0.7492786899778893  0.7319536789757152  0.7478970806579872
  0.8532828294511819  0.3925440197600925  0.8479112834082301
  0.8517849815382957  0.2720447002786510  0.7029881966877316
  0.9321449009714622  0.7166424697858929  0.3646353506400075
  0.5546672203116345  0.0167529615033991  0.3604687784450846
  0.3282953199315315  0.5699597952309883  0.7574123117657303
  0.0863467740813787  0.8181282500636252  0.6329788148330239
  0.7042517109469631  0.8922070101908030  0.7489951988118302
  0.4125491016450606  0.7118219986699825  0.5785409060196404
  0.4663059950272931  0.3838486670395455  0.4802849544743381
  0.3786805982382253  0.6985509608510662  0.7416744217875522
  0.4028628083218984  0.9341223756334570  0.2848648427416048
  0.3802450093309277  0.2073746481249945  0.8800131321300686
  0.1685156139262098  0.0831642488003301  0.2482832504248643
  0.0491666747478261  0.3953567365651386  0.3753922739645939
  0.0904381764101035  0.7413467844835250  0.1142788935857759
  0.6281186971995407  0.9957797691214467  0.5597667420489426
  0.9505535246041469  0.0584561092821789  0.1449247701322879
  0.5379143074344900  0.0744454956260386  0.9407099643763183
  0.2995014639887626  0.6875013926261344  0.0718768035943533
  0.0688732970254851  0.7057169918756119  0.4265966639701597
  0.4799040580301057  0.4710453315953962  0.9893357139640769
  0.2881798665559075  0.2682689492429072  0.1282951513660373
  0.9957667618744768  0.5918949776116730  0.0255125925299286
  0.9971965813571709  0.9095307477427156  0.4538445180127041
  0.5946336695277962  0.9707771222230205  0.6981175479131919
  0.7272931371348765  0.7908503585729200  0.9580511340625297
  0.4177305107789747  0.0307994899824886  0.1922416074462724
  0.8284899953770892  0.0693592537127063  0.7453254351202033
  0.9086152918755446  0.7642980711536147  0.4722829177410254
  0.0326690853920282  0.4742863495616729  0.2136609426049892
  0.7304425443706333  0.4365658295093494  0.5233185825193322
  0.7946473824285963  0.5799958390425677  0.7902687674243912
  0.2958374221218669  0.1508933671488312  0.8707998270075230
  0.8494211975587111  0.7962333558662915  0.6158540163683968
  0.9530656605684561  0.5812010874851519  0.7326918176894183
  0.3351476361684531  0.7129028881807334  0.4729338816385551
  0.3038237308830700  0.6442347291323995  0.8457821395414195
  0.9410082736858428  0.2409440544220805  0.0116349584298617
  0.0548286962940493  0.5798225392383399  0.6730979682090266
  0.2114704552907486  0.3230884898428443  0.6326643292677100
  0.3180069755834776  0.8831879062017727  0.5739689048178426
  0.6509108857191931  0.0932279076934025  0.8796283437199794
  0.0692942714182230  0.1589233895846973  0.3861030494833418
  0.6023576095321854  0.5805055816989366  0.6464193837860847
  0.5089567853935271  0.7975363613204240  0.2611611225852475
  0.2998742768720387  0.3034343121924186  0.0090923076398964
  0.6369689160881841  0.3032115339152177  0.5127070494862451
  0.4595071706432292  0.3959904534091918  0.3551226998568941
  0.2567405147381749  0.8245611891088402  0.6777714881828640
  0.4338074202870200  0.6869567867338625  0.1144821311550202
  0.1192402530907897  0.7784539651249170  0.8633252746368250
  0.6389089283064912  0.5162995567862743  0.6120297532392521
  0.8951781356622616  0.6211054938416848  0.5268733857478253
  0.4893492307321114  0.0020824315690163  0.3895836653783536
  0.5831917122984480  0.9173829537791343  0.1738541439262167
  0.5878801235044376  0.7876975675793217  0.3976678384452083
  0.4460294564496755  0.4313749370388196  0.5316781142289569
  0.2400883227335865  0.5178039996109658  0.3938140335994312
  0.2719733857104672  0.5100979371739767  0.5467410372897942
  0.5465692073190821  0.3920351975758372  0.9091480235800985
  0.4821801002438864  0.0375089126502798  0.1399578864504697
  0.0390353208387645  0.9044517382637297  0.7457762058315015
  0.3504912230289509  0.1681386285195548  0.6638177346662412
  0.1125547011808782  0.5863010129103241  0.8356063653309903
  0.2236230516007417  0.3359195968492710  0.1062884207073076
  0.4501351805628944  0.6987881240541566  0.6429307268794360
  0.9790419375602482  0.4739111118510661  0.6462666645725363
  0.3233117680303874  0.0069011524731144  0.8861412211026992
  0.7416778604087449  0.3224566682631516  0.3704442254524216
  0.0219190581542682  0.3146970047742640  0.6649401458763846
  0.4918610911897602  0.6601869512852252  0.4174689456152543
  0.9391532233967465  0.3045932618518770  0.4229369795466018
  0.2300130212278101  0.7899330470617005  0.9862617792334736
  0.5617738464572332  0.3639103955469126  0.3008149074134034
  0.9509702850853099  0.3442793281813663  0.0913116632869381
  0.0411942472962561  0.0988973359430107  0.9125258745462922
  0.7739796172652194  0.6277706522567049  0.0332370003348474
  0.1938701460810373  0.6547091610805728  0.1379238663511455
  0.8273728200515609  0.5368085315289101  0.9669556723392312
  0.5202851630532800  0.5199155594591524  0.8658804721052833
  0.9800164345599954  0.7155543848029593  0.3782233581422581
  0.2029863433059198  0.7613986122500416  0.0504445048046868
  0.3669805204864880  0.2980216829410429  0.7598035886113951
  0.7977900702035891  0.9240470830602214  0.5748324494600779
  0.1495754872856789  0.7101462315184084  0.4020336097012923
  0.6116262072690845  0.8492456925785459  0.9978665372238290
  0.2306519795196842  0.8358083862712929  0.0585587506549874
  0.9019016305301130  0.3066433157121856  0.4866420542587353
  0.0919361457439972  0.1796270181220491  0.6553746764481768
  0.2729555446366561  0.0299353218761202  0.7295288697600969
  0.6873488622792048  0.3048832158826132  0.9104350094953254
  0.4698938471930298  0.5030449858365016  0.5828641799291486
  0.9137368736826117  0.5895049260525528  0.8250816972263482
  0.8119687831378264  0.4731289345258002  0.6934816066671206
  0.7436294244633374  0.7265016097382778  0.7743797324307141
  0.8827881579391685  0.1408157723175583  0.6556523293795905
  0.2041842669353234  0.0281197579453112  0.7608633579405866
  0.2731644277459649  0.7371425253921807  0.2868502545255346
  0.1783318204598415  0.7965055425717272  0.1600366317500671
  0.9959816778317166  0.2329859580580640  0.4213834580986371
  0.2606600387581369  0.5869602009382232  0.9163076743331392
  0.4742618401754618  0.2414469031172621  0.7716192271325529
  0.9251437949390733  0.9597507166054143  0.2419372960426661
  0.9273718867794332  0.8406577853542544  0.5129148096244720
  0.5015703190250428  0.2783415607195089  0.2931021830783777
  0.1013978812709691  0.7145961137828963  0.8923074208700351
  0.1401576803284777  0.5329215336872931  0.0562685463252189
  0.8843692710534841  0.0561109518758415  0.7577320699943960
  0.1758985840616735  0.5206577082236299  0.2885968502641053
  0.7306840961928051  0.9726044589548707  0.2052734333755229
  0.7511628405966448  0.1290370618098106  0.7629477321749462
  0.8224385961485814  0.9119329828946414  0.5352984557027928
  0.0249773256306449  0.2206171605611983  0.2573556898251447
  0.3563422588361371  0.7116377978471802  0.8218045649315335
  0.8926885383713714  0.8491256032915014  0.1450538815757513
  0.4128399078005685  0.2437006864988089  0.9521831458130757
  0.5951706618015985  0.1704365470336192  0.4478696143122564
  0.5062400788533811  0.7013382914990625  0.1128985807291207
  0.0325717582352297  0.0629213355255097  0.1276865587992293
  0.2624214497301317  0.5781572220231401  0.4984020437787127
  0.5081939755133900  0.5875019835114140  0.9241513411419896
  0.4157808480373456  0.7811303288651068  0.5693665677995067
  0.4650225738420792  0.0421108494478023  0.6934854471502904
  0.7608623484747054  0.9129504669389430  0.8509326655272086
  0.6104023876453027  0.3028263642282965  0.8266233891860494
  0.3335180505457069  0.8043321508425799  0.2810999430809564
  0.6266039887481764  0.3018753155570196  0.7546637459696736
  0.5039641307788508  0.7904612963065538  0.3834722044976970
  0.9702645473356525  0.3196471452546115  0.3306476386584026
  0.0640325273908848  0.1815944938552805  0.6597146864632484
  0.6152462211153754  0.4267588444189619  0.4804249440863800
  0.1778388819349662  0.1726551060818612  0.9150413530177181
  0.3563324513250816  0.7814392717711643  0.9729963383132065
  0.7588152228376178  0.7376028841160885  0.3685977631496751
  0.1787094707149365  0.1866137595669422  0.5677398951484158
  0.7231964096931676  0.1842134263805525  0.1139927643879663
  0.7889873795738763  0.5125474424616535  0.3164943600395996
  0.8842769295066523  0.7503950146027600  0.2555374550736961
  0.5871201936377028  0.5793757682169735  0.6702289812628288
  0.9457147041605918  0.1011956965453163  0.9251770481858174
  0.0072150617291666  0.1187368476365777  0.6604148545511394
  0.5360636896686710  0.2857784524367762  0.6276683107204452
  0.2782158842960750  0.5187662658051935  0.4251589630935386
  0.7825253704962079  0.5997115323132696  0.0303756525497298
  0.2833761923170410  0.4598492631192432  0.3853962565619830
  0.3819017391768409  0.7991769879520749  0.3388445859133367
  0.0174237308935260  0.8056348181144554  0.3604610054671691
  0.8618201546886162  0.1947295874265153  0.7923199594841137
  0.5749664863291792  0.0314791193791267  0.7174279093426958
  0.4120008360369294  0.9847732541187357  0.4903886276137578
  0.1631209501358177  0.2419290418662726  0.8466878754917280
  0.6920082273396423  0.9705694311334707  0.9631889544498322
  0.3294402292194519  0.0044174437244986  0.3493957753546185
  0.8912540417739712  0.1759609740912429  0.4397540412949853
  0.5331440748302115  0.5153302456979533  0.4697722958806081
  0.3501534016714838  0.9729247488770724  0.4177635226758864
  0.5814316238718128  0.0191597986741906  0.3690124493211905
  0.5148043640130225  0.9707449791711746  0.7602323305512616
  0.8238581066461756  0.8927572311550339  0.3105633738643997
  0.3714485903288978  0.4908665347260230  0.9639969241001982
  0.0805951544674168  0.7796620528710222  0.5131500012138398
  0.2299043832622408  0.6117870841933962  0.6364161772863361
  0.6805809076050992  0.3657065557358078  0.7570229967861553
  0.1146518027425212  0.9787070461527380  0.5175837870268102
  0.4256490394218976  0.5484857842232734  0.0520140144641226
  0.6802794886742072  0.0995769328053834  0.9176659812212318
  0.8910436369224275  0.9519024460849743  0.2900591042297415
  0.6437704310928204  0.9672701610375005  0.7017295643396566
  0.5117108700154577  0.6374513415288787  0.0610133096621577
  0.1218104950965311  0.7987596428515359  0.3479931428899415
  0.1407858276877582  0.0860468538441626  0.2534943360296369
  0.8793238435783969  0.2409176527328563  0.3656010701368240
  0.3779958228305858  0.0417360929538353  0.4259048629349246
  0.9473100567182585  0.5891168921789058  0.1125904301608104
  0.6239239634061297  0.3024092430033368  0.5377461316440071
  0.9203847639075829  0.1051253740580113  0.9130328783322530
  0.1978681361699487  0.6888069732231100  0.6710495484980924
  0.8463958111472739  0.9487073305480849  0.3085258955299962
  0.6030564578516515  0.8570529691608109  0.2169411112818099
  0.0980345419414508  0.8958848319139403  0.6112058575852415
  0.0325743611188752  0.3019176454579359  0.7249439269301176
  0.4121624491264098  0.0543597361384767  0.3356785155911882
  0.2664177728534801  0.1849295218505486  0.3639612678338963
  0.7885437487280470  0.4794222206124685  0.9561401196385044
  0.3379427592153994  0.5086570799410706  0.5818749874792085
  0.5861379264236487  0.0913530616296966  0.1454659400166730
  0.5350287953885038  0.1704127578105449  0.3813609648834139
  0.6860430506548079  0.1700992954995163  0.8899464978431733
  0.4116372785147310  0.5751172231672147  0.8105954867215065
  0.8230222517340128  0.9941590633172811  0.7892142527562869
  0.3164342897525994  0.6910030903504913  0.6838317006159721
  0.4698028113399450  0.5473645392285388  0.0331538952794308
  0.8046245330661040  0.3995373127327744  0.0447498127575646
  0.1945999963981550  0.6611580570285567  0.9497026497427731
  0.1000254465762972  0.5224291537269458  0.9491860367478812
  0.1567954769707672  0.8776047962977146  0.3120794165971810
  0.1021882458430937  0.6539462502262907  0.3129340641200731
  0.8797754203099056  0.7676140074500208  0.1817588082091371
  0.8780047435926255  0.0712345643333990  0.7352521037980765
  0.5076913067033616  0.0913772752976411  0.1119495377303683
  0.2381639650139456  0.9112983881193562  0.4385876745548126
  0.3978453222508609  0.6923015012157480  0.6597336248458793
  0.5494777471271436  0.2276550594378700  0.9786747527124438
  0.0040621689352167  0.1116636392373400  0.4311489986977257
  0.6922744943482844  0.3170540619920285  0.9905498087088924
  0.4105795565072843  0.8412189836297524  0.2229706458553478
  0.5184229673069315  0.3963959173299753  0.3075991069310617
  0.5473543160436086  0.3710639455770931  0.5371487924929871
  0.3213548415595278  0.0916056428160903  0.1208505555641642
  0.2900992656023347  0.3092532666777656  0.7018697919816449
  0.7992162327176505  0.9220234737218294  0.7836462502479291
  0.1143535010512046  0.2791250799266048  0.0541027154428283
  0.6218294063519294  0.5376955355406203  0.2137556985261970
  0.8029038418341216  0.5003046205339744  0.4190317062255947
  0.5429721267885428  0.3126498002060153  0.7478479804807119
  0.7982647072218392  0.2077496496971771  0.6019141165947082
  0.5581257983027776  0.7125375640803789  0.4772223611705955
  0.3467766448052349  0.1478798684241821  0.1945079149695924
  0.6427463438841030  0.2247625026690435  0.5938179040131666
  0.0281786796595997  0.2308147926119025  0.7651268963347915
  0.3665086113748242  0.7852274194352613  0.4346705257397540
  0.9412903790665976  0.8226827337767032  0.6543254464449341
  0.2632086024342796  0.8590094273072842  0.4171183455063828
  0.5068349943189369  0.8473172547336869  0.8817006664381422
  0.1259349766961766  0.2538638349077913  0.9090935607281470
  0.7823273824453653  0.9885074183986129  0.7645465693240626
  0.3964071061453976  0.2525978425370946  0.4934364610605683
  0.7212648195874141  0.0452367033412399  0.1378660166730987
  0.4051379817238090  0.0492346294334567  0.4648728654850632
  0.1181345054586685  0.1503148033827427  0.3116704511453872
  0.5964348922033489  0.3022443921977782  0.5383051819779249
  0.6175100901438190  0.7343483232267582  0.2248884191297015
  0.9975244076234968  0.9073002001472520  0.8626583987374121
  0.8653830004418914  0.3856109115538086  0.3080509197734701
  0.2559730266237095  0.5581053433137314  0.8275295991959990
  0.6795398180737070  0.1356047385978169  0.4692725950134248
  0.1980196402279792  0.8684266820909979  0.3377836504374327
  0.4075305437329252  0.6593567167996895  0.4310435314289272
  0.2355117328882595  0.3143690244231891  0.9024922602209462
  0.2085094748731037  0.2724060373846635  0.2054227061554767
  0.2869007116221208  0.7050457106046247  0.0197914774185303
  0.4013371620450793  0.1361550922777423  0.2444166519695278
  0.1317003236479613  0.5335389558688653  0.1052274740299945
  0.0798308728424481  0.1728755868425169  0.7567213948417250
  0.5629471753359462  0.5090843204598962  0.5492738639437885
  0.4698210750190618  0.2625153460468773  0.4837862569719238
  0.3411421672147293  0.6518678794056928  0.8884220400516964
  0.0471188797425034  0.3042322262630269  0.6683522571528554
  0.0484296882166629  0.5633122168653486  0.4228421856206127
  0.8128422278068053  0.2804081745404984  0.6120718625370075
  0.2050854456772513  0.6739433196820641  0.6106014895499201
  0.7692633070295786  0.6450180047153147  0.5233862190286567
  0.2073629623478655  0.3972122148469623  0.0587636176292264
  0.4085293209043515  0.2430904678899861  0.9807630474400392
  0.4526660853975809  0.4745290815732805  0.9825293616593846
  0.3246868108815567  0.1541835232301134  0.9404534461038483
  0.2124118722741897  0.6474173416737919  0.3774606441854944
  0.2877471502867129  0.1671929603259860  0.5963414735025204
  0.6540582613221606  0.1624955142063970  0.3467755857095183
  0.7482965194272927  0.7197599925883482  0.8194183087175126
  0.8927397150035185  0.0749813563384149  0.6891972096486998
  0.9283797241839278  0.6276894469886609  0.4466858433824690
  0.1497577449894923  0.3347088364447404  0.5568967029703765
  0.3721309176287195  0.0178307759627966  0.2009992116372504
  0.3962200303566676  0.2825189250376204  0.1540096899027191
  0.5481669797072903  0.3954377037361703  0.9589400038909175
  0.0145482224250255  0.4510139762726533  0.9917153193413585
  0.9964825767266614  0.5144468486414823  0.8802701844697293
  0.3213649384597260  0.5878363073373539  0.4548462200364691
  0.0366819173350079  0.9587963210565732  0.2954497204211916
  0.8104611186657827  0.7193296711346373  0.5767635984172214
  0.0946722202615375  0.7763916923439904  0.4153248798711277
  0.4282586854705168  0.2765566134980170  0.5200118965063751
  0.1353076230234295  0.5965438750713928  0.8490641484497591
  0.4639474457439612  0.8365922221879244  0.8099479632568164
  0.4612533862830682  0.9657102342728477  0.8104003781749717
  0.9765004301133287  0.6796708109866447  0.5824538703082454
  0.4789332672145565  0.8453551863570811  0.8823629137552348
  0.2682187116510384  0.5481474275255863  0.3246772935314673
  0.1303106175570453  0.1820588997512203  0.6252171143363252
  0.2916324723884048  0.8911595212665629  0.5357407153433162
  0.9218779455239494  0.5246794205717886  0.7382432501130998
  0.5214175940698741  0.6444896516903902  0.6849363935969918
  0.3284716828171291  0.7903030714013999  0.4037942312044392
  0.7833150182538626  0.8459487853492096  0.0428864537290472
  0.9542918379772852  0.8401720565608807  0.5630012769845990
  0.4915926906620744  0.0622082326379238  0.3691895596033703
  0.7455778606936028  0.7897031702952972  0.8536812533260336
  0.3438867970300034  0.3852986118066793  0.3962813400103477
  0.1945118547129469  0.0958511810952916  0.7656013180216102
  0.8158279587051817  0.5654418032611589  0.4925997217907070
  0.8503330077830813  0.9823781204454819  0.9790073945619931
  0.9363812478348168  0.6461875970152600  0.7551402939239973
  0.8910831168358493  0.0467320496297152  0.5134644307721075
  0.3453097026414947  0.0172527017869763  0.1936649599177259
  0.3581371856221731  0.6760940758062083  0.6249056891560372
  0.2993649716917596  0.8607772234742432  0.8438554671474706
  0.9499125666348687  0.1655443567494457  0.8271026174775853
  0.3432986839838475  0.1562538898441378  0.8135410893066897
  0.6031814912338607  0.0808997827281656  0.3119237430119443
  0.2972341252741001  0.7888042954923693  0.9273728984449349
  0.0455388275572405  0.2874836753728979  0.1633329666607557
  0.8701054359261583  0.7191487711367002  0.8734471520665199
  0.0348114033758366  0.4183551947135040  0.0638462882781605
  0.3806361241255831  0.4788519184029368  0.2582347104144033
  0.8817715721929342  0.2004541124363990  0.6635826810942372
  0.1164893957000435  0.4014679432704629  0.5893388485048324
  0.7396670265782961  0.3991002174824564  0.2925113087406935
  0.9598834174434301  0.3890930166161575  0.7434915083945532
  0.4428701050056805  0.2843129098059216  0.2112591124316142
  0.3619545707237040  0.6405341996645572  0.7613335270923954
  0.1872057896633304  0.0605907327365064  0.9437200010679327
  0.9051120776952158  0.6569706714358097  0.3168857032743488
  0.8849663382789500  0.8289287267929724  0.3793075485438557
  0.6073662889007461  0.2224632140110638  0.2666828912769456
  0.3975557691342242  0.2032603637867233  0.2391505774466194
  0.6468015708948550  0.7798272384466993  0.4820505726061091
  0.4766369953497733  0.1927368517699527  0.8807498928216615
  0.8627213285466112  0.3330703106637033  0.7199489045081748
  0.9535331479854967  0.9058403455074499  0.6251928352817863
  0.9556140746111589  0.2866568766510904  0.0448498327410421
  0.6961151290887810  0.7374177692903722  0.6370356232186021
  0.7539080326952738  0.5118960162883669  0.7796626430717682
  0.6992683724013835  0.0689757745977882  0.3026947139111709
  0.3600325779412946  0.6443945070448331  0.9847563578369587
  0.8329005496278215  0.4171304109365745  0.5984975187537843
  0.1741226895153140  0.2577214826711133  0.9178892313082434
  0.0279549099690774  0.1039047670499285  0.9865438807245589
  0.8942182090858545  0.4968685379749250  0.3844695939789026
  0.4135443060928698  0.5716647765306603  0.7612348546784552
  0.0737754006993994  0.6653303269186385  0.1447093732332829
  0.8980221800104168  0.6036437985257707  0.0285894052226073
  0.7245919844490704  0.9435850396426296  0.6103651518163564
  0.0930869975227168  0.6068528828360734  0.1348933944885896
  0.8010973724808556  0.9500178394928895  0.3278492986002641
  0.7409276685918903  0.9111131243981521  0.5015940573647737
  0.9923621609680368  0.3021763882616256  0.8949463348708397
  0.9188778629690399  0.2668018546454800  0.1542373467441430
  0.7770736014708275  0.4871112044302118  0.1236482929464803
  0.5347296045235329  0.3489604912900334  0.2336481131836044
  0.8712723144929656  0.9108871814079484  0.7979872964897081
  0.9785947914409017  0.6631753853474891  0.0037772171903123
  0.1568851888291001  0.0844286635664751  0.3501762995520821
  0.7394158172612605  0.1346512144236864  0.5514930571396722
  0.1285097883152969  0.5113034159264621  0.8017979159023416
  0.7847123920967235  0.0564698936485927  0.2511658830878246
  0.2421619841732887  0.6877275859297847  0.6784036977209145
  0.2313085775899446  0.7073254703475178  0.9063942051232063
  0.3661163503352100  0.4703524123311933  0.3674008285637729
  0.6312580978435911  0.5388599506133125  0.2405273766612247
  0.0272495773270318  0.1192991741448536  0.6138351663776183
  0.6638142476563121  0.2403833561121896  0.8171485631616550
  0.4309823911819424  0.2210698011268771  0.0976940124479501
  0.7403832365553250  0.8344318496257330  0.2108167947837928
  0.6381565033871985  0.9999691787878524  0.1858757363583607
  0.8491870296761246  0.9819807994170625  0.9319979063154823
  0.6995982181086748  0.8780958299171802  0.2370713618612677
  0.0271039057964620  0.9404366995812992  0.1954457029523553
  0.0045383428919473  0.5233408851318171  0.2579831807695507
  0.0620471350437506  0.9449196837756002  0.0082484674166668
  0.8548120397665387  0.1291942489929001  0.1777187945364956
  0.2022673178596661  0.2645098274560034  0.0108306137755551
  0.3073103871993750  0.1774052166933618  0.4533646496406398
  0.9689784666103356  0.0393085391110188  0.4120692722843288
  0.7468880865307443  0.7155262724082798  0.5207397620788764
  0.9735951249792305  0.7726374034542360  0.7287886426323930
  0.2058824781490538  0.1897702309789444  0.5646939919444486
  0.9139667549512628  0.8386995743106138  0.4876428361667409
  0.5497134850602844  0.7925030369317763  0.3664105239739149
  0.8128221902450928  0.2684175753373622  0.7682683455593687
  0.7108613108970393  0.8812986712039993  0.6739024934260496
  0.3094375787574649  0.1528059981764980  0.5567070691126103
  0.8723759450529138  0.8383838534851532  0.9480822778843826
  0.4207459495315821  0.8364407808970756  0.6158208982018123
  0.0441469441395412  0.6079982017713373  0.1356934797470231
  0.9874119562460858  0.6662498527816254  0.2174929107034932
  0.5527896537727096  0.7188757399569409  0.0020024145430408
  0.0565596954514875  0.0231951300709768  0.2631029568867103
  0.2014330640286310  0.6951130657088517  0.0908046382983098
  0.8631770653383269  0.3903489210401383  0.2588748949557862
  0.8818595127528387  0.7935959679699166  0.6841810265645419
  0.8447884683899378  0.2014812422847900  0.6194165425685141
  0.5699670460045771  0.3060106505563659  0.7992636590684169
  0.6507978254764001  0.0749703839668114  0.3080772450854479
  0.8656745996780876  0.4017473332206615  0.0895489267176954
  0.3697464455992988  0.5727252957663400  0.7834232121875925
  0.8551717772035572  0.8319439941577743  0.9711988661738946
  0.6073734786808682  0.2185056296273781  0.6285891245676982
  0.4217241087081393  0.7129169748331821  0.9583729605514024
  0.2781131315298333  0.6075549517531791  0.2588952595178443
  0.4563357855721809  0.8493272465002295  0.4894558922666652
  0.6181054802336240  0.5864118262224827  0.4019476748898650
  0.9785495528998103  0.1432582164928565  0.2043112723263935
  0.0319717086102723  0.5688198709176686  0.3776523483037194
  0.5306558512452813  0.2179567820156181  0.9605774118926188
  0.1178334439267997  0.3991318096002752  0.2962710457518308
  0.4781824616710131  0.1458252369959374  0.5759831322270557
  0.6120778626371195  0.8867513955962087  0.6892684266084794
  0.8338453881213584  0.6867950826671536  0.2894766449507528
  0.7665355491181661  0.0842857997194130  0.3973822505154954
  0.5013627698825668  0.2143166317232519  0.1651298799297564
  0.5352220008084104  0.9561176092594534  0.1757482280202434
  0.7735771969389430  0.9828807968737869  0.0274286977944306
  0.3152870427740400  0.8411827232691320  0.9864424499635921
  0.5373693255608459  0.0251149367059540  0.4080737556098383
  0.8575830213374587  0.9052530212387324  0.5075662607254926
  0.6486770637858472  0.8939971254703583  0.7201433429704067
  0.5376875335249884  0.3889959705627467  0.4628105800296848
  0.5506071646683266  0.6421928386033421  0.1021011315059858
  0.1565725162313468  0.6722495523876859  0.5913337034768062
  0.8828556994917934  0.2691059646422873  0.6638437899442460
  0.5612556720540842  0.3929369295430784  0.9334507390958428
  0.0807666960610494  0.5160119370687972  0.8957088888074713
  0.1341334235678914  0.4709880799860412  0.7205593473077602
  0.5540945557088479  0.9038786878514596  0.1290616449983207
  0.3725655372253940  0.3622335290619693  0.7243538446920873
  0.6039603532184707  0.8044985804055597  0.8672867690309849
  0.7841772167113231  0.8472590561901185  0.9437391054714509
  0.8709265964077945  0.5326667088270783  0.9436935097350680
  0.2696686173423431  0.7672602560800028  0.0840030983990644
  0.0238123095115185  0.1011289603404133  0.9584589953754121
  0.5182330312986588  0.5054932311709133  0.6409494516159202
  0.1273845539183950  0.3849223105229610  0.8344166216497733
  0.2570625701737976  0.7391232331326334  0.2401543717336113
  0.5692784194219105  0.7655216032184281  0.1904771850649384
  0.7768706466892559  0.7143379142085714  0.0791403016123805
  0.7721537172001551  0.5636614943326808  0.3875449848927079
  0.6188742792700952  0.4514020552566706  0.9491050825630649
  0.5634075729428385  0.1708542513099312  0.3827331475172088
  0.6502909389075043  0.2302999873106695  0.7629903495366208
  0.0216889079178026  0.7748518007556225  0.7394522002106690
  0.1226268080069397  0.4630306628542999  0.6681369620666595
  0.5137864933220562  0.6657607956977916  0.3671046473013167
  0.7004801204047598  0.0072667555664086  0.6249629223565253
  0.6256669967000501  0.3540701741096136  0.2664121392137276
  0.2173416093703519  0.1952741138192505  0.1095353283995760
  0.5458089683093599  0.0347111623654189  0.0759730981476718
  0.0674283910951124  0.0470950344203745  0.6203819040202850
  0.8845802187664017  0.4628078016522072  0.7652247766490780
  0.1204208451298901  0.1495610624713993  0.1546725400956593
  0.3241014052284963  0.7869340895793555  0.9348999094154302
  0.5580337518859829  0.0219066760349015  0.6654237047127449
  0.3258502821014984  0.4648174332594682  0.1195188060172411
  0.4876360310536891  0.7064806477600564  0.0284704624584617
  0.6360160166810236  0.9680593197167288  0.7882920907394210
  0.2838719652477498  0.7085909318991364  0.8213485975664462
  0.7662175956521371  0.1334237827133404  0.5615252472858429
  0.5523546714916084  0.7745932525886191  0.1355187997705992
  0.6087271402156434  0.9481057495135233  0.6205375536025020
  0.2568898668758579  0.5643842222451810  0.7786241344173747
  0.0305485326592709  0.4953859176712795  0.6909786237677581
  0.6874598023030424  0.9861215705243256  0.4998412388433169
  0.5345868347636895  0.4249539472792437  0.5723607805003107
  0.0640960297670349  0.3040649610337828  0.7618111571828624
  0.0405018939352350  0.1695176464980561  0.8636005232657543
  0.8563233769611291  0.7266924379045508  0.9204664755503983
  0.2994454996018461  0.3052067363904380  0.2993693355465359
  0.9414914864584234  0.7310592485150967  0.7124553577477996
  0.9309504103976871  0.9099374045372453  0.9321914426642195
  0.9655871656185496  0.3479438055392697  0.1759090174491026
  0.7371782516214075  0.4954604793210567  0.0625947564233959
  0.2928069261259269  0.7816527727178432  0.0264517788886206
  0.8389032400631867  0.6833567680244375  0.3173311633175138
  0.2671269238219813  0.3029727642730163  0.5505109735840996
  0.5445366393808325  0.3925243349029042  0.3595706574528113
  0.0941538109370070  0.5955096542441695  0.2765637203804387
  0.9760153930392197  0.5355100539118663  0.1787303391985593
  0.3612320784027378  0.7193247921902537  0.9148973489006128
  0.6223495624403685  0.0291274095504493  0.7032632272892310
  0.1167123386454021  0.9171736326666697  0.5103062834467483
  0.3445914840085063  0.3650444595013751  0.7261046749634029
  0.7799738712317957  0.5263077588116188  0.2928594385387760
  0.3955792702767772  0.1158855213864878  0.3711524905589954
  0.1876601712605796  0.5166993382587575  0.5347912338894021
  0.5873019140549901  0.6668675520963717  0.8465648420129309
  0.1961302569489391  0.7985309675997412  0.3341338672595469
  0.6324629103531810  0.4111610501057932  0.2665204228368506
  0.5370373953367210  0.0876175054873363  0.1509188310428972
  0.6324066306225057  0.0131963159172532  0.1326593486240971
  0.3863933502553885  0.9520382695064434  0.1855721227608452
  0.9692764310995776  0.8294782513711518  0.7013148921699026
  0.8753138491682820  0.7532366727073948  0.3130134701101116
  0.6316829368040308  0.9435825119439571  0.9287269327955009
  0.7813825854697299  0.8326656032882421  0.2380243317540611
  0.7083102453328164  0.0666581252059911  0.3860196809947827
  0.3101061003038704  0.7283182129965119  0.3517780930731388
  0.4334477965937735  0.1168932928770334  0.6859387517032982
  0.9247828616254418  0.3383679649208437  0.0796137749798916
  0.4066959889394354  0.4738713728115270  0.3015222684062310
  0.9256830935510522  0.3139497515779006  0.9245722600976495
  0.5537650043586980  0.5798799807061956  0.8171698538402274
  0.7625657594975467  0.1429386478452120  0.6896877853678515
  0.7663345760428123  0.2569840679413450  0.8872160663285837
  0.7933030688707535  0.4792443772575851  0.2161346298186722
  0.6322623348262383  0.0195624646877435  0.8278623890641705
  0.9013726228689303  0.5917106464983223  0.7169641369956665
  0.6130464020235421  0.6635092696357319  0.6441068608484203
  0.8406368300279984  0.3939173029458918  0.8732716359849058
  0.5133608289775299  0.3797103710913945  0.7620685695678202
  0.5421480421138366  0.2362715276994208  0.8023558560965932
  0.1324072636261855  0.4727378712855123  0.0206419367545081
  0.8071058518535973  0.8240397082750541  0.3684983826466504
  0.7404776569877110  0.8475657319705518  0.9687285573852501
  0.6222410011574082  0.5351395168780969  0.2883629768405755
  0.5637297228046408  0.2178261433586123  0.2054827777130574
  0.7677039219313267  0.0499752989619797  0.1543675367232966
  0.7016627924548788  0.9272916854580854  0.5242127090090586
  0.8147631895011025  0.0537848788581635  0.9464075571883848
  0.8551454351590259  0.6088251497868727  0.9617084681903977
  0.9441109324392196  0.5861818344195667  0.8602614711808335
  0.4034264825722005  0.5055603875284236  0.5469486114046177
  0.6306118229293780  0.3054401620508109  0.4643156493819092
  0.6696542299081565  0.7236574297021348  0.9773043383011083
  0.6211785414182905  0.5903145988553707  0.1851124621311095
  0.9047201204247513  0.3091329979584810  0.5145098622974651
  0.9646611553016686  0.1700227939164110  0.9260864726001703
  0.8889355705056949  0.9437836456261607  0.6618475688003945
  0.3648815493520108  0.2709127787971364  0.6734369188522829
  0.1724842343473009  0.7750838060118663  0.4757077946235325
  0.6783920725809169  0.7194732508907813  0.3884687631129077
  0.9498289438853923  0.1036576808262204  0.9531840997427232
  0.6218057315562121  0.5156963454234645  0.7084763671524492
  0.9722501214435846  0.8061047252600730  0.2864888090522120
  0.5725888901819518  0.2113399161449598  0.6647836341857061
  0.8827139207118030  0.1636872691526554  0.3403138707635259
  0.4123180591292276  0.0899459321586701  0.1526323780236157
  0.2764033835723555  0.2704828238472250  0.1752417332983278
  0.6441524975637872  0.3011292453484640  0.9036605352011939
  0.9236997094285940  0.1263064624495729  0.5677658704163547
  0.3229100314105512  0.2948466634242458  0.7784376269529387
  0.3503860481536497  0.6860729789508813  0.6494933645224760
  0.8627988872650276  0.8177412369887518  0.2500987608335643
  0.4437410896677677  0.6537323382830974  0.4746514137206377
  0.6471897658865077  0.0285070339393388  0.7834467551495238
  0.0782597349832500  0.6938304200727320  0.6788595690739225
  0.9608377620098526  0.5148522340938053  0.8464236602509051
  0.0877304043365811  0.6641963232698628  0.2293994946664638
  0.1923163373585987  0.1439090955932149  0.3192959985127106
  0.6944021352951907  0.1755245255819101  0.9458187931161923
  0.3239494096765294  0.6752894942683861  0.1821144857567991
  0.4064082970772656  0.7239592507642065  0.3714379304700862
  0.9485226883257543  0.8333454208139526  0.7772355577210487
  0.0819327148470566  0.0987356666284090  0.8502699061456933
  0.9473808593815625  0.8369446942071747  0.8272707266273359
  0.1046262904662696  0.7745943591677846  0.4417994586281914
  0.6534992305539586  0.2955614640953764  0.7569258425632180
  0.9125125232319233  0.7651232008701727  0.4206683021251258
  0.0694336929117154  0.4565999803732430  0.9060770172179120
  0.7282678761789747  0.0719779876469282  0.5791549332701840
  0.2414812547028053  0.8715054874667307  0.3155023132305537
  0.4304260627637553  0.1320278452786358  0.2840235188949596
  0.7341762982770076  0.3226323242001051  0.3219806342657521
  0.5117863684807280  0.4678844256034923  0.3156563326076751
  0.6467836727803215  0.5127590748310121  0.1416880747248233
  0.6192837308403940  0.2953975922012425  0.6343407841818892
  0.9580902773148157  0.9633194914280623  0.3273487396251226
  0.1334107767102168  0.0175604504705256  0.2568441694709562
  0.7140660230724649  0.8606811060999824  0.5775015272557785
  0.2767324295369458  0.0483916579978135  0.9953730075137688
  0.7214267846990287  0.2620941134878098  0.4266786202810532
  0.4504349589090878  0.7642482159574090  0.1352894445154986
  0.2499777156919421  0.3202101454101850  0.9864946365291647
  0.7692430662379743  0.3236015668204136  0.3656502763274368
  0.5634436881084851  0.2490665801231454  0.4843436250942034
  0.7768923818205795  0.0533175517385625  0.9786277367973888
  0.4434437232801312  0.8467261214158616  0.5146117191120336
  0.8382267709303022  0.3943233200996430  0.8238142137647176
  0.4260506572243180  0.6432310678020428  0.7997794179558538
  0.8465596235298679  0.9242248981216673  0.1609319667918410
  0.4512454214587172  0.2839923736464405  0.0885668191591030
  0.0989304150122201  0.0361182561715522  0.4270859455264932
  0.3935117143100337  0.7524351029003826  0.6570446165427288
  0.3575146049115391  0.1112561066316509  0.6478023457760265
  0.7873245005074139  0.7121703674516787  0.8522000009702169
  0.6102906592482786  0.2892704521413666  0.1565793659927275
  0.8266387936932226  0.5312747181712788  0.2775832086418838
  0.1379835946123820  0.5940701945862139  0.8776565456487858
  0.8335104826589215  0.4720620391436238  0.7107028032595609
  0.1239624853558625  0.6434479268874809  0.4527570431978957
  0.4810515301843068  0.9170288268088286  0.4557704243102705
  0.1303710583287271  0.2351494050411329  0.7559715985101230
  0.5437353677807663  0.5756504142889630  0.6930913395677597
  0.3338167024328631  0.2334517928656485  0.9770970522225226
  0.9491133799816388  0.3431050744406439  0.2217611036832899
  0.4456883180433194  0.3630920745684512  0.5480486177960191
  0.3741933807365949  0.8068483331861652  0.8725731581096600
  0.8340958597573868  0.6524813887457102  0.7139594989832579
  0.2415822923326471  0.1233018823610978  0.5251905460303763
  0.1599183563966364  0.9847010164605365  0.0660921022231910
  0.3171777516799704  0.2373464476732811  0.6968010962908951
  0.1793047493192733  0.9653142561169014  0.5521032719105693
  0.2401465756930458  0.0448381796412863  0.0625409500540363
  0.0753849930900501  0.2978179640966211  0.0207098038928480
  0.9148298271718260  0.0402664165660941  0.0284591246320539
  0.5060663532238935  0.9088627684512135  0.0390376563132530
  0.5302281513151548  0.0940971663487735  0.0949065831624919
  0.1674771460070085  0.8455848966611744  0.9755149911840024
  0.3055331503792108  0.1512001559093030  0.8440212980105909
  0.0368852262071555  0.1878743129385665  0.4625055596551832
  0.9630898464098613  0.3070676610259879  0.9918329261374265
  0.4037066210577875  0.0473889596943170  0.9896786171045955
  0.1914328609162646  0.6024469345605303  0.9325530421569194
  0.0715648304174047  0.7781271795986000  0.8520856245805651
  0.4997058042656832  0.6445857707594412  0.8123648853288977
  0.1421099935008063  0.7002281005910742  0.7544410019463295
  0.3697543030718753  0.5083485792072787  0.7379316749139379
  0.0190164876232101  0.8983595791422584  0.3568328730131530
  0.6756973422323538  0.0379237250217970  0.1211905057331706
  0.6526622076108273  0.0124764905960898  0.6380361090893634
  0.8234032874007211  0.4856056910345889  0.8326612228036870
  0.2625738476335519  0.1969460730009400  0.4532697957071012
  0.2159923560322627  0.9578774267119780  0.7049360397451537
  0.8937416238855724  0.1180527873373745  0.0882304458400988
  0.3579726737658435  0.5323991999103949  0.2155356744643183
  0.1685115755447803  0.7177678035979493  0.1328730293071856
  0.4184988030274584  0.9658799830212412  0.7213644165932322
  0.3477656007170800  0.5159856298404457  0.9255059935703158
  0.6049058265570227  0.0173849511841491  0.6510484741702517
  0.9760663805113639  0.1391896597085109  0.1761236184479757
  0.7893323505162350  0.6125256594335623  0.2091819851089860
  0.4492649903827415  0.9034152505856130  0.6893524731823480
  0.4783460694881650  0.7820415969263244  0.4534071729904869
  0.1396544867653952  0.1431766054659977  0.1096849394220840
  0.6963192233608037  0.8523777596931734  0.9461632344502304
  0.3059988163755855  0.0200407049332891  0.1313666433893246
  0.2908517176051624  0.9668163674505545  0.5018128528913587
  0.7867855958041029  0.2599664080390749  0.9063826556701737
  0.2231762303336325  0.3113433933152329  0.7141902020079209
  0.5373075227200054  0.1473271268134700  0.1727148073867037
  0.9755616200844165  0.2333937709034727  0.6794444106526275
  0.0451512088003992  0.0404237753971539  0.7409787802691474
  0.1725661325259221  0.5460540884689098  0.8199188396891310
  0.0059793677322476  0.8422336352780019  0.9728349300064865
  0.9338245266338894  0.6464255008186980  0.3545561985855765
  0.2947158161793211  0.8804016446855474  0.5902146046833967
  0.6637773263500658  0.2124493765863326  0.2011290719749319
  0.1558241813924946  0.5726824996338987  0.4392142073786779
  0.9768372517786035  0.8972003435155524  0.3332317877692564
  0.9724441457966123  0.0551822613563627  0.6415760604493482
  0.9162937138984476  0.1001604142514233  0.8850898548306934
  0.5074118443330795  0.1413209928846639  0.3178951422714996
  0.8176931828113222  0.3267535439768819  0.0163866622199764
  0.9642267482713544  0.9063820085459264  0.7096538612925559
  0.1270450387318792  0.1979778359827368  0.0422471739014861
  0.3508839104772687  0.0314275062121167  0.3864848315151995
  0.6135126250517881  0.8479146122175625  0.5074053204776590
  0.6792364251355750  0.9827430103147305  0.4730526265778125
  0.7804366421023707  0.9880385811713353  0.0015605833804239
  0.9558820708816564  0.0430254880124430  0.7652593690011290
  0.2924932144077659  0.3127682036633614  0.3255002250641822
  0.3372519394902963  0.5776624584903136  0.8789517445972914
  0.8721668418994023  0.9151152546503930  0.9828464995583875
  0.0477534920774464  0.7464860252695166  0.5263463394403222
  0.1705869298088247  0.7521156510655133  0.6465102092127983
  0.0060220912810263  0.5762282379702753  0.7563371384985751
  0.5398292093732596  0.7045348632645757  0.6933404149038365
  0.2020865020569358  0.8963368481081456  0.8454681540390183
  0.0047420990797706  0.7847713737377694  0.9554766181636267
  0.3281469160983378  0.8720593631998736  0.4179450875184929
  0.7684685086771030  0.2591430615778030  0.9881634544825406
  0.1981772127663727  0.2752103415394195  0.2521179908721564
  0.6955126680801151  0.5206387731782469  0.6218277139170990
  0.9907150479931353  0.4174466390751919  0.0842538161417719
  0.8550433541845290  0.1629908369186218  0.3447903099427006
  0.4065959175408900  0.3549082597030715  0.1548338877947542
  0.2127193365762880  0.7072571605653588  0.4597190410843017
  0.2018775792457610  0.3833922045929336  0.6842579402410233
  0.0683809840428813  0.6062625549155711  0.0928241107674020
  0.4458800881692588  0.7673471969195489  0.6398371816816470
  0.0749230016751786  0.3996651142605119  0.6144760850113570
  0.5558406479708146  0.9050867856027098  0.7645633434344073
  0.3722676768255592  0.0973415468241107  0.0303717384572993
  0.7022334524112732  0.1274112359039096  0.4840017600842915
  0.5842172484638740  0.6547924511130739  0.7233791460656098
  0.5055071723309297  0.7469349273256631  0.2622881963819894
  0.1167911084335315  0.0309665259110355  0.8143790267272898
  0.6375526370689899  0.5834491494576058  0.1628702324443333
  0.1612632269814246  0.8283364360891852  0.8053651886996266
  0.0382089241306409  0.3289209214736641  0.6206693541842849
  0.8333354173802385  0.0693333147042280  0.6189400386197267
  0.8022644419409724  0.3963268938570335  0.9959485799263234
  0.6514898121800812  0.2525051195897344  0.3967048392906372
  0.1628594900779265  0.1681345262421934  0.7434352893216523
  0.7562670062987297  0.5895826401770661  0.2904411382933073
  0.5845266697985740  0.5371829327219806  0.1832406188351896
  0.0055223308083819  0.7243752454857111  0.9162145486170270
  0.8859764965712442  0.9127400815020997  0.0073375257714318
  0.5087154009341280  0.4134712601230622  0.0842431423989122
  0.9511634347703634  0.0408852573744133  0.7193993433680890
  0.7265603201700277  0.6652917395473864  0.6265581650534251
  0.6757878692374170  0.6819099116965252  0.2188919127114238
  0.1505895598476923  0.6498727329971397  0.3036726829490976
  0.2384130158462025  0.6526144136116703  0.3859134576308602
  0.1490652756208857  0.9256901441833499  0.0867755782037340
  0.7215905683263094  0.7073916376852991  0.1696841805046449
  0.0522623843031449  0.0265268146226663  0.0074566592595723
  0.3789935982797180  0.7994216847754080  0.2636322134722875
  0.7682298990047651  0.5572553363062956  0.1908850203745494
  0.6372345206626474  0.3006003126008979  0.5623673552311352
  0.0315977449794196  0.1111536115411440  0.4256349809811749
  0.5313568727227318  0.7124582016869757  0.4860888266573733
  0.1236318148240577  0.1190017977634175  0.9702274839646543
  0.3701987915880657  0.8791656253988099  0.2182814559100770
  0.5012325454344914  0.7687685341473747  0.8361903788055118
  0.0567990502761961  0.1489947211857092  0.2355137198949019
  0.9519312993256471  0.9692136360416564  0.9554799185788508
  0.3802097181061677  0.0440200358070124  0.4540113710044179
  0.6820675132908278  0.6696018062455189  0.3401670162878180
  0.8625948226514165  0.7338550679188736  0.6868507484412740
  0.1557940572556073  0.3437749589837213  0.1358480929988598
  0.7844222502986035  0.1231115119382287  0.9872836277918666
  0.5963987677571081  0.5787427137074230  0.1370462713412385
  0.0957257142554279  0.4227229536245381  0.1584086053286589
  0.7416949630481121  0.7811973662971606  0.5221356076897018
  0.7778425387512783  0.9847978638261482  0.9560930517169065
  0.8812048816358949  0.1971048531273856  0.1648362051826440
  0.4956368628699473  0.5790040079785997  0.8683519530413953
  0.4164117501364978  0.9895190169895409  0.3902628488261746
  0.1723019534110806  0.0126147399928598  0.3214727503690649
  0.1473444492993108  0.3398226477358119  0.2101720136641161
  0.0955255800666625  0.0042474189030330  0.0907776363011984
  0.4100480612844140  0.7751667063359100  0.9921112971591829
  0.2323084757110012  0.1464877357878517  0.2550788313744164
  0.0706767233138949  0.9432375215564111  0.0811483808480942
  0.1557915145188183  0.9636331718806842  0.8197805542914958
  0.9892344874214158  0.4254042585068721  0.4712631754476208
  0.2573344246001851  0.4794947561198491  0.9730835172811606
  0.4512117767182346  0.3579170395327256  0.6200184502943048
  0.9304418021632367  0.6668979058810171  0.0123489816408605
  0.2788907723394013  0.5231358949793454  0.9268466902428736
  0.0680003509151873  0.5877811703520338  0.9236651499744569
  0.3036865527705606  0.1011422957979578  0.0802222753350986
  0.2284039238003244  0.1459488421531227  0.2270772665077891
  0.2404938141492447  0.1192329301950143  0.4148072707509137
  0.3077229096765451  0.2875300954111469  0.9341090179136599
  0.0491611945053304  0.6619407795168292  0.2941635206048634
  0.5216431722756653  0.4031112068897274  0.0097104151037702
  0.6847736191335918  0.8438315608608274  0.0687118378111665
  0.5132864240852275  0.6433322613253660  0.6366660727255898
  0.5574996798180063  0.5334057004289668  0.3262636511105337
  0.5033306480780971  0.3958593813749353  0.3322675024528737
  0.4827613249200909  0.8524218488341939  0.4393506785480658
  0.4321564418594944  0.0336908232093955  0.7608891591866318
  0.9552089745508195  0.3175895015847662  0.6965701132310008
  0.1869086579310009  0.1949675202381989  0.4707568577479762
  0.5403102395505659  0.0901011344678418  0.4426280588740851
  0.6487856330717249  0.5175790652381023  0.6385716644673894
  0.6971070037572560  0.3168597522847821  0.3540071495099132
  0.3437964405428748  0.0799052991316280  0.2683605783461417
  0.8501246924889545  0.3939264262597771  0.7981376734085731
  0.5915009566975885  0.3664262984967261  0.6111593197303310
  0.6292174538047823  0.4638387370555472  0.2594429264196167
  0.3061884092976724  0.2243466916755978  0.8801432665022262
  0.3825141647541226  0.1153218619488182  0.6606785477262811
  0.2980959812469479  0.9390259103998808  0.6227538264309754
  0.7870398009057340  0.3366234465709424  0.1629410529542357
  0.1904665990190890  0.5826464171968924  0.5174833443901589
  0.4728348689422188  0.8323421036253713  0.0527126601604820
  0.9965391868946257  0.5594192804849946  0.4279486220595121
  0.6435273931057861  0.8808486524213051  0.8492965376865639
  0.4393788146301466  0.1019492785369176  0.7684496523695120
  0.3597955079829080  0.8247698899739845  0.0562128913232835
  0.6383163921357115  0.3107066798361994  0.9673000616667264
  0.0925613327972975  0.3877419983104591  0.9123536668809089
  0.4525378408123691  0.5380066379691024  0.2564290012387928
  0.7199487375529587  0.4350577912981671  0.7415468417367528
  0.3958347109032515  0.2294041663011496  0.7977058910861973
  0.8839558473553228  0.5251234554604503  0.7057363844362264
  0.9456178718518665  0.7519457088899483  0.6362072169971186
  0.6491585729236696  0.7974340135707509  0.2111730836083594
  0.0434412221920921  0.5392392530713948  0.5628022439443250
  0.5649069658698498  0.8328794304057364  0.1996789001293428
  0.2401427113482605  0.6315331450833819  0.8071810771558887
  0.5776251938587912  0.0134665314754979  0.2395008355124585
  0.9269798895600992  0.8362200579238432  0.4618496171312944
  0.9507613987264885  0.3092043868784052  0.4785993424081010
  0.4835462274765632  0.0349814027119129  0.0940460016930522
  0.4564148278837186  0.5251211480696594  0.4073570834455756
  0.9919519998653066  0.6661261227479210  0.2458081070279794
  0.5480557722033140  0.6940048666115127  0.1721988834785056
  0.0966618187423135  0.1010748947317104  0.7776261868659584
  0.8984871834564158  0.7430980200948342  0.6220864844729279
  0.2803002449099065  0.7675654209057307  0.8190348804785462
  0.8039867353004579  0.4798525637023295  0.1283238747797195
  0.5392094396608066  0.6432049553686626  0.0548791365240803
  0.5758589321260423  0.2915748588399600  0.6559588219393072
  0.5032858184762974  0.1845079792622817  0.4502303113106817
  0.5846315197817465  0.6526912702068960  0.4527790279637910
  0.7794405927871441  0.7790985226924659  0.0570034349812917
  0.7761367572763679  0.7314339541585811  0.7398809941570784
  0.4719245429575633  0.6430566147109937  0.8168968734966704
  0.3812940168434901  0.3024956050884549  0.9830753263470022
  0.8472231225313298  0.1320432924559851  0.7468686692739275
  0.9952713400347502  0.2795874222890837  0.2519532201424112
  0.4948526706243395  0.5208841684956034  0.4386701409298771
  0.7202664830477882  0.7194266645941931  0.5287210922070986
  0.4776114716751858  0.1802999060141676  0.8288860458500561
  0.0936061317321533  0.6046361069394266  0.1915767762040971
  0.4145186250570541  0.4570647451323405  0.8784967333524933
  0.4998261380610364  0.6542660209968988  0.4658367267480960
  0.5651862111201301  0.7809417196729979  0.5429248511768161
  0.1363835212467950  0.5170800750051519  0.8295107804476871
  0.8360731002341425  0.2622879326107228  0.1309795272863894
  0.3033945901965528  0.9737082067035817  0.4555353987417897
  0.4207029733405034  0.2984037195287651  0.7677663224000186
  0.3929846808150125  0.0225850352860560  0.1820979838807042
  0.6169078758149037  0.6671316297618068  0.7661647869114250
  0.3590816686856568  0.1490028449863022  0.1188710795270085
  0.6205943129729679  0.7890913139481034  0.0279919802607915
  0.3942829983054229  0.3721272052922820  0.8936890246891059
  0.0287508992309641  0.3116336144513532  0.3760173186012309
  0.4546451994675765  0.5985037721452565  0.3425431512284853
  0.3776117719393050  0.4134704615485569  0.2557597610419286
  0.5041896042706979  0.6363211732062730  0.0114442271940347
  0.3343231739404933  0.1749087777486647  0.4627384049493644
  0.8941695983911144  0.3263229392593688  0.7557210389873211
  0.5382258562965984  0.5175762758389070  0.7688379392197386
  0.7944060055018687  0.0922574816653559  0.4061327774160821
  0.3563892738175261  0.7888867375950008  0.4083945939743955
  0.2582264998292660  0.5776847939208712  0.5466596490503696
  0.1705167258917393  0.1635075130869864  0.7919766082872252
  0.2616773431667295  0.8984942605793871  0.5009805261766395
  0.0988293500681114  0.9260928676384450  0.9384355302305909
  0.1859911628741006  0.7678135420245550  0.7944906465774624
  0.5082959173675254  0.5043866791892746  0.6143006169357826
  0.9613998210436305  0.7455427506826512  0.1077178601445600
  0.8251253054598809  0.8469144632356431  0.0684853673189968
  0.6195538628912820  0.9689362895048736  0.0880603290377662
  0.2877939204814794  0.1652746498074926  0.9720635629610810
  0.1550888656835404  0.7931347060024483  0.0059058443321139
  0.9521107908401224  0.6759778493296013  0.6626778032518871
  0.4219792199893310  0.4137673833297870  0.1826832353109724
  0.0121533356495170  0.8002313700842859  0.1393648566416066
  0.6918510674750465  0.2192094982801257  0.5300311930304038
  0.1687183926155602  0.5684748254717419  0.3902719779747095
  0.8297369343858643  0.8458344965030417  0.9217885678823506
  0.1333951132601286  0.0085681423987952  0.8754039582515898
  0.6813568744795483  0.1686783403242463  0.8620583012393656
  0.8740104775297868  0.9143609913334089  0.8256633284011533
  0.8486514032739143  0.9831695882184180  0.8843444910567497
  0.2412030393973531  0.1248262331456050  0.5734050018734195
  0.5111096919208022  0.2073340184667134  0.6079525582888476
  0.9418961406737887  0.3799473627653038  0.9454595099149041
  0.4242121557549510  0.2832712838002890  0.2328367911114715
  0.5499171319880027  0.2919757978545015  0.6036660810087100
  0.5018799584625352  0.7791440720648710  0.5813853818821075
  0.5617934434176289  0.0215835553011532  0.1567337484155236
  0.6979617742822131  0.1974961194164162  0.7473829319731293
  0.7134704197459993  0.6509435956456591  0.9951581984887239
  0.4450667376216294  0.7725701542524749  0.0290224393024664
  0.6429147471433986  0.3847634452302630  0.8303350381472466
  0.8258073347695893  0.5167324324301165  0.5461319166565503
  0.7036541247166470  0.0535900885450525  0.1884295212491031
  0.0576353190669108  0.9585540143687011  0.9489386316219329
  0.0627177020960421  0.2543692841621332  0.6586701090453457
  0.7216085227411623  0.5805116949632400  0.0627031036545214
  0.3982937998113887  0.6652295136721725  0.3834082744546817
  0.5553451684445695  0.6740354184193661  0.2602108590329378
  0.9819812547641517  0.6192582423658893  0.5160462455892847
  0.2546166919094788  0.3041050134286025  0.8849225857866361
  0.7804654376179608  0.6360208658328517  0.0618086897286328
  0.8896320784096625  0.6630388563449565  0.9195514024253832
  0.3867014502431814  0.6800690075449856  0.1246674051606150
  0.1983046547260019  0.7811661485887681  0.4063574736850374
  0.0650343989871323  0.2861903965002671  0.1425692687875258
  0.8164084313010277  0.3333409020212554  0.8581385781004321
  0.3895949012104194  0.3971119675302058  0.3266978317346391
  0.8094099935504856  0.9189222540362796  0.0654207737636032
  0.0521130642725408  0.6439027905292326  0.8499009117226400
  0.3157206186040080  0.1613365885252699  0.9665961791115198
  0.1160372957318480  0.4100550243013162  0.5408627897496227
  0.5375119393785762  0.5377552730492305  0.2725505374833673
  0.0930004408694781  0.9165333242489658  0.5271334024604327
  0.7337591547129205  0.9778995339436085  0.4872084275139472
  0.5498792460609007  0.6686220874193360  0.3351101020792923
  0.8074494318947963  0.9916341515638812  0.8127880145626316
  0.2444123877520316  0.7880929901219194  0.3897977663143140
  0.8614688540399100  0.8685495761011350  0.7062816630375276
  0.9092895766806072  0.1230110697149540  0.2291052116428243
  0.5706681907488900  0.4212406779858593  0.4796880533784297
  0.9155553134285607  0.9108702766567933  0.9087145530453291
  0.1167677903310819  0.3924782596062100  0.6378842299815084
  0.8439124425640336  0.3247949992790489  0.0261677271521756
  0.0860916438385315  0.7414868911333661  0.2663865399930991
  0.5300195930925022  0.3123541811128831  0.4532984293094842
  0.7080074983101775  0.2475001751506562  0.0614971545345040
  0.5070949516185576  0.4531759297291069  0.9220659687820563
  0.0092641792157256  0.1109191067854171  0.0313682306256142
  0.0407078267687811  0.8179912936893798  0.3124556539314624
  0.8631475179373281  0.0516062259779271  0.8876185689672934
  0.9236601462826162  0.3821182814357262  0.4530258190124825
  0.6456542390904521  0.4340003360448751  0.5255964530973959
  0.7836333448219547  0.8448373729850575  0.9934575185268004
  0.3234707815011679  0.5189061160030000  0.2626081046295289
  0.9648635498199213  0.5775908229479279  0.3480797297834069
  0.1865498627695893  0.1813624992109404  0.9625366143791666
  0.9332274072853555  0.2062730217551792  0.1800419974177998
  0.4703568438862274  0.6404562741767936  0.8917036909149905
  0.7719759347497688  0.6869487890714938  0.3437976030506099
  0.4703817766944678  0.3494160997622276  0.6949826795165462
  0.7387333932738134  0.7367453589736326  0.3483350619066478
  0.4270232178252529  0.1814304636481529  0.8279394027532345
  0.0906245181396998  0.7716704816313673  0.7702748219934343
  0.3922305908636374  0.0045460628371699  0.2815471213402896
  0.2986710880419723  0.2390400164895790  0.0118097650222151
  0.2548237089142996  0.8148776994458872  0.6290101715394637
  0.8156956827173926  0.3373844129901418  0.7291896090778346
  0.3880172414323669  0.3634430562469491  0.7476303731036075
  0.1930836735314304  0.1798509863398648  0.6653405582521190
  0.0707275034787387  0.6026768769599881  0.2625107183774001
  0.7211415236882162  0.9741901670350613  0.9601883729477716
  0.1202341671978593  0.6290912783716327  0.7998486706685122
  0.1453734134370985  0.6544810734760659  0.2762258058675375
  0.8586791585054676  0.7559274016961769  0.2642909383462229
  0.9673949708112197  0.5308590316680151  0.2273837850707773
  0.9556859156926998  0.6048908026408990  0.2794125427897434
  0.9581454964155979  0.1682625438731767  0.8761505721828152
  0.3622202320983949  0.2072554080966241  0.2047882923401068
  0.3811473802856337  0.2381674595510706  0.9891728474739033
  0.5205793774575019  0.7322082829875735  0.3072229136023167
  0.0846622714053537  0.5373991706800060  0.1213920694918333
  0.2537476088467678  0.1267066593579631  0.4566374293878620
  0.0975255390037848  0.1536295163258594  0.3301559267963132
  0.8655861685129965  0.1231362429158250  0.5413439182802270
  0.4273951717547091  0.1737676125310550  0.8013725243839904
  0.6383850454465297  0.0726526560876943  0.4343790710719488
  0.5062102143898155  0.2052719764815578  0.9997423692215661
  0.0800242701852548  0.7419495711880112  0.1620928748452583
  0.3547609164502897  0.3632581649954564  0.9205442893401227
  0.4752839821656941  0.8270210296384067  0.1016204834358280
  0.7320781839845862  0.0418096701250122  0.8884708381909724
  0.5650160541382844  0.4601591331575853  0.3640594921914669
  0.3375366667196504  0.0866831924599348  0.9629155240496536
  0.4853680238225648  0.6410982499395250  0.6411313545010557
  0.4540505934121916  0.3884496435356053  0.4544336661332135
  0.5391581033668266  0.3679672259973482  0.7126371706216107
  0.3861373798027556  0.9577085776326353  0.8472361504700022
  0.9613373343784506  0.0292409761906571  0.9703812473095644
  0.1303720838626264  0.2805405083601367  0.4755012286355412
  0.8777163497503818  0.1855062359515167  0.8895628975825649
  0.5766120543509741  0.7133009984912795  0.6279089910003430
  0.6674489607355147  0.2852541202659831  0.1643274737793323
  0.3807981828011022  0.6127951897361379  0.1903682737628473
  0.9739235544185402  0.9097946145749022  0.8790416219047226
  0.0283265900541822  0.7873543616948320  0.3793629835181095
  0.2244636078713163  0.3972948350160345  0.9662192676924322
  0.4741224036929932  0.1162458564130663  0.8902649019014713
  0.5508544812200856  0.4155432293424985  0.1592164949689588
  0.1787707022103628  0.2339493660306646  0.7649547546777126
  0.3216180358637871  0.2902202295801486  0.8316356477764681
  0.1635768239857398  0.5264521351280899  0.6074866556738102
  0.7082328668611888  0.9794722615062542  0.1877855512314709
  0.7473406256665401  0.2811257247550351  0.5675457847274548
  0.1572020239570848  0.6627038328874002  0.0431270712010433
  0.2763461241271277  0.1747676904865651  0.6499080566947465
  0.4861641585510658  0.6030929524125563  0.2959475870576109
  0.8596664876720657  0.2410187185683941  0.3863355027281994
  0.5693235244526651  0.1537752148392641  0.0552120874125097
  0.5404661768135216  0.7009773433805426  0.1469369558846409
  0.1496458704715084  0.7381892379901476  0.2747158218970069
  0.0780917913502172  0.1719654713476203  0.8322579740711115
  0.3640960255006281  0.5193840554389932  0.4411561116889485
  0.3838757394083020  0.9655792445244633  0.5817830019065373
  0.9051854738437779  0.0567507446949222  0.2033259843676760
  0.9247653394761863  0.1064870303752233  0.4458931816579875
  0.0599076519395367  0.8541973740415801  0.3932764379647212
  0.7190377292076378  0.4354464608807507  0.5921477778952109
  0.6114217380289746  0.3591827199555592  0.0968742199101509
  0.1784724144719622  0.9348920320730568  0.1619908418085193
  0.7273965001905955  0.2608539639386115  0.4544391588242470
  0.4034433844927168  0.5420109924883456  0.1982862757237761
  0.4041477993839174  0.0313713376595372  0.7516401555728722
  0.8234810696281650  0.1941708416288958  0.8235704290942576
  0.3302689735490756  0.1299116106863167  0.4964078748930550
  0.6666282156224682  0.3464127582858365  0.1609786108601141
  0.4992119991493650  0.9890153302496127  0.5455193335876986
  0.2006155413034577  0.5489947004015856  0.8225729135971980
  0.6374021137834854  0.3697853566397461  0.7335409585195153
  0.5549466396810072  0.0324926574707941  0.9456373602901949
  0.4573187569444218  0.9799156458221442  0.6321051269146667
  0.2577572036494628  0.6102987604036685  0.6355722151077633
  0.6629971870250682  0.3623957596074510  0.6335808225713971
  0.4068129561768271  0.1479027323749999  0.1138119352379171
  0.5155293507097020  0.4252800273256360  0.7281085870748523
  0.8915954490831891  0.9351583487536758  0.6373640485376714
  0.6859496496249543  0.7861211101949193  0.0702508622352660
  0.0754739569712312  0.3544640964710151  0.1113015328051059
  0.2619353953953648  0.0008106862908674  0.1410388872507848
  0.5858132920079853  0.0239982484043759  0.6708129507318140
  0.1597558468377948  0.7857582745955158  0.3761054496889708
  0.4489640233083337  0.1294580815697128  0.2385088067056774
  0.4235659810026620  0.9136494358431947  0.9180219160012562
  0.3642554748056083  0.1627786778331528  0.9837359374582443
  0.3518643698725621  0.6976432057965838  0.7494456294803478
  0.6083929393319278  0.7823252620230216  0.4508192033989798
  0.3238133593637683  0.6723074140247298  0.3136907233150895
  0.4180562812894949  0.6409621693981756  0.7516802406159568
  0.2295552032085777  0.2471359302550956  0.6640341718961297
  0.5570093771539014  0.5765038240675350  0.7182963425999660
  0.2654125543232510  0.9571977700712919  0.7455184173992333
  0.1895081987358964  0.6010683001789068  0.1351622637149286
  0.0164519798254220  0.8954270146531885  0.0695850292670640
  0.8401348531891142  0.6473560108872555  0.7722828346207681
  0.7357003415851895  0.1326437881788880  0.2068752869041291
  0.7453878063929874  0.7731182755121876  0.1946718181901966
  0.2560387704370487  0.5326759996826262  0.3769055463488387
  0.6449396260935284  0.4312355724305202  0.0614503924513835
  0.5922757102073742  0.7959290451237155  0.9154179703998131
  0.6354455229247075  0.5814413976446589  0.5500710782410275
  0.9657077812909163  0.2620214494467943  0.6133167051502010
  0.9768937407569880  0.7545660683346488  0.9819806026202107
  0.2839017490949226  0.9424929116248485  0.2634616440130063
  0.2592132848316615  0.9420470584886882  0.2773409901684663
  0.8107620134825909  0.3985978814421927  0.8254510116896656
  0.2031013687730578  0.1246676349519047  0.4923048686953470
  0.1619513158069981  0.4650003804730327  0.8603989824810799
  0.1601884217310691  0.5118223006188245  0.3497131252802965
  0.8995926616291134  0.3185084173942040  0.9148076336135653
  0.4709729985945948  0.3696545857830587  0.7413298024311171
  0.9869387965036097  0.1142866530382510  0.0482617885979597
  0.5587435613276441  0.5856152302293453  0.4475442993845044
  0.0643006009636876  0.5799073587071059  0.3427715879680279
  0.9066641946406914  0.8450090065907968  0.1210178836156451
  0.5019952091243963  0.4785224372559552  0.2326187496797588
  0.0088005239845225  0.3640976720579533  0.0359580818731198
  0.2867374809212537  0.2277129311463474  0.2864392968230965
  0.7475586646734717  0.9431813245785405  0.6261580207114119
  0.5291053578702886  0.8370800780466184  0.0505735496397703
  0.5287899468453355  0.9511112346049231  0.8606174179623678
  0.1196225152737867  0.7870783520352064  0.5409765140572361
  0.6964516400401510  0.2034304323090136  0.2353788789306096
  0.1294861725509134  0.3336031885219463  0.2558179103576728
  0.2879873386626982  0.5558823146268024  0.6844084451759941
  0.8651567170419947  0.0190719791910680  0.3583213862824626
  0.4805488339258079  0.3558641754755508  0.1682334521890465
  0.9060194242251968  0.4056903520921742  0.6216655955210428
  0.7620971845791593  0.8223486674042081  0.4320004338164663
  0.9285897662123525  0.7779353792298808  0.8215872715939383
  0.9416229744119745  0.4813683292232346  0.4429098463256612
  0.3777898940813929  0.9662766854277165  0.0341779235120479
  0.3680960457073574  0.1782238845618837  0.3757490348485502
  0.2871518828285763  0.0889884644945249  0.9690339698090753
  0.3029060059087871  0.1162244896941374  0.4575164159728425
  0.2011357133228147  0.9380723566352008  0.3567478123116972
  0.5212174434455528  0.5294009722520763  0.3691112337492233
  0.2243501077871193  0.0788673085403398  0.2380220794707021
  0.6655552454805536  0.9400574160665534  0.2686647726167116
  0.9314672574058295  0.1082709849491488  0.9982362437364701
  0.2424060603131311  0.4059878630459634  0.5648701001005512
  0.5376786276310476  0.9699558958000583  0.7769211881703306
  0.2876244898863573  0.9487733398090383  0.1773026249783558
  0.2802411613885131  0.3078066605989165  0.6325601721637428
  0.4304231752438253  0.7108775556446771  0.4934874594766603
  0.4633573497497960  0.6759106940061740  0.2564522721664997
  0.3127888699184049  0.7877631099454319  0.5000717778473447
  0.8110671039116235  0.7826858814629881  0.7822248174179851
  0.7157493785965666  0.1337147464343044  0.2520415152507865
  0.3300212945683162  0.1639320007644075  0.7159627310091459
  0.2619520025967266  0.6915619111796663  0.7379916344574261
  0.6798378847930427  0.2487685871657977  0.7941294671376092
  0.8022608040100350  0.6021861947441242  0.6036711716491616
  0.2827778691302792  0.2946742153935034  0.9235078681868928
  0.0674462048881184  0.9545808349435145  0.2566589101635505
  0.4340208185630048  0.8216144495919608  0.1278112228831720
  0.8677505448001585  0.3785588337957776  0.4059733713612648
  0.1193507329345354  0.1002717447425674  0.7606861816501023
  0.2125887792484769  0.1879897541497995  0.6138241689940416
  0.5603508358323060  0.4579830778790580  0.0085912388206116
  0.5954637056199552  0.0798334719982944  0.2281757907127172
  0.7004293184397765  0.8487589624705575  0.5046707384408937
  0.4642627950517522  0.4119076689750057  0.2076575833245554
  0.3310181940583876  0.9749848485218392  0.4629757928150449
  0.0472215156113358  0.4038605836772123  0.6153102399560852
  0.7310270669668140  0.8799769316707764  0.4348750894758427
  0.5189513803049085  0.1416239572873041  0.2171548581732281
  0.0688827737810530  0.9661624794020591  0.7336751994083125
  0.0439429175866611  0.5891503585152820  0.9387128671222437
  0.1730580461711413  0.4153155325565667  0.4921075518709895
  0.0273760245816786  0.2730784915654389  0.5528141293432828
  0.5036991132602708  0.1461361775468570  0.6182319315330332
  0.7127114548271496  0.6657098345544366  0.7274310678364047
  0.0435056155378486  0.6664992101845585  0.1067304503188913
  0.1851211122150026  0.1852122650314049  0.6172470476251493
  0.1843856343184969  0.8976406290887865  0.7309935600322440
  0.7006773887358663  0.5739176017682914  0.4061483573761912
  0.6025494142220602  0.2330799808719219  0.7560697868631637
  0.2666416666205804  0.7012976455042892  0.0382201474627637
  0.8408529494065373  0.8252627971296772  0.3207838837030018
  0.9345824927971736  0.7542404441024979  0.6938810929263405
  0.2135313140798065  0.6569316558995868  0.9329766374492880
  0.5788619688829597  0.0976740147525364  0.0897315428925696
  0.6458345895437142  0.6517052574228741  0.5662154413574424
  0.0007080704077547  0.8951427102593787  0.9956888472494504
  0.3544416896914060  0.5778408402146890  0.5802639427942664
  0.7330836249599065  0.1800803884379372  0.8818000389401602
  0.4745621083838226  0.9641225235305398  0.0394094780920149
  0.8858076311962864  0.0126368639772612  0.7086297364477840
  0.6532288591918612  0.8515113627783957  0.4338073931493586
  0.2165727956695610  0.2603704913631251  0.2971975823190572
  0.3092801540543479  0.8914519288033645  0.4893152705751017
  0.8207658958629006  0.6683364802505855  0.5901319722874452
  0.7645138559310415  0.0640087399670939  0.3026150158843913
  0.1879503186308851  0.9452183772088860  0.2586325924717993
  0.7679120936529304  0.4313289656672599  0.5896754488523989
  0.8183896663435269  0.1818372271415521  0.4235333265728029
  0.0777644504634108  0.7202985092624412  0.4985447857370262
  0.8619788017082164  0.0010052070804038  0.6378636913975566
  0.3484809293118178  0.4839826280796661  0.1595242630891534
  0.2631702166325454  0.1909142500010346  0.4238026024503025
  0.0313237348566308  0.4557184199536305  0.9381065988478541
  0.5239419074925464  0.8492295485067294  0.9537774783954744
  0.3073879560991005  0.4829866376093527  0.0322667326658271
  0.0930824850975319  0.6032089477387698  0.0501394882306632
  0.6573555784042661  0.5786457962244825  0.4283575775100477
  0.3435268195888364  0.5417028739119251  0.0384961727894090
  0.3698237952194626  0.8561314495900805  0.4428878915635407
  0.6031714132413972  0.8002705611653330  0.3013374511544403
  0.7528991711924887  0.5190390565149030  0.7057477618676168
  0.4673029963492880  0.9123931232073789  0.6157653292106979
  0.0857695838920078  0.3290423244865556  0.6114159240136219
  0.3087271713232912  0.7568691790766753  0.1227551093753821
  0.6426999060910968  0.3087350937231154  0.3646983705685216
  0.6947535247910351  0.6689317912164250  0.7054099433667950
  0.9136207698948438  0.6350901742356088  0.3973543630069782
  0.3964195584554744  0.3825211813825485  0.9920226340045039
  0.0317573877936129  0.8394690610136851  0.8777908845499138
  0.2863979488941309  0.2440737348317755  0.6637686744939988
  0.4128699864863127  0.6428417970560880  0.5534411242252792
  0.7024045567436843  0.7154271301149652  0.0867232694227854
  0.2100100155210909  0.1203006359019553  0.9353981841031862
  0.2311436717761681  0.1276845987295563  0.4394090018857035
  0.3258992612012995  0.7211185586121619  0.8795164716453947
  0.8997819042544628  0.0773511091951469  0.7162432062956391
  0.9907646276374897  0.3011666916268920  0.0003185440939159
  0.0396340263244016  0.3576243118315781  0.4912501059960378
  0.9817830484156181  0.3655327824434660  0.0255339594180890
  0.3935236181952189  0.0523660342356508  0.5930224139328507
  0.3137591254375925  0.2390860627034785  0.6688960735701999
  0.9107051194624912  0.4529190839633763  0.9126962199773886
  0.1412049694190987  0.5964684567040331  0.1906615108548985
  0.6438497414762295  0.0730668852783796  0.2234362524331409
  0.1377944333056543  0.1498603124786145  0.3530917263408593
  0.7323182476411341  0.5690767194773143  0.3581809486140509
  0.7995750970592245  0.5467698450315881  0.0133228134582850
  0.8327082151500272  0.1222321234783774  0.9808160261052657
  0.0802737098851252  0.6525541500981892  0.3311500238633013
  0.6625430596366338  0.1697096809996132  0.0388220621894352
  0.7824375520269405  0.7064806629812106  0.1502628471137992
  0.3768459802771773  0.7797890343655246  0.9535204860633631
  0.4530302403124921  0.9111198957018533  0.9862189798488986
  0.2639431720518379  0.8488147841682028  0.9222742309834476
  0.1600550079870516  0.0718853301316896  0.1262228878553235
  0.8098049967692302  0.2592995149010636  0.2999939521293196
  0.0234202797055677  0.5199869443144450  0.2350688879307553
  0.1446584157117909  0.9346377566584883  0.1302409621677821
  0.7400073718043857  0.5717475424904199  0.4335337107174720
  0.5496034383055091  0.7194448686993085  0.4020695062174198
  0.9512764692439654  0.7244390017771055  0.8987577563843855
  0.6159339325824706  0.0037630601080623  0.6063436418716621
  0.5262323219351639  0.2101340465852536  0.2474558703324777
  0.9048908241452875  0.9603579496072788  0.3935127796987882
  0.7983126530605696  0.7620626756330319  0.9871198731899602
  0.7025417201871192  0.1739499647449948  0.8435824247961125
  0.0692336892603217  0.4491673037554810  0.8301552995343976
  0.8849399475840805  0.8472790420116872  0.5367532927353074
  0.4145137871751359  0.6957525842690953  0.0309792058825537
  0.8779276147214474  0.6607181192532849  0.6555864490912156
  0.5088509805725649  0.3875643885133520  0.4597917622333228
  0.9702060474811496  0.3534518034765129  0.0735434112696550
  0.4603114818597451  0.3522936972586298  0.2214614039781796
  0.0537128030007949  0.6557967087137201  0.3215760573660804
  0.0021269440980013  0.8351858325939422  0.3916944409342538
  0.6176589486562249  0.8098366329457738  0.8418669769762501
  0.3991521265328728  0.0782696294740885  0.8533402484243318
  0.3859994744362718  0.8335815343555061  0.0069332533100614
  0.4929898988267836  0.9916227488532646  0.5178521787930800
  0.6690184852411269  0.1688690364656198  0.9360437393202520
  0.4519366132278259  0.3551280486661373  0.5724286890438597
  0.3433482855430950  0.8279295650437291  0.7211348537120102
  0.3233839566365627  0.7138449111505186  0.5288047167278690
  0.7184804066245692  0.5906558141913064  0.5538460891737712
  0.8396773734467635  0.3792473042797588  0.4070120940425850
  0.3877456564506620  0.6466248561875259  0.9057158877843501
  0.1996266533846617  0.9273906632027504  0.1430593382429846
  0.2086972077982580  0.8447226116300918  0.4820751276953758
  0.0961360832223961  0.7055921082205259  0.4194487626953165
  0.7414796536294014  0.4306535194293941  0.6863331013162787
  0.3045851400592787  0.8943873116323539  0.7028193494451218
  0.6944007740482432  0.8083738906825076  0.2702280772955011
  0.7650700976736062  0.5761449491674099  0.0350494543590248
  0.1312304876076793  0.2495368108694232  0.8820399931287088
  0.4154095570552002  0.1731049880971617  0.7047303038615975
  0.3498491481856817  0.3605543637876554  0.8224697226147782
  0.7303978677990004  0.9620901842451650  0.2317626599754264
  0.5223187968831573  0.9188585446612874  0.4830467879395955
  0.6444731921724391  0.0059281623732858  0.2121061950027625
  0.0956365203871723  0.2508242561217882  0.9469408882865751
  0.9781449419764729  0.8172460851068356  0.0569647345123999
  0.6650471367287468  0.0191376444083218  0.9560559070437487
  0.9048429326930787  0.0556724817070603  0.1288493450889468
  0.4902682219408642  0.4657185181995377  0.3329235669921133
  0.8505198171025806  0.0738841257212525  0.7287571786739239
  0.5399695261468839  0.7662697164074531  0.6890430962597506
  0.7558687015238701  0.2667031648778019  0.2865462462783684
  0.4766388979860181  0.4039145672331313  0.2820013944922286
  0.6561485006000626  0.6670048668641975  0.7360370305494238
  0.6476809581400875  0.1671924862974055  0.3771547517012729
  0.9071922943080377  0.1937324601163204  0.0906170512980580
  0.2552189813680021  0.0462093869304642  0.0146812041169166
  0.1360644789785345  0.8959403630285350  0.7367090470955796
  0.0028396649754822  0.3357007959928502  0.2393267056052386
  0.7556957187439496  0.8667253716570954  0.6020285109866248
  0.8584390339898780  0.6618129623063703  0.6336985273797960
  0.7244299125670195  0.9681639370294493  0.9088121213203580
  0.2023110747587247  0.4697281952261216  0.9093655069416006
  0.0889833503269824  0.7643672752187467  0.6684649013245775
  0.1522559778956214  0.6929294043396785  0.6817347387979732
  0.0188741395755712  0.2286573753134484  0.8209372578159427
  0.5767050040712327  0.3127272360189622  0.0303502487536875
  0.6655892781308854  0.4427220575393088  0.8632885460160106
  0.4356099699998682  0.8353460479168267  0.8111798462395635
  0.5413236390615015  0.9238566097385409  0.4105019410989659
  0.4221279173304786  0.3499559224298098  0.2533733728112987
  0.6823867698291856  0.8515654184414143  0.9708928096690378
  0.1707087001465971  0.3367953826730045  0.3785654071753218
  0.7040364284433495  0.6500847572374906  0.0211082192173341
  0.0323866524122653  0.4721147623723741  0.1080723765461388
  0.9147259025423938  0.1104895820728918  0.4712315234654965
  0.4214411355045420  0.7177169900443533  0.4182487237188521
  0.4605761401071543  0.1074178395362822  0.7245924787145461
  0.3381966023928037  0.6665377093493292  0.6082689900990179
  0.8577285627540218  0.7372869029370058  0.5940648830855132
  0.2181952681548175  0.4709971394717849  0.1550552992504484
  0.3549037770445312  0.5744256763123700  0.9215317675743979
  0.8786560418709733  0.6780054061755380  0.1476153556338651
  0.1906875331406168  0.4921241779452011  0.7595271418317270
  0.3327084566932093  0.5507554087853369  0.6621254717632646
  0.7322504481847500  0.7869580140312156  0.0439204444150370
  0.7018562334956729  0.7951689240370523  0.8169359624144329
  0.5902551178237905  0.3867374768540911  0.0307548128517486
  0.6473716513375837  0.1642187560071552  0.0857575547265729
  0.9746546838625388  0.7066012503312989  0.4039171186648656
  0.3544607102262732  0.6358035208662121  0.7132706423184531
  0.1703755064297565  0.0610233816222280  0.8899411091652256
  0.7510616013508885  0.9873131246305192  0.5393795831479430
  0.2227847815676935  0.1164180908763617  0.9102576971877289
  0.3970308063979310  0.5703999379873822  0.5599570759947866
  0.3870106648400055  0.2093993101607477  0.2857699226093717
  0.5205033858812119  0.2203815092102206  0.0170201795625614
  0.8968609867879592  0.2496492279638698  0.9757757939955086
  0.7778267455342511  0.0512324436412695  0.9037239151750053
  0.5813106452842952  0.5101495417707685  0.5276036716248241
  0.4322484189485201  0.5852079289862133  0.4637072148349816
  0.1818851370714068  0.6438172065381005  0.3404169717346214
  0.8783091131509541  0.3884847945531642  0.2828763365683709
  0.2976118597554022  0.8203949228847242  0.6482333840047882
  0.5249073829350431  0.4594220617349102  0.9755928009732234
  0.5900992667315735  0.5075503128897384  0.1179613460737757
  0.1463110862020192  0.9627587004981774  0.7931016278255215
  0.3444343970725594  0.9611631232148310  0.7030577234348662
  0.8745204742526187  0.8444157918702452  0.8994339554567432
  0.4518411938813981  0.1249266332516407  0.4513598774209806
  0.5756544153415167  0.0970693618138117  0.0613248492568401
  0.7310195658820569  0.0497830376201875  0.1853881270124074
  0.0880955380719678  0.4474873489211887  0.7755763269738356
  0.5932459721425358  0.9225675052079502  0.0050416681904298
  0.0563523724088528  0.6100666714405779  0.6219845616500549
  0.9633286656408765  0.3604946190220847  0.0463632845478600
  0.9334815013917270  0.3830903608690150  0.7943697593686868
  0.8359112200660614  0.7131848013346034  0.8414307060891695
  0.4945868683838970  0.2856507313427323  0.5997889852327094
  0.1354203997320987  0.5051249717542219  0.7516911919937458
  0.3378341258524177  0.9730859185396886  0.4903140942367409
  0.3038690498577066  0.3954409574830497  0.3226526048061198
  0.7136663428989111  0.5069188510316892  0.0144737509773131
  0.3535486615835144  0.5432462309817361  0.0649840556202534
  0.4420314323814959  0.8358616950523415  0.0047472135051936
  0.5461385002088894  0.0857286285977099  0.6576627063043756
  0.8195362083591583  0.6431239995441544  0.8189769911955168
  0.1412355470898488  0.2429172101410420  0.7015363980374747
  0.4976300813798237  0.7030543157171358  0.6541153940183153
  0.5315454077383094  0.5284423534865654  0.9678577698317866
  0.4606252237431228  0.3890368162408581  0.8648144459889278
  0.8859827636284149  0.9131489072114950  0.9577027362307259
  0.3961773606219157  0.7592105852458854  0.7299812986800138
  0.7860252951179600  0.2006076280711740  0.1866110318656194
  0.4527950159417349  0.8545475483982089  0.3911581534641234
  0.5421891543217267  0.7658297635907337  0.1817732380245469
  0.0836857948722985  0.5441485579746937  0.6666009308191304
  0.1933299494093454  0.1794392442594995  0.3790977541496998
  0.6337037946557496  0.7873562570002517  0.1581630338333989
  0.6739089003127622  0.3775836775159572  0.4633169837401503
  0.2795573227260970  0.0051151783746863  0.3558965132100688
  0.3774616783901394  0.6081916961412644  0.2392978979809619
  0.3965680111711596  0.2134556230621594  0.5185752257593542
  0.8377852685712888  0.4156906707642407  0.6505149030418633
  0.0184103678411603  0.3685489054320177  0.8435663907788785
  0.5539327614197658  0.6451301356673328  0.5313808848346356
  0.2576339003642629  0.7007937873085783  0.8134226964117229
  0.2236399703338681  0.5105244781491820  0.4897672234351256
  0.7545631407279574  0.7946751410382408  0.6230043579502541
  0.2954149133542454  0.6065622629097885  0.1864417773717734
  0.8926018029837189  0.3368313635006045  0.1734552955472481
  0.2698329800242282  0.9250118855623366  0.4049767759799645
  0.2412568841005890  0.6110286115215223  0.9756580671843417
  0.0299978622778033  0.7829370204341142  0.9761984991758927
  0.4478789716039345  0.0517750316239256  0.9667157841589871
  0.8942412710877640  0.7836181955088314  0.9875567401520328
  0.0963110877899043  0.3522541616152814  0.0919908293325697
  0.6744809614097256  0.5141703581496692  0.4945950808260969
  0.6828423217759697  0.1752013432440239  0.0201681725504070
  0.4969517978733135  0.4488011473976244  0.8962156085576977
  0.2051147823866828  0.2346487583818236  0.7551875198654757
  0.9193759505197305  0.4048769497971736  0.5965668478567854
  0.8960248341473799  0.5236874072373825  0.8765976764328373
  0.2235782959951468  0.8472265032074043  0.9519240932217640
  0.8478544493622018  0.4968300216083754  0.4014018602211213
  0.4344705914666471  0.3222947844529014  0.0311029784543356
  0.3047031050216870  0.8911499285504801  0.4607205370821466
  0.7796349978156752  0.9717117766158151  0.4722370539709213
  0.5925241099205164  0.5119319137903028  0.6289024779905776
  0.6628287069558267  0.7395972246063858  0.6733264449536022
  0.9276098586341517  0.2441660420001080  0.9367693166048644
  0.0953410616666532  0.8621579702889334  0.5188936118153874
  0.9958186648552737  0.9043279605811967  0.8344341758582619
  0.4590708882840080  0.6295170834400569  0.9938614293426723
  0.9421662247713096  0.4800099388414800  0.5398258732955431
  0.3762254786848766  0.1430837655575145  0.2337929254023766
  0.5698263331627456  0.2922782618822954  0.1287672537610668
  0.1902743507527175  0.6025440523226345  0.0232918715418339
  0.6665327358300527  0.2289330690702419  0.1255603453010873
  0.1230885367667738  0.8155304566228586  0.2736630074428058
  0.9905174448948214  0.1522549836358604  0.2886960447437265
  0.7486411264793136  0.4820029006576206  0.2722845640213434
  0.7991845459122149  0.3613525839805677  0.4335277059620159
  0.6035939303398828  0.8666530675583266  0.2645658129280934
  0.0357199329418736  0.7495441470474449  0.1006524724507202
  0.1732007453011805  0.8052182201369988  0.2074761544990613
  0.6049211369697346  0.3072716418141317  0.3937630071798160
  0.5741184725430503  0.6976419245188492  0.7626957184691939
  0.7019049818375722  0.3190528999416274  0.4784534380519274
  0.6679057973836680  0.2173401354365977  0.6846277887715315
  0.3122807833487362  0.3805753371513380  0.0430715360141818
  0.0506865918395640  0.3816430111181575  0.7680923774208815
  0.0693207260732522  0.0294533933954659  0.9509944002574325
  0.4568286766821504  0.9228156228847200  0.4059366027354174
  0.5737316654069338  0.0144300893263548  0.4434983823691655
  0.2581990357275938  0.2661508387149256  0.4740829081971659
  0.0712344404959089  0.1080728898852739  0.9505818463541769
  0.3796788819150178  0.1956702260664230  0.9439730889088215
  0.0844914611236408  0.3803776848089560  0.8135251653032967
  0.8914476264330801  0.0517120984960320  0.8822628671684103
  0.7299643783021551  0.4353989064721170  0.7910531841115677
  0.7680581442314212  0.0511289292614654  0.9306370391052766
  0.0802236156984170  0.7864441574069641  0.9240471380322346
  0.9577890335986543  0.7282710599166867  0.9273092264343826
  0.8217906765903635  0.6467925706585984  0.3888710257214192
  0.6897084843531912  0.9487431058834099  0.4403967081486670
  0.8946317971230257  0.1287230769787665  0.7376850438853785
  0.0401715837368403  0.1017594787084788  0.7273878503992348
  0.9227094106827729  0.5894770171158289  0.0987115800677599
  0.6691954576797096  0.3004163258978574  0.7797396627615872
  0.3892539925363835  0.3102300439196001  0.3498356626966840
  0.4178016028005087  0.5273843793556066  0.3755262428191665
  0.7837934234647619  0.1318554537403064  0.2009142169440991
  0.3850526854869564  0.5711321561100905  0.7595261497069080
  0.2335820829195759  0.9895032076301755  0.9633171825821665
  0.6504775621558981  0.8575868498815979  0.3854134947307107
  0.8961172440560263  0.3277136329342358  0.6535713515725343
  0.9783355798111315  0.9024077124485785  0.3821578511393821
  0.6691050975318059  0.1811328910884977  0.3286143568519627
  0.8067782542427169  0.3437060990104758  0.6737092651160667
  0.5022399625153442  0.6341127171228195  0.0886996804743364
  0.8947886727020972  0.1935981094091010  0.1173105601986429
  0.4679531980639647  0.8364843086490523  0.6868497563164552
  0.5260337108035064  0.1432338502177733  0.2732197576777150
  0.9862016332245435  0.5640537579507562  0.4009842116769108
  0.7690988261663583  0.8474095332552216  0.0675105198737965
  0.1431453640730867  0.3871884136944830  0.8575176519819444
  0.6997517019653925  0.7073220873646439  0.1876933510317975
  0.7761659824243884  0.9178466306459908  0.1926540447348567
  0.1910821787974206  0.6052356095055329  0.0517393131040450
  0.5087008485233736  0.9000350465070229  0.1239639792628602
  0.4696692451522995  0.0367324857325857  0.7948104408106578
  0.3216277894522538  0.7353178221958132  0.2966023534335290
  0.2209183167317104  0.1812782289121307  0.6613130575537303
  0.3988106185105151  0.7006686220143588  0.7611082647522229
  0.6979360005736106  0.9723349840090968  0.0554062086348297
  0.4965706450401006  0.6346125030025165  0.9623867355229626
  0.6394439430166803  0.4366652099326195  0.3341196614723220
  0.6811727223593396  0.0082872897787603  0.3730979513167013
  0.0451539290973284  0.3653144824214046  0.2071830516238958
  0.1790518328758965  0.9490788434661788  0.8235790361771116
  0.4594427868887139  0.9716623265406733  0.8377369633807512
  0.7137791475280217  0.3949751587841463  0.3914207405001023
  0.8406256089385582  0.5479939848597849  0.0839379089976097
  0.0924390942131919  0.2473663337448525  0.6931273861027610
  0.6281478461728132  0.2922038291833360  0.1339085953913756
  0.5483896184484710  0.6466135736065424  0.0279506666631429
  0.4653871177609493  0.0575779561260756  0.8713214926380851
  0.8100953712652383  0.1568759714111102  0.3292636805431386
  0.0516376262502222  0.9087555522562788  0.6160064615474690
  0.7539888743425416  0.1202272620674065  0.5093717878782029
  0.9448886970850071  0.5910946194556647  0.9289851312793577
  0.7412551172173821  0.1842532415969167  0.9375632744924158
  0.4055180939552512  0.6087971774873914  0.2411796567243407
  0.5016259558620179  0.5354635021267822  0.9625517362816477
  0.7984432553049978  0.2100688394963627  0.6778159577775673
  0.7150893599688031  0.6463104432607113  0.4565709510242434
  0.5288093349306768  0.3530767856623804  0.1099404305653312
  0.4851541713647423  0.3107919878713565  0.8418655387953131
  0.1088876954661321  0.6719341144582327  0.5727942610363383
  0.2141712779505543  0.1010882522781382  0.7210666951370048
  0.6624250277388245  0.3102661376582581  0.9514056639983731
  0.3174159988842882  0.4692351940358888  0.3547372433627536
  0.7416518109336117  0.8842071922804685  0.3113388194229216
  0.3545568487432364  0.2091792697748308  0.1775788291274987
  0.3345991749878309  0.6139079755370268  0.0904099738457195
  0.5966764534008545  0.6680436442204115  0.8200845005308609
  0.1066374823117314  0.6995108071954830  0.8199004893804854
  0.0592812960933963  0.8083267644489022  0.0720228669705332
  0.4479531111872715  0.3001836860589278  0.7704871367046705
  0.3017811487087679  0.5620122379656144  0.7080873642121316
  0.2489746743852423  0.5291971218610373  0.6146645527224107
  0.1242751578639758  0.5218405672923184  0.5768114084321819
  0.3360996139725056  0.7852838227437799  0.8852971289077691
  0.2057141766447294  0.0405953784408460  0.6591977214240660
  0.7499645734942517  0.9235992956752894  0.8992344423560731
  0.4593065551645052  0.9282612333431508  0.3573782056212488
  0.5784751702389042  0.8557726043569400  0.6794796790897368
  0.3859027163815471  0.3000625312015445  0.5155181071443802
  0.2678643387416967  0.8766653668642819  0.5772607769670728
  0.9047896129863792  0.9752853386716739  0.7866869607986107
  0.7981591503158185  0.7337969235997609  0.6301237476380651
  0.8361823492037401  0.7926113977668330  0.6714476685854349
  0.5936157517089676  0.7415009840310258  0.7340204808480439
  0.8247357975625897  0.9172909123910189  0.8323484194500115
  0.0501710618157836  0.2310688909803774  0.7836334486373633
  0.2384041107587277  0.0226593584941340  0.7956665485172550
  0.2812411991085966  0.7584964202705569  0.7172152365864142
  0.9978103245045146  0.2186751874028010  0.2503914796604128
  0.7244382253767494  0.6022239175779581  0.7228690078853121
  0.3273371157639402  0.9457530141152105  0.3238056698728138
  0.4427327698912104  0.9928501342173863  0.3991276241003074
  0.5319509662653502  0.8489208677167159  0.6085570363380098
  0.4358393093709467  0.4126626507793551  0.2073952983265758
  0.0816546763305871  0.1243626386661463  0.0331617904727222
  0.4022006277468530  0.7901765464372457  0.3913626691941726
  0.4177806608928362  0.0370192739626098  0.7038327549412963
  0.0655146008927275  0.3087391907696186  0.8922578666356351
  0.5944998530562662  0.0099375850080558  0.8665400910917066
  0.0169701103811346  0.0388268521569465  0.4002910384690432
  0.5817267356646229  0.2287618054150987  0.8401710416112426
  0.3271202477908707  0.1575243815226568  0.0798558214316671
  0.5463276881393748  0.5402700488669755  0.2242945804190707
  0.2468643147666383  0.9538369332731461  0.6711836293667575
  0.8775317588493208  0.5513183642258880  0.5292256836895683
  0.8565805461167005  0.2532625475759954  0.2855763302535883
  0.6570873139483496  0.6582248779596956  0.1741878899146774
  0.9145133610812590  0.8914598902149277  0.6618600123659150
  0.3545800527648497  0.5996416430620977  0.3599349872890146
  0.8209870728136918  0.9885836523797048  0.8365641398282493
  0.7531951993385014  0.1900615117629653  0.8091840631508236
  0.0499905501514293  0.1569377402908354  0.3369218240113654
  0.5795068835141742  0.1526889490558266  0.2974302695933581
  0.6540418107567340  0.3994716724870044  0.2523136854924250
  0.8793020574459532  0.1376649360689229  0.6274262682691729
  0.1548602888035436  0.1478376558354674  0.3753312342852142
  0.0933530826044991  0.9711157551823271  0.6635043192355605
  0.3366479796448403  0.0340047612631419  0.6737959740248827
  0.8524045040916526  0.3309706904514952  0.7934705362377538
  0.9645430580399713  0.6539992795668896  0.9215144633973658
  0.6127691361824161  0.6579374525343062  0.9904249850048680
  0.5624590316072359  0.4091204780758989  0.2345092995291434
  0.0295278546560872  0.5370860453826428  0.1119124672665469
  0.5424310820641431  0.6336496046447151  0.1551239966932486
  0.4120169686056913  0.6982475095187068  0.7065884316319723
  0.5368019224895038  0.9946476741390948  0.9086184569555152
  0.1840037378943401  0.1443775686543594  0.2620187744861192
  0.6007960795583067  0.7809967753385039  0.4992853209034844
  0.7158522876849658  0.3517102595609925  0.6840349721894944
  0.2780402535979185  0.0120134098930533  0.2258334700262090
  0.6969748514459534  0.6489786444014538  0.4348230949344284
  0.8464263223687222  0.9137709160451352  0.5505335724272518
  0.7613754583947022  0.8094511393116384  0.3814732510100904
  0.8099581976454521  0.6320369882800071  0.8772122057465453
  0.2166739347307742  0.8942477178217826  0.7992535137920433
  0.9241306522727292  0.2540830138397828  0.6984772591683334
  0.9236040783442818  0.0456132209701175  0.0765225210703686
  0.5944872504805894  0.4216558866157952  0.1357367477905599
  0.9951839271199817  0.0680655039540446  0.1594108818246980
  0.2149816765403607  0.5616697700206573  0.7519727714191503
  0.1326681733026284  0.8292222701058493  0.8055220024283045
  0.4521312855027979  0.8373881770819064  0.6632681175191090
  0.0445484141675903  0.5946334724842354  0.0235937815250183
  0.2302216045159078  0.0110777488141331  0.2362672066908000
  0.3496349005715385  0.8143325998866707  0.1316900942825631
  0.3777187336772297  0.1097960199132175  0.4157184253829445
  0.1017267918291997  0.9676088288995985  0.8112873117597613
  0.8974184968668241  0.5969011157992393  0.8726376742264091
  0.0347122761672401  0.9660506992029571  0.7780253190806362
  0.1467839559692201  0.6223480679211045  0.8102404480542218
  0.6175332730096564  0.1568501532221649  0.9166100063694220
  0.7820284720010781  0.8724758318124608  0.6515671934301318
  0.1166178256857252  0.5296363336303084  0.6255429113247251
  0.8714464009685009  0.8686603691772576  0.7329727730363076
  0.5549504324406579  0.9153265215073783  0.1760741534247992
  0.9225609615727941  0.9092704950845767  0.8237691460947707
  0.5027553427448704  0.9170792741650499  0.9819126080658408
  0.6135116776595539  0.8432523252786822  0.0467290645665103
  0.5511836482031740  0.4768035627644095  0.2266281280018380
  0.4487180605536943  0.5201826703376257  0.4559794086025078
  0.3838065816584262  0.9887074740614282  0.3539934977923956
  0.6856543687567438  0.5950818913414597  0.6489647340156655
  0.1235808826718328  0.1680249435821773  0.8498305168662890
  0.4467638173312984  0.6843042002016975  0.1711598627596893
  0.1269809898516702  0.7326382873427902  0.0733702394829758
  0.9946503117141935  0.5929851140593306  0.9686298069614953
  0.7115285428651299  0.0540184940206551  0.4699758534901164
  0.5820559045907369  0.6456585779612211  0.5270574088997106
  0.3511981857599270  0.5329597440594838  0.3390412386541460
  0.5902868150279311  0.4127520935535202  0.2356391216716536
  0.2354481951748404  0.6530126780069436  0.5325192700544634
  0.8354479723977427  0.2051684212301254  0.6460172471934271
  0.3238021521430277  0.6092746268893480  0.1876320645213641
  0.4544463712795987  0.8512852404827950  0.4400512966925781
  0.0966573841561450  0.1095231568794756  0.4632646171519290
  0.7298260512083080  0.1273944672413159  0.1506646084592470
  0.6558571563228214  0.2178746716319726  0.1740295817979912
  0.9433932451837750  0.0329383104678701  0.9485424017724005
  0.9588628014508250  0.8092484990293218  0.3122596132676582
  0.2701290740824905  0.8941052775144170  0.5535593591003657
  0.1526353812999857  0.7719342992453360  0.8292263486634285
  0.7355236651886907  0.0776528036711163  0.6345233271475529
  0.7272209710403676  0.9171604492195479  0.1212739172271401
  0.3969993513593806  0.9999866228330772  0.3090840497511744
  0.9396165075402249  0.1445010493882065  0.7337170786771279
  0.7423210641896525  0.4340058306503685  0.4969362633694159
  0.1672041806205801  0.8976545926174142  0.8062325798257868
  0.3332522348923364  0.0359339369303360  0.0409522561883625
  0.2893512604464648  0.3721173264357417  0.2603563693395362
  0.3391889463208249  0.0876980719656097  0.1426145824884259
  0.1021806886175993  0.9424090742400519  0.1622343516444026
  0.0855239670744354  0.3131123905409244  0.8729520857824119
  0.6846376943811375  0.6500782613679763  0.5357204167895626
  0.9950194415166722  0.5886249243606730  0.9403362333573556
  0.4357682894804596  0.8943384863163263  0.1144063506210989
  0.6144390242289586  0.5196875698822436  0.8316709222143321
  0.3658723701243755  0.2560979403084447  0.4164116565981100
  0.6589953056129521  0.1462404375679762  0.4238134098099725
  0.6428852046639112  0.0330115869697027  0.0886393838884450
  0.9645404334236881  0.6224020652786114  0.4924769783483994
  0.8764264291196249  0.7244609672505242  0.9004444745897855
  0.2109025317868778  0.9433263914817823  0.2742477790127029
  0.7819057573792062  0.5102038987256636  0.7834382100744711
  0.4109920618114907  0.0900802930295358  0.1243587689312039
  0.1001184608958326  0.4591466219825185  0.2720954502290064
  0.9487017571906303  0.4482893822023235  0.8802148275052898
  0.0216122148575120  0.5357441020414692  0.1611599706769263
  0.6768575792816771  0.1746825102900451  0.1234558665373842
  0.3002050004695096  0.3887035311613021  0.4200926657045184
  0.8899967266104604  0.3897750250273959  0.7709134623405427
  0.2633128405876337  0.6130233496911252  0.0693515732960537
  0.2204475908108425  0.1917440610651060  0.0807465696963802
  0.6814456821564348  0.2387294555276867  0.8387535912823354
  0.6117180787680163  0.0038381875477467  0.1745154061193712
  0.5523788016038583  0.5830174807350469  0.0143700601520083
  0.9230575911399506  0.6038990096825374  0.0162939656778583
  0.4577985170715203  0.7099737247516252  0.8218783342124198
  0.7236918517693726  0.8923252411655647  0.2383112978571615
  0.9181366159971622  0.3256092372527028  0.3132249527166610
  0.4938809076723724  0.6722968612333851  0.2965652347636427
  0.4392825340711452  0.7283058267502568  0.3345374380326381
  0.1699885458512878  0.2749438763617334  0.2472135278434578
  0.6075191975247076  0.7212528182729727  0.5909912183888828
  0.8780617824483431  0.4649499957981574  0.7172186850202604
  0.9885010690315923  0.8155859468492905  0.0835538892842301
  0.4444306335528863  0.5124078887864369  0.7267954078642562
  0.0123034601144085  0.0202893847866728  0.2462561393947675
  0.3038085546193556  0.4855959690837626  0.0019590036335301
  0.4813490221627199  0.4744830262030282  0.2783058615585828
  0.1458997379527583  0.9800236231522311  0.0411720754437426
  0.8982011887793595  0.9771035555536676  0.1252948811031337
  0.4221688170191036  0.5449675547715283  0.1765415018217300
  0.3711692354023194  0.7138517032172680  0.5398437655465607
  0.0135702391984063  0.8118524051468410  0.3127007247637341
  0.2647609793464699  0.8928810461778928  0.7908656285152666
  0.6111187944880219  0.7809594879279282  0.5258494769302318
  0.3394862920571494  0.0186057329652112  0.1660276804817153
  0.4023183127478615  0.9640133062404218  0.2277518093717799
  0.8015300943202160  0.0782823379286490  0.3460311400510824
  0.1038037103304672  0.5248990123230690  0.1747841041241689
  0.0239186805517394  0.5120702062532591  0.7358263200400117
  0.7354192157375673  0.7261897505495760  0.5744165791395851
  0.9533787338240297  0.9011748739838070  0.9913188134570984
  0.2505843057940776  0.3049929161246009  0.8567708480268121
  0.7611782735109502  0.3957107373040946  0.0219505669927995
  0.5755858832711629  0.2359723975136171  0.7648577784771722
  0.9079758142233593  0.8345700876131356  0.7495107416720889
  0.7280064298952493  0.7359740383117950  0.7295384769687763
  0.8807701330524309  0.5724662759726648  0.3300187015320529
  0.2784861051686932  0.5341167351073813  0.0031141819940969
  0.3321196941402085  0.6947638389179975  0.7299246735560276
  0.4710625591345247  0.4874012854076744  0.1645983874628837
  0.7693934558970390  0.3261184340861353  0.0241930429178748
  0.4768795159653135  0.5704406955974187  0.6156714033939252
  0.8376086971278239  0.5204863822118385  0.7979622913438198
  0.8485377172360558  0.9174127554482867  0.0361806832785211
  0.6769056570508457  0.6468667618669143  0.4874573908359316
  0.2069920947240514  0.7169731689671509  0.1589713659293641
  0.7552962657569010  0.1298180376888776  0.1616903288010878
  0.8323414388371171  0.2454495521337038  0.3806858379459410
  0.4861452636687260  0.1990671735062865  0.9543288197595297
  0.4318376654710496  0.8247752662133927  0.0784236430498290
  0.9147829859303175  0.9655782818534480  0.4198778626802285
  0.9875096172676567  0.0507542047224278  0.4938941006360358
  0.4994120002354157  0.7380182276515931  0.2886507110403098
  0.9102051030813750  0.4017152786595599  0.6711842334427560
  0.0073450323194313  0.3368182567049550  0.5835967860980625
  0.3618284971763305  0.6065306654680959  0.2628576760280152
  0.7030755757994371  0.7789936552595311  0.4912953716908984
  0.2157159144188799  0.1590168714298723  0.8094711732720429
  0.8177511683220692  0.1685571285844187  0.3752307256402583
  0.5240836143777728  0.1708960159727484  0.7985836995229553
  0.6736288981611805  0.3810945373339512  0.9277568747528537
  0.0319083918896813  0.2347784279132875  0.8950734968690441
  0.3305657159643097  0.8292822106769929  0.7468183869479265
  0.5139121661150940  0.9317399299649343  0.2357420446203521
  0.4174447970907370  0.7988090138500947  0.2946761070931819
  0.5411562409289309  0.3824139201606715  0.7595409435681183
  0.9434937885757676  0.7880205297850529  0.1487101499695397
  0.9884041527630056  0.6425748077173398  0.7759033221129744
  0.0700482431579299  0.5281470497472526  0.2194251998040777
  0.0734380336746231  0.4175927847148594  0.4677994176735229
  0.4055237881981701  0.1220376135876951  0.9156639953521223
  0.8248682587505752  0.9664968732263487  0.4558855687965562
  0.2007910243612868  0.2004175658998319  0.1560869326398676
  0.1044621807504149  0.5196387346713613  0.5227208653207502
  0.1843956029998869  0.7040485989195014  0.9197951690935786
  0.9762532953422061  0.8871105139376959  0.2853872004592381
  0.4460051411003558  0.6412567332568125  0.7469967053821034
  0.8744030123335025  0.1238475425089482  0.1330747854900571
  0.5749852079976292  0.1612019439000343  0.5752236446762049
  0.2832128767167413  0.3019451644939195  0.5035554461263758
  0.5051614358293707  0.3018185664460207  0.5020364110171247
  0.6680401239597883  0.9911046192427330  0.5196209033156649
  0.8740708841969074  0.1175886229387831  0.9176349593183774
  0.4630706704210846  0.5098076368042231  0.7053311134492319
  0.3473422910969064  0.8207191230068975  0.0814272081272521
  0.5588349313829930  0.9980044343993028  0.5938711927173990
  0.6423633610767392  0.9724922969080549  0.1051793793792240
  0.0349083354026719  0.0228571441080166  0.9852052503119566
  0.4962807339192700  0.7843599964867092  0.4316117029103733
  0.1327478709141218  0.5687696852525298  0.7924581228663982
  0.8738484034310596  0.3249414015203055  0.0637707491746136
  0.9053924397077048  0.9653513505239028  0.7379254301282838
  0.9680442775541998  0.5178720345777159  0.7238455547443149
  0.8001704140252123  0.1657077260388265  0.3537724419814450
  0.9914102609467301  0.9139144792510746  0.4812121951301457
  0.0528485607751646  0.7139029782879139  0.3804069788627818
  0.9340643557594885  0.2595132542887777  0.5779616811475713
  0.6684584722302916  0.4497240633966412  0.9362935267459165
  0.2031072419339927  0.4004962492851481  0.3465806211811023
  0.1761685784106765  0.3411016490665166  0.1161731637032061
  0.1616970119407739  0.3442248449247379  0.4827241033427646
  0.7295425684295431  0.1842693428376791  0.0112617530370278
  0.9214659910792149  0.1759039735552093  0.9051745096737681
  0.7745717800762925  0.1951861513922443  0.1314420864807923
  0.2472549784038610  0.0064929597599753  0.3193502513382386
  0.6556170115003558  0.1051110894461580  0.1225120165919680
  0.9234183929309782  0.0537007241295685  0.5507724584814188
  0.7035275294590015  0.4120511474578090  0.1996976954939807
  0.0799450444196532  0.0287074021697014  0.3439920715166164
  0.2843767458247641  0.3046193982937805  0.7499329207862887
  0.6449568387530977  0.8670067081061263  0.2390178487480705
  0.3979438421443101  0.4423294667008911  0.5900771113854152
  0.4984144300077759  0.3539133009858337  0.1903020818352651
  0.6383425511467696  0.9819907033416574  0.1324354180514737
  0.3855002017060712  0.3598346764486333  0.6994292829420958
  0.8824416867048771  0.1904979040823816  0.5891339627282278
  0.4346633560543588  0.4966880274163630  0.0723441511911834
  0.3124426141399638  0.6538747241234075  0.4689401671908022
  0.1595632457638990  0.1990665875780191  0.4610177844787328
  0.1979169966831205  0.8484844038781960  0.0259712970393750
  0.5405574859873150  0.9274494189560747  0.6020871583650300
  0.2356957150310000  0.5992873245770950  0.2396747833967782
  0.0240743837928204  0.0871841450403122  0.7708640481237582
  0.3654351543660460  0.5095669723286221  0.5146126312267865
  0.2976035343407460  0.3021648465857419  0.6757713805500547
  0.1831710473096671  0.0071230941946876  0.3776160577380165
  0.1099154924652634  0.5729732337096187  0.4628041512208788
  0.8861826516042470  0.4582584190347546  0.0397821359759669
  0.5215566228961106  0.5205311626247541  0.0613911093930036
  0.9229144776732013  0.9078991581867613  0.5873276654786319
  0.3420294359234099  0.5123286070023814  0.8076024061631369
  0.0683766976312238  0.2968680327670598  0.4373795285584071
  0.1066825535322658  0.2147319086861003  0.1799583444934560
  0.0187338512208247  0.8041191171403291  0.2138730992963449
  0.5316153716856981  0.8311062990092367  0.0994465797377994
  0.7263192130449877  0.2494541170139404  0.8496854906205901
  0.8422411539168324  0.8572478509789571  0.5581239253667770
  0.2881186608282882  0.1543275574183929  0.3034711215907369
  0.8842024135147991  0.3085500160957644  0.4026700097665515
  0.7627240356835305  0.3103145558579656  0.5066107485128508
  0.8829884276406259  0.8493022711079999  0.7502040668990818
  0.4401181316636235  0.9648011910836489  0.7660537949475666
  0.0566101395561246  0.7070316589318900  0.5460729692403974
  0.0330709437979287  0.7107264971446196  0.8211508326857190
  0.4290858635548569  0.6681706587789409  0.3494853146195206
  0.9141664218356591  0.1782982728104372  0.5107360275126920
  0.4506337702640799  0.6693925481074541  0.3317938028569009
  0.6821503398230864  0.3566167301826825  0.2534619939606931
  0.6045085595095011  0.5194501464588307  0.8050405338549195
  0.6075444129711136  0.4559096910185274  0.3031404099840307
  0.6682674803927022  0.5951468676512469  0.7215326857631149
  0.8642829536178389  0.1901356807788080  0.5670996185954571
  0.4332659207967352  0.2434507574551987  0.7331742643858606
  0.7567181078433248  0.7943033000151790  0.6968475021291968
  0.3421120011539032  0.3884597913947875  0.4453407361550210
  0.7063695887158173  0.0778731103556004  0.5961878101701927
  0.9313226501179505  0.5231357550356087  0.7652534302539775
  0.8043691152652934  0.0541040447681578  0.1228035616711477
  0.1180432909233023  0.5154015709022374  0.8516276289603038
  0.5670721428678682  0.6525186043104899  0.9741850178605453
  0.4555678307000796  0.7987096118423501  0.3261928282003293
  0.1155657346294045  0.8630483377085268  0.9720783868260660
  0.4012312500286466  0.8995072792820273  0.6941167005680517
  0.4045305330159726  0.1344465034895742  0.2728850535687135
  0.9812834563167359  0.2230963265642015  0.7520817511298478
  0.2829779119735165  0.9038281587445417  0.0434070484248754
  0.0713734559375738  0.7436047502806387  0.1348943592099609
  0.5107736220875110  0.5188735039476228  0.8390087513839344
  0.2179276407878463  0.7970360725426208  0.1895472266672127
  0.4168859110445073  0.1052973089106129  0.9972013175327832
  0.1283366339604886  0.0360629708161641  0.9999291987265176
  0.9665961690402735  0.7381584524884859  0.2892789560795883
  0.5206753383129349  0.2805028478332260  0.2719582109629846
  0.5711566301012914  0.4869123080596233  0.1830113281882172
  0.4780599471786492  0.9829857529899877  0.5624243964074647
  0.1690828892125903  0.1646076122482166  0.8674245843694821
  0.2867577509421396  0.3878269170076303  0.3953416697907813
  0.1172857809267770  0.9750569680419279  0.0493456535586137
  0.2182688484604630  0.3995073892795359  0.3229116273936567
  0.2794895746630009  0.6039043907019649  0.2107485361962049
  0.7724206388541353  0.9372082391643077  0.6139927482029300
  0.7898587497232765  0.9536514768630159  0.3016797342169470
  0.7960692549628177  0.5040108695031357  0.4680147947700366
  0.8461267364979849  0.6035871746783750  0.1989510407576216
  0.4512274145308924  0.1900799984513664  0.8680961368572548
  0.5929790801170083  0.8393534573636875  0.6984418747166283
  0.4337067500445995  0.7049094361775423  0.5967149124847421
  0.6626081074752187  0.1394702172507892  0.1986917213327397
  0.6209123387774724  0.0052296113018772  0.9417591543745281
  0.7822368991670863  0.8451957893545734  0.1909515691470261
  0.1421771879877507  0.6031050733965868  0.0499385499506918
  0.4199453389910027  0.1937043143470393  0.6037306811360282
  0.7073243218640298  0.5380466420495011  0.3058501648973046
  0.8103205423861628  0.7227458114570863  0.9324561759702199
  0.3124899385630815  0.3181962078309629  0.3686588088298097
  0.5051282594284406  0.5726438559571994  0.6171987735518059
  0.9804679664619979  0.7555477160983742  0.5987781380583963
  0.8914081030948571  0.7355379394136973  0.6886132401797145
  0.8149482073489579  0.7365281325037077  0.6759705956132289
  0.6056915548514297  0.5207477525833726  0.8798227861827145
  0.9088510265580131  0.5302327235043635  0.0678006729778523
  0.9687021855568153  0.9142472119552497  0.5254942342372785
  0.3149294897733336  0.2449982532368254  0.4814138284975658
  0.3096135141754615  0.0430802697381801  0.5041229215202475
  0.3597536342419194  0.0792898809270578  0.2925559483567873
  0.6474345198272068  0.4847911454246452  0.1925874609579761
  0.7668785932552437  0.3488214307441753  0.6507282658849644
  0.1654183256373520  0.6272745311955596  0.7892781847995538
  0.5272947642453442  0.5809265340848763  0.4949645013027519
  0.0403465089389677  0.5828602740849027  0.8532486188964544
  0.4533305152941525  0.2472443618899888  0.8551095990256833
  0.2962290916321287  0.3891214519922350  0.0648937404577359
  0.6124302413519288  0.5379470311441265  0.2617600679383432
  0.7309235345211859  0.1461827599118813  0.6516609152212361
  0.7584548131949550  0.5570597240738834  0.9894353605005712
  0.9024843954520377  0.6521296098491222  0.8469530288505749
  0.0858605713830608  0.5766894313987240  0.3600531001487503
  0.9657110881798676  0.7556781200844397  0.5497225903978995
  0.5337994288335746  0.0167878190569711  0.3794064689890008
  0.5589348476208618  0.6629475581136162  0.3835856127655497
  0.8607360517093183  0.4653872081538814  0.1937242955827242
  0.2853363664880160  0.5318281900866706  0.3784825907562184
  0.9276355151603295  0.8312511452414602  0.4113674959941105
  0.4384486888735780  0.8514834228981302  0.2701680297409402
  0.9033445056160444  0.7147001053818914  0.1031684163807052
  0.5645415899091734  0.5090836398590859  0.6241241668329999
  0.1996621554929437  0.5239301446375731  0.1406323911096540
  0.2158578753651615  0.4112316938767442  0.4674352158534252
  0.9389013076051099  0.3799877078897844  0.8953773090915488
  0.7771412296257718  0.8780199738024221  0.7505653863565506
  0.5006557601025977  0.0635592354326784  0.4524976285610351
  0.7709387357455427  0.2020174508767775  0.7570591933400304
  0.7488351623548426  0.9316623148823702  0.5706055996816543
  0.3925273588339795  0.4130798945846004  0.2315381017238349
  0.4216329614928653  0.0306943477601652  0.2206490317739299
  0.3768112894470685  0.2870325069891801  0.2515219338824447
  0.5821268453234635  0.5814140368616161  0.0637756449905544
  0.7580983273669419  0.0623749777674913  0.4137326235499427
  0.9988077180577591  0.5281538085981644  0.0311597713994353
  0.4286310857752242  0.2059461083626162  0.5537337950460882
  0.1761597786935938  0.4008885951980133  0.2972991690996529
  0.1509833992375429  0.9814991381758290  0.4716677563477957
  0.2622739657899165  0.4008420524948208  0.2997208457699085
  0.9475248010436866  0.2245539080082427  0.7993750090773207
  0.9235861310217162  0.7641159732334994  0.4473492908505521
  0.9710085204290307  0.2285844474406732  0.8142157421845213
  0.9925956121776014  0.5759572785513191  0.3537468087565383
  0.9047502461731660  0.8411695816532456  0.8506889308630398
  0.1494916534192920  0.5717945970589661  0.4111537030969044
  0.8017582659479349  0.2603515781360868  0.9532731209424479
  0.6784735349870123  0.2941390796490115  0.5370320238023609
  0.1201479081682776  0.2604367397241902  0.5973115655494458
  0.1262593548811853  0.3409690721756463  0.2285296032257400
  0.1034266710304524  0.7692281857981371  0.7153321476756875
  0.8068616799073095  0.0692031474682485  0.6092095004242777
  0.2583197591241914  0.8542881874223893  0.8720437375034473
  0.0482728623984935  0.0889946058484800  0.2208443443461331
  0.4818865951827496  0.1200049279978155  0.9455667074013807
  0.5498603375515235  0.6999906718311090  0.8496624597230814
  0.2649740172379571  0.9103769400207571  0.4292389643970093
  0.3996321798045315  0.1143387078250763  0.3991017248419311
  0.9556963090279044  0.9707941568569234  0.7187284569641160
  0.0677439411537989  0.5889072760908161  0.3165490389187294
  0.9769646123990222  0.4469171243140853  0.7972992199230471
  0.5788157861373242  0.7219556927671313  0.0095844098911005
  0.3110753935683485  0.5952122835756705  0.3806387720245946
  0.5016957926418200  0.3058941747391187  0.7716105940464275
  0.1186277943969473  0.1512385753682827  0.4538433438649850
  0.4055816180426552  0.2835255530631702  0.1055096691328571
  0.8978668261654313  0.8130495343977163  0.6337403786450884
  0.2813670584811745  0.9096163023982772  0.0153490869630131
  0.3139276477421327  0.6068222364609349  0.6322296825849699
  0.5351498725923715  0.7253269798917066  0.3546708550104593
  0.3789610320653121  0.7928723439801721  0.5353759714550211
  0.4911822914099116  0.4256753311288307  0.7134328567265884
  0.2178576635314602  0.4728964999169531  0.0048288835000658
  0.6829640535850470  0.5979344350774256  0.6976360993423235
  0.1280119049838574  0.5170065996497268  0.3053622695153652
  0.3992749331667135  0.9222073813596777  0.4043542936656924
  0.2554149870663717  0.6045859313236224  0.1612850830172641
  0.0422218870284580  0.7044540464621850  0.5223904377497783
  0.7782380634368117  0.1935985597026551  0.4553228460006072
  0.9191107910758617  0.7426628196401664  0.2272522605237222
  0.1807861258037683  0.3272795283064036  0.5944843778619976
  0.8938681543905491  0.8938029233626515  0.3346890931123082
  0.7980553302499434  0.6028022909636044  0.6657985558726320
  0.7814614498705712  0.8942395016160913  0.2868307900767195
  0.2259413022033916  0.8392594125709405  0.1069641621220877
  0.5393298024505987  0.5827103201508418  0.8902615314774395
  0.1073881852471339  0.5093971167546919  0.7480258968643071
  0.5772957888658329  0.2531408812256487  0.4613191463929649
  0.8746921180328529  0.5987671648594911  0.1574886469890368
  0.9584337867894138  0.1075643615966453  0.4142277218380771
  0.5397180188527876  0.9999058401373468  0.5092151201678956
  0.5550010258707909  0.1496540386735789  0.6478336837186415
  0.4379297349536372  0.2496779827707821  0.9401205502223393
  0.5096695027619387  0.0153291840996560  0.8523250467021747
  0.3461094591141015  0.9590512693148506  0.6747235107179346
  0.3726168249261157  0.1441582187902944  0.2054577965701889
  0.8090585006260442  0.7757215485048889  0.1489291559225985
  0.1206004502884524  0.9333341938631903  0.0901300872332872
  0.6398789808094854  0.4236712045612187  0.2907063716622203
  0.4477723659436125  0.6382831656426676  0.6722107025824628
  0.9488525997006905  0.9679584640080257  0.7660698469670654
  0.8677086564801567  0.6792089661333230  0.2226266105723948
  0.1150562264996708  0.2391123604692960  0.8378127589165599
  0.5660957273575229  0.7874181132048015  0.0125371027283057
  0.6377708738446143  0.2366710060327473  0.0317779191683799
  0.1981399011467745  0.0634564683002195  0.4412586565900850
  0.2357640946352666  0.1947480815625255  0.4674152453409424
  0.9856287355404487  0.5027004495180867  0.7084700583587420
  0.5452790281879777  0.0879935681067782  0.4718407301095613
  0.7086445981660863  0.1803782804401035  0.0297238589478153
  0.4540625579325863  0.2775292922833651  0.6251042481366699
  0.0816025655130346  0.3552592924609033  0.1391849294050268
  0.1023211499199946  0.3196379904325407  0.9555067479542447
  0.8129532943004872  0.3188885581423881  0.3832476742496287
  0.6693477592471226  0.6478063278223073  0.0530046004893879
  0.7767276419875747  0.0532188620921098  0.2028944260734850
  0.4294563494201529  0.8310679594886694  0.0295662583201380
  0.4707620869117193  0.1065660822463897  0.0180971249926718
  0.9896630858100962  0.9711280695625605  0.7958597488237149
  0.8335279653337074  0.6325776982278404  0.4867188879251507
  0.6211307280430413  0.9384033799743949  0.2917106840143898
  0.0482241441880475  0.0956820179009502  0.2960365222465144
  0.8787270989789903  0.3223762899280881  0.9334534514370814
  0.7023304841243140  0.2486699272583836  0.0897353665736255
  0.6022370471287140  0.5846506769668511  0.4253644609471484
  0.2699464436472047  0.9547094742729285  0.8028367345957412
  0.1741027644807947  0.1241698273810975  0.9663232947800420
  0.3667220832494179  0.2744097738392349  0.6455271095293870
  0.6107575501111464  0.6000030320472546  0.3292034449649226
  0.2338752577136030  0.2022723399856822  0.1935624486208171
  0.2432830715084065  0.8921210149830106  0.8093261850311253
  0.6042006888517190  0.1646535766646979  0.3559408227846402
  0.7210214484261454  0.9158307924865349  0.0227482947546372
  0.6292672845972100  0.0091545497990038  0.8977937711057503
  0.0133055849593001  0.5299349240668697  0.2094073974680323
  0.0591279943904835  0.4562234699468992  0.0064770113504274
  0.6401694547530100  0.7202936764056128  0.5542074066309883
  0.6348506004434176  0.0129487151113880  0.3851486754138894
  0.1292192143059872  0.8646406332637973  0.9968718560833587
  0.3058397832357493  0.0821888096428428  0.2994961074956685
  0.0464350183072802  0.7152418461612116  0.8769546453429652
  0.8780740452695400  0.3316045889575720  0.6744790559631714
  0.9717446429438124  0.5902808299741681  0.0690920090403697
  0.2356185971405586  0.3929590785277000  0.9906768826960243
  0.9061909806057152  0.8624108966482725  0.2172922314561105
  0.3238650977264151  0.2299061427102157  0.3172825251983698
  0.4095057686144572  0.6275704677860049  0.0510152228065097
  0.4799240805392405  0.8607754912836610  0.3420519894355999
  0.7077497136497387  0.5131995149205485  0.7973512204652162
  0.9285984616303875  0.6569159060194170  0.6991375922445959
  0.9235265165983707  0.0375657544402207  0.4220661339858406
  0.1735937280791926  0.3363324066405695  0.9554400975689841
  0.3700203823184502  0.8975816488247862  0.6258463755034424
  0.1662620241207801  0.2704305289921023  0.5070151493903773
  0.9233503557128875  0.1577515584838056  0.3150879591008123
  0.2340360522328130  0.1080269761042632  0.6768619277513990
  0.3519916673080989  0.7654177337334387  0.0626920998701394
  0.1171199987599173  0.1709918470793879  0.7256475954583975
  0.8688978927158819  0.3718951026447724  0.4542580960448049
  0.2255498043123165  0.3294443278205653  0.9758359735666785
  0.5066566555040188  0.4502311284413616  0.4247764909748614
  0.8477888316299159  0.8237415105353855  0.2714569358977520
  0.7737492151262012  0.7936015331217502  0.6011019164121005
  0.2887398002143216  0.9369855465290088  0.8870158351375708
  0.2069178150886591  0.2573590813352943  0.3429946880361658
  0.3947771528774069  0.7150749278092983  0.9505179103104066
  0.5751873256652117  0.0793918173231389  0.2726455634385479
  0.9517983585618377  0.3829819063519437  0.4524782201192662
  0.0289911221888591  0.4240433318068518  0.1584957390909256
  0.4318044554237894  0.6791716104438967  0.2183869491821470
  0.4298056465675408  0.6360451686144241  0.6504204891636878
  0.2707173904901110  0.4960168874059962  0.8226709899361463
  0.2287984458031849  0.1727869922662099  0.7085377868796424
  0.6933845886404171  0.4285633592981165  0.6672977144812279
  0.8618707653827901  0.1725695870757643  0.2818962512641975
  0.8474832667906300  0.3253377480399818  0.0543066559005026
  0.7639414871587142  0.7592067711271797  0.2395060121637311
  0.4355236259993759  0.5918027196938369  0.4148459816211141
  0.4322432845309125  0.0650665374270195  0.9058581736852872
  0.6520373366449490  0.0824482577384045  0.5452000034128862
  0.8055482447813804  0.9217277719263416  0.1924843197818225
  0.7877347684186701  0.1227829176896666  0.0154438722079100
  0.7088294148671781  0.2431469895613174  0.9312948258611877
  0.1897592725481555  0.9832568971110619  0.0237656239444502
  0.3317133269663848  0.3596719346913241  0.2179066607572360
  0.7456037456944637  0.9438135117454056  0.3229113873634586
  0.9134771538245052  0.4510933951040991  0.0361632958910203
  0.5818644518766600  0.7374972336522818  0.2615985756210538
  0.9765560050076245  0.6138021546127203  0.5660849569412456
  0.1922452214762671  0.6016017942442894  0.9630329468225697
  0.1167547922932720  0.7050701042684306  0.4385094987195394
  0.9100334004834422  0.3802352987487957  0.4287790745384345
  0.4722063693766430  0.3950427149311577  0.3806841317312827
  0.8948399576632939  0.5598917852078196  0.4324821924263406
  0.9562044952857047  0.7405372875489608  0.2610158883133769
  0.1772207769838324  0.4003337036584896  0.0570876567772051
  0.8864201306413467  0.9730102027601680  0.1005497295246703
  0.4585887788686047  0.9946078870991666  0.2529113006781728
  0.8248871016551903  0.8945892404426004  0.3600548063634085
  0.0715189532902245  0.8837291138755330  0.0401336692022334
  0.9444060535498410  0.6621890060741326  0.2530160578576352
  0.3753774702070703  0.4585791053973609  0.6000031961825105
  0.2371543923835427  0.1032188969766438  0.7044320283356628
  0.2069901423158348  0.9140264761719549  0.0096953010822807
  0.7109156545608017  0.3119604512089657  0.9203087517072194
  0.4176681111463748  0.3735012826234681  0.7939212769452773
  0.1440141535354486  0.8816510596411595  0.2391924927199646
  0.2271004084763056  0.2448591883959606  0.9025647933463122
  0.4262353633279172  0.3543153560398628  0.6712298611831653
  0.9859290759911442  0.5190215377508992  0.9290907365655201
  0.7462691000961162  0.2813379972224987  0.6163348348599952
  0.4658330164143692  0.7958128451818893  0.3526825988686819
  0.6084200985590368  0.7268855077622777  0.9278697769570385
  0.7152854618694613  0.2581637145271545  0.3263404407714128
  0.1317141800902907  0.4991213457261355  0.1459349766259971
  0.8058255195171801  0.6211573339825590  0.1400969607473561
  0.7373887914551132  0.6244001072229443  0.1743899737387694
  0.5347871655550451  0.5083535729166585  0.5444064735791883
  0.4375827689613375  0.7740279939124434  0.0006687328030292
  0.0909690380454230  0.4044677528557579  0.3960762942136111
  0.3450982962903330  0.1715735422316181  0.4891425788488188
  0.4691784632158347  0.3921465182139629  0.4308202653399023
  0.3865024136501471  0.2563045521763274  0.4676594660662625
  0.7751790065557095  0.2680660230070298  0.2661052186001576
  0.6963924939172565  0.6555511957914463  0.9743343786515718
  0.9866494155362021  0.9093899896747039  0.6932691219344941
  0.7348354373152759  0.4062348883621663  0.0669925667102985
  0.9496260471905000  0.1837582490547364  0.5538951733490335
  0.2606346660180052  0.5318802379054061  0.0254485868774009
  0.0793953007724514  0.2223723778912715  0.2725346994907952
  0.2585598871979499  0.5634925660211337  0.7301561266750598
  0.0238414463159179  0.3990429042141664  0.7302658444786165
  0.9142480784754223  0.5876935533380002  0.2893910461816030
  0.9706385683755639  0.9868971601833637  0.6238987964792381
  0.3908960731279904  0.8502403891261577  0.8820111094948695
  0.2577862175880604  0.3782374538201424  0.6823610955996933
  0.3884199944167550  0.3530556933376625  0.1329551752419356
  0.2636561373785213  0.5253548767189171  0.1016880405351619
  0.3359374493137403  0.1513936141210208  0.2975596598719016
  0.1911819380438656  0.0744939813302487  0.3932593758181387
  0.9964745778490303  0.8327374702188055  0.7077635514733694
  0.4894221217246890  0.4761062270997794  0.0156079093053572
  0.5473565586977021  0.2191280706901493  0.8760809234203299
  0.9929118784961636  0.2706709660368261  0.5174728030639584
  0.6895796325781615  0.7221168410650657  0.8809917092444971
  0.4817389686125856  0.6571924956352622  0.4437891049448663
  0.2638141636268474  0.3055047791269779  0.9415587851661513
  0.1951022570549282  0.2597835028501928  0.3174127395805936
  0.4585230775132867  0.3119811060608046  0.4705029798076855
  0.0711051203554981  0.3108601713724542  0.9197406962403689
  0.5265699124027127  0.5060153341431428  0.5926278182889171
  0.3799595226363862  0.6422142582945587  0.7829303461803004
  0.8899279626358471  0.6265407753143732  0.4785600174606437
  0.9687847791016596  0.7669653861933116  0.4273528151012568
  0.4433644382485920  0.1776196646648047  0.6991307633854598
  0.1557751261394119  0.5302599272386143  0.6575636318398534
  0.6773782054350063  0.6533297244277215  0.0270156248258716
  0.1474159880182034  0.0860043490022080  0.3769802857517756
  0.2829771202218625  0.8681957214687579  0.3408718249595391
  0.4436531036174652  0.9253099392971305  0.3812736338963343
  0.8891199316684225  0.9543420136586641  0.7182748098909438
  0.4291535111970328  0.1504716379494455  0.0978008046834421
  0.0151664516991578  0.4762311553179167  0.5539585513225931
  0.2413151834681214  0.5295417380298919  0.9721605851674091
  0.4591654200897127  0.6414356549581464  0.5710217540378816
  0.3767827687731219  0.3772030327434758  0.5644908683895484
  0.3058732187069871  0.5386988846877164  0.0079971888233989
  0.9742031548079692  0.6253867800931348  0.4661152917942625
  0.4165258075806367  0.9641600510029820  0.7496732261141971
  0.8342237683202124  0.2605613978185230  0.9173991856557793
  0.3488955555778937  0.0022911296308481  0.8992248031433672
  0.6294177782752394  0.2337194376601277  0.9550260754810167
  0.1993228775070026  0.0439877776835592  0.6317485080485776
  0.4072239607942920  0.3099610544297565  0.4721264100508502
  0.2991182659157792  0.3626372379274544  0.9217802908410192
  0.5696850870427737  0.8483687777463718  0.4848565756283223
  0.3023449599810498  0.6680734076694760  0.3322543708007853
  0.1023100734997294  0.3387927085657679  0.5658503694278765
  0.0947042940734255  0.3125003413095717  0.6664427629200849
  0.8748070334077901  0.0868120044709323  0.2829628214490021
  0.4663663301176610  0.1046731359770943  0.8089149772972308
  0.6565476309397441  0.8432726204335178  0.0695521553312061
  0.3780202095019255  0.1738933676987608  0.3481142481261469
  0.6851192512928312  0.8056301762774757  0.2436832316981919
  0.8304927925106688  0.1979334574105271  0.5214921687388829
  0.4959535423025054  0.7176938721141028  0.4194081695883125
  0.4629097593312043  0.3891945013048357  0.9138627387366868
  0.2990702103642476  0.9417214567875906  0.3664803147542675
  0.9513746505696792  0.5170032486472860  0.8193850685355775
  0.8125560100248830  0.0036782677339513  0.6515778627724379
  0.6885067448979060  0.6542956252697090  0.9275238134314941
  0.1736353227970022  0.7146775678547451  0.5230998169965219
  0.2472542346750066  0.2570662461733954  0.0672005870812653
  0.0620094662347355  0.5171508010593305  0.9175808105059352
  0.3665703003739570  0.0331611397121040  0.0727494473813488
  0.8383960750603817  0.3363615073611639  0.2560989597163897
  0.5620801680778500  0.3149400806684822  0.9708149898785583
  0.5263719930006175  0.0423160390189846  0.0300148551579420
  0.2884320451451706  0.9971366976327115  0.9443611377291015
  0.5431240205143706  0.5120043767990520  0.4961906415630092
  0.5139249393886475  0.7652936370737136  0.7879203459703477
  0.5343119775145544  0.1006949091246771  0.7302444117821768
  0.0224986457907915  0.2997328102212476  0.7997827063695678
  0.8268960274410645  0.8417141935166120  0.9701220406988756
  0.3705716719821410  0.7805733677564499  0.9249756368463306
  0.8562691025576167  0.3333836844444058  0.2772410996012706
  0.6166959244874419  0.0152062889312757  0.3028422784762148
  0.9348295135553359  0.9754612342868965  0.4724946003727399
  0.1018749829671172  0.8853484432604379  0.2617553493446986
  0.6597632896872820  0.1398411578091361  0.1703773069066238
  0.4376981383783040  0.8582592089445163  0.3181833805346500
  0.9541008620811202  0.1737061063043885  0.4806729812918500
  0.3044030684074174  0.9438443472754223  0.3080964354997869
  0.1893844232645261  0.8475105064289328  0.4314328064034692
  0.0314287388066334  0.3973465759962040  0.3023815225086752
  0.3945449365705119  0.2491313172757092  0.9076340351057626
  0.3845142597552914  0.6211457834758927  0.1418946863185523
  0.1047492769993374  0.9545538299865541  0.3487037322889337
  0.6766868081166477  0.3609200420675150  0.6086223485549159
  0.2605768043438744  0.7097206689528914  0.4707859034021994
  0.5433841435747806  0.3888155963371179  0.8098450883141575
  0.8663353007438235  0.0049581855645667  0.6660353096585392
  0.8527556601210299  0.3045814495642297  0.4923330142363272
  0.9904046029352348  0.9560588049255287  0.9830765404997543
  0.3605003112059836  0.8362521156654716  0.5152870300726584
  0.6331775635005028  0.5957338732050494  0.2100874710278380
  0.2891951106466178  0.6899176675463092  0.6923137997457591
  0.2477959203217354  0.3155323678980616  0.6709924453139617
  0.3717300078295561  0.2944193421826722  0.5591403432419380
  0.2380274852242363  0.5273622288888807  0.2469293260881390
  0.5517030135886652  0.9075085215441662  0.7369663314644319
  0.0855317373415767  0.0859753189098213  0.1888495942983397
  0.6988515107302442  0.1781551336173609  0.9737059515893931
  0.8621034814101629  0.1250368439904571  0.2604987172482745
  0.9094635340167000  0.7304601854671537  0.9346826220785899
  0.9856077089364450  0.0170081188918567  0.2357569044898668
  0.8537132924246575  0.6205654460431913  0.8704134944031595
  0.2082591817044516  0.5106872378161289  0.3591659585377889
  0.8003509398177162  0.3968848410422300  0.9474514025141830
  0.5844523328799210  0.3076252893741909  0.7756655121941955
  0.4298891234731834  0.1932485851204950  0.8878593892648069
  0.1768104013553900  0.8087136668587489  0.2822948974177242
  0.1302181825145596  0.4071461296870348  0.5652448932531405
  0.9865576232329085  0.7819052053802984  0.9077445810135029
  0.1763292882556554  0.7412003219403508  0.6213443070998642
  0.7502088587161240  0.3434531434592402  0.7850690072444662
  0.0002161373582824  0.7110192612785701  0.7841665057010773
  0.3367665890046975  0.0481753755830336  0.5440144402576196
  0.4342458226624561  0.1318396520881609  0.3122382065744900
  0.2509828061105522  0.1549856040701247  0.8537472656310177
  0.1349262872289337  0.4057725796118581  0.0853083872169729
  0.7036149528960945  0.7887207710951198  0.0483305384473531
  0.4369679412265010  0.4148029314944638  0.1091315612017727
  0.7567942916661398  0.7844123728101120  0.9963277976355646
  0.0484615170686682  0.1706393627129402  0.9124177529435529
  0.4232574341369457  0.9776098778741057  0.9792522513673382
  0.4868673787860816  0.3194870454190152  0.4344690423912076
  0.2355148346047372  0.9733118596575904  0.4896930020973663
  0.3091273598333026  0.5902735668270723  0.4295720403011669
  0.0598826580189329  0.1081565673102149  0.6819809597749442
  0.7506489280031291  0.2710443215784534  0.1839061147609884
  0.2455685018685634  0.8275906481980791  0.7529938198768830
  0.3469915018268679  0.5061978330673339  0.5355058217914445
  0.5216447116969847  0.4196288256313199  0.5959692126685211
  0.1137314481608206  0.0465709439269123  0.9466585427647882
  0.3907022522420983  0.8864414147660835  0.1737865908273861
  0.5437593618107716  0.6437788519000899  0.5577151799426648
  0.6070514789438383  0.4448130596707615  0.4208027850443726
  0.2047599968587056  0.3996456790153097  0.2984975738705185
  0.4248370503460147  0.4672719358520702  0.9028933826860168
  0.6743519222905414  0.4317170741030799  0.7229731769907891
  0.5554422909371083  0.7037632992187393  0.7416231593382422
  0.9768617891062251  0.9124995212745600  0.9071209625562928
  0.1425021201933157  0.4496171580625714  0.7649658320713554
  0.2259891701023261  0.2315569360365196  0.7745188679353010
  0.6209979401425868  0.3643336898428242  0.6595008495605059
  0.3295093891423570  0.7855140559870489  0.9628235944840287
  0.0461478700650520  0.3715205286585767  0.8421898355949747
  0.9840815384071490  0.1010099693508542  0.3341428143851816
  0.8873496065874747  0.5853272603845026  0.8182717484691875
  0.4121655338272600  0.1044062361353213  0.7281997365423333
  0.3078185575376221  0.5213203405096639  0.1264682153198820
  0.3859746903581807  0.4764224830543967  0.3864077258145595
  0.1309300262038631  0.7914665054903401  0.5662082244494857
  0.5408791455731282  0.7613307976955628  0.7962847262899744
  0.8129580956716658  0.5523006437486593  0.1500128696642277
  0.8694885543444968  0.0502844879103062  0.5313135603645687
  0.8328142313733080  0.9566722828995514  0.4078173873562422
  0.4107463811553021  0.4473127222757211  0.4478332237339710
  0.8007386747057177  0.5732122560490702  0.5143333420895223
  0.3707751152252068  0.9214516512895053  0.4105279543716863
  0.5707461045952005  0.0276218907973907  0.7911606436310104
  0.2201470633962238  0.3835646477024370  0.7561531173469414
  0.7422080650263805  0.8617561596999883  0.5776568848012544
  0.5368395802182852  0.2694142427363075  0.6752173628492905
  0.4799440825227452  0.0373985740983084  0.0444364207298283
  0.6000221844690302  0.1576233577239408  0.0933433764960333
  0.6065848345289964  0.1707111384525253  0.4039302803207287
  0.7507602918613370  0.2622642790217899  0.1092067958670183
  0.9899867115552670  0.8345144195732133  0.8047115124608584
  0.6227994505407778  0.4936290917882982  0.1828773087272779
  0.4758828921965526  0.0562620502885681  0.4418444562893307
  0.7000661651670902  0.7882277989063170  0.4171259124583783
  0.7570667337964860  0.3597296072975926  0.5040108414194910
  0.6151468738704535  0.2293743940492214  0.9076846214700146
  0.1068678161717664  0.9749337693900317  0.5663409311452666
  0.4594032290002839  0.2848011864018933  0.1152993897740279
  0.0997505142564196  0.3084287395828240  0.6947676024577804
  0.1585260683434731  0.1318403366281235  0.0662182584948654
  0.9616275774389391  0.9125808882614224  0.1189611488585981
  0.3649402334093559  0.9644581893813653  0.8027861022257012
  0.5709163299091229  0.4526252549479530  0.9602555493992164
  0.4826169914066483  0.5980693557984518  0.3445887345825784
  0.7073141217229567  0.3563884264556201  0.7571336647092461
  0.5027299295374918  0.7705825482590225  0.6560178033597381
  0.4565431576994187  0.7763333041664980  0.5966794400219645
  0.9147839173970271  0.3939340295139281  0.7204613749818976
  0.5739634558719926  0.6546687014809974  0.7496628928141683
  0.5026122381043578  0.9718599495027050  0.0007429742013123
  0.3292167640269669  0.5035418891746950  0.1645750607281558
  0.0864512978309872  0.9681423322261615  0.7117252318909327
  0.1083653025321188  0.8604554854193750  0.3775362096923632
  0.2679312628611478  0.8952831258148560  0.1448020126882188
  0.3018933055607226  0.0997400108150693  0.6263678891148790
  0.9769239267561661  0.5265331686828703  0.2537718689459516
  0.8632767003270689  0.5674989888959970  0.3516440342072419
  0.7479526352668732  0.9774796217894463  0.0344851783676689
  0.4535713443347075  0.1284793095956540  0.4792012481336401
  0.2962405886046820  0.5265955157326836  0.4043669432571329
  0.1482248740220218  0.2066299408542725  0.1399123555222403
  0.5988843236865892  0.6735623134311621  0.2786970287711866
  0.9504136635282220  0.6483370590936232  0.8388484692188939
  0.5553538292799908  0.0291879251839599  0.9707384302466190
  0.0892555073489627  0.3940520557514674  0.6888118051611022
  0.9009880970683124  0.8361516925365260  0.9497919269747088
  0.9510486302872786  0.8247387361509545  0.0520392260359812
  0.4251392289160337  0.0494959445081448  0.4196262650268198
  0.7316865724309943  0.2622916428302635  0.7941600169810739
  0.0211127068922594  0.2468443969646022  0.6921118103335452
  0.6999236230860414  0.5990492265287473  0.2858747517978935
  0.9289625655800843  0.0965509099423815  0.3462803374025100
  0.3283599765509875  0.4599798946553835  0.3993755952974729
  0.5458988018510699  0.6064254208769005  0.2511931985243697
  0.8611634846837215  0.0498038231472329  0.9628227803816067
  0.5381715784597778  0.9205583670366383  0.4595192919539367
  0.3342648802768454  0.9534518957076128  0.4087247635129043
  0.0855217634620913  0.8517971891006492  0.4455387390656947
  0.3969621993995169  0.3554055386315296  0.1813918744453346
  0.9553642723938134  0.8418383535510608  0.5127883397133388
  0.1801529844050274  0.7156917185718011  0.0859913207365890
  0.2472754940466026  0.0461248402898742  0.4258563008253434
  0.4797236803283672  0.4070565901814040  0.0355960439252581
  0.1795585790045298  0.9980637247842276  0.1170846271740918
  0.0181844792270466  0.8944949051547968  0.3082715055252828
  0.5832847362237268  0.8375579370288576  0.7246265550016715
  0.1350989506650376  0.3847876607543946  0.7597326156823169
  0.1984626827577521  0.9506107621397123  0.8030577203978841
  0.1360191963845515  0.6999416403217459  0.7266212019474736
  0.1063423842890411  0.1209058194694075  0.5150557909805529
  0.5755791211418380  0.6561152154398497  0.6755350228139744
  0.1329994820665840  0.0079949513872566  0.1269151677508038
  0.5530668877547970  0.7613334895075768  0.7450024424846181
  0.1229360732376509  0.0808248570829125  0.1578624208133849
  0.6312270727677318  0.0132479749098478  0.2568343622371117
  0.9957628791618649  0.6027152726224654  0.3011792312488518
  0.3106109750627906  0.5120213077144020  0.5763556010872266
  0.5529557122608311  0.6574658896532015  0.8031608193687280
  0.4941271781728888  0.4184880044691195  0.5974919222400550
  0.5103558548595154  0.4955184156148575  0.0690477024661758
  0.8877426501976698  0.1082713715878332  0.4696041347243146
  0.9314175081142902  0.7382302765794619  0.9723228455813324
  0.4101922744714315  0.1105311605168157  0.7007463586429077
  0.7600410816444828  0.4043379886521764  0.4123266946705449
  0.6091331794281801  0.0033485660830846  0.9169926325074765
  0.4211570440995779  0.6109516390938051  0.2176323322440662
  0.2098320377506653  0.9831281806751887  0.0043379790595578
  0.9403998746225055  0.5957992783026083  0.6634605317266700
  0.1313912567134606  0.3087516867380536  0.7325581588738516
  0.5750958839760495  0.8534149990144395  0.6300200665939909
  0.7988689969162862  0.8626582306817825  0.5798335926520725
  0.3979862642562962  0.7673733311496678  0.8315782245520732
  0.0414980806682021  0.6109902713444961  0.6441821823245877
  0.1869577943985263  0.4208787598634205  0.2030515598424269
  0.5766933502764562  0.1584801837030236  0.6041572247993304
  0.8292503908974265  0.9497417591127804  0.3315834243892629
  0.2080582270563213  0.3365033072972479  0.0222706260593135
  0.8049518986596756  0.2870285073272401  0.5195123756618405
  0.7831052129052772  0.8903317240372635  0.3358679834280674
  0.4613747002816467  0.4639129367777655  0.9359889924325659
  0.0220462613094531  0.9829931540615985  0.8742518473049332
  0.2949056377482155  0.7901611056393457  0.5216480103452583
  0.6758413791597973  0.7186945722524999  0.1799322372089081
  0.8972388305344398  0.6670250877793938  0.2607006486531906
  0.5375519493350492  0.9329953250425437  0.1936850630468932
  0.1059788951013195  0.5685835639758641  0.7504634275291479
  0.0460261468514166  0.6101477271475410  0.2199967797143370
  0.0517478164304134  0.4875413303952910  0.4615154530902386
  0.5164421531379522  0.5064616463793120  0.5660621820759483
  0.1897917115177869  0.7987010072397088  0.1858719266790664
  0.5270099797559997  0.1336639726841419  0.9358979389771641
  0.2433260118264040  0.5635213645357071  0.7536044527003751
  0.4616527451268785  0.0715123445425715  0.5695193030150683
  0.8255340780752551  0.8979232779994550  0.4093405389833909
  0.9471608570327866  0.5918834601013000  0.0558125231531105
  0.2306612516324814  0.4824784681448011  0.8411012546410034
  0.2838299218257858  0.5897365857195591  0.3774965046970922
  0.7122332692189361  0.3190500279026720  0.4513523684762830
  0.5955130359697047  0.7301627379208727  0.3097994657574004
  0.5980239584522625  0.2260643655239923  0.5539598714886826
  0.3083182730676390  0.5688612056984451  0.9209257653334778
  0.3977804235329774  0.5111914219970889  0.7430368271912775
  0.9179368914297472  0.5912854796756974  0.8530131692746236
  0.0950759130513361  0.7030850795954746  0.7635647157974298
  0.4911390903612681  0.3719406509385552  0.5341317789236142
  0.6519913856068877  0.1552463007151647  0.6166811684320951
  0.5753202644956120  0.2309148341461127  0.3356996762534034
  0.1307665478705566  0.3887561475029562  0.6622262284394251
  0.7129085445796675  0.6499672023765126  0.5314681818174370
  0.6486133810283439  0.2816600276130093  0.1856319540882025
  0.6930517264710363  0.1084528398165843  0.0297342614565511
  0.0790725635014182  0.4500613704283605  0.7266926009301536
  0.0049891735752629  0.6528043120308245  0.3293932168400527
  0.9362200494068997  0.1720237858256086  0.4589349844424225
  0.6616926987055856  0.9668936882410900  0.7454002585337096
  0.5196438715363898  0.8000512066943053  0.2864880889616176
  0.8025737892192335  0.4779843284291052  0.0540776724921838
  0.2265197642586639  0.6497553525098632  0.4841977907468375
  0.9025847607434058  0.5103215233201748  0.3383322754597460
  0.2856560846595238  0.1569317434375898  0.5113009185814306
  0.0363429265206234  0.7748721013229850  0.7865453469822282
  0.4745539810663758  0.9789961312557118  0.6732701238678669
  0.0376196968335738  0.3019572009415344  0.7528273629349960
  0.0565962247249105  0.7863126066402319  0.9630625245437320
  0.6542996633780661  0.7832475864583118  0.4337306334922543
  0.4044476314024751  0.5847470688316855  0.4613687046278683
  0.1425453139891235  0.8498078866930158  0.4514965766190567
  0.5813236036918568  0.9166404771370474  0.0296293466572586
  0.9308306196869233  0.1730854474549008  0.8792277613228546
  0.7404385214124495  0.6651584199945347  0.7221699599383457
  0.8809454910889101  0.2530940375085843  0.9279623326014304
  0.5951772090341581  0.5852990862027182  0.0388651974162623
  0.1803331275488536  0.4065636285484047  0.2498666136272093
  0.1492660275926038  0.8910978630784585  0.6336668513946520
  0.4867526303756571  0.7726451211988339  0.8839901924825758
  0.2733645824554951  0.4723885253936785  0.0692931293432414
  0.8525090198779596  0.0602051691115920  0.5758063179821202
  0.6073511865108012  0.4141387775732465  0.5064760615679357
  0.3067954916232350  0.3071069103223075  0.4865627742845508
  0.5229092869903204  0.0745586708998207  0.6465543367644694
  0.1115347914557813  0.6450218020392378  0.3683032901021288
  0.8247066166660202  0.2492348802727851  0.3536565654030551
  0.5355454908714089  0.0316588749723761  0.7587544746227481
  0.8958321142607182  0.8362343403230237  0.0469418213333612
  0.6934343179573009  0.8845703308206074  0.8333279346824644
  0.5625028792748916  0.4277684786728270  0.5747391077167873
  0.9749890507338249  0.3731998877081953  0.8189320335394105
  0.2337226924824843  0.9787712553460372  0.0182343577378732
  0.9520184434552418  0.6629974988922269  0.9944449027492480
  0.7004120281843512  0.8772162537266811  0.2868531448891702
  0.0973402795073552  0.6586939932244719  0.2853208441109702
  0.8504231288037171  0.0529135358999048  0.0642356556643289
  0.1864823277914285  0.5299821088671766  0.0392292678198265
  0.6658655515081652  0.7928191988053893  0.0157609855438227
  0.8188265483629605  0.2720208234978870  0.7410030193186533
  0.1187425488782544  0.9359808895497809  0.1184509336686118
  0.5991990063961159  0.2193144011248758  0.2392487217941239
  0.1157661271528401  0.0070925197010426  0.9663405989570741
  0.4198385755514429  0.5656125525904627  0.6122439421862852
  0.2415942351959566  0.2626997630805938  0.5682050496693359
  0.6707249719073273  0.4295929162486200  0.6209959412720869
  0.1445466347588959  0.6130084093505256  0.6395421265608702
  0.2733137494729924  0.1065800875012864  0.0128893992706047
  0.2698753274512028  0.8708040973737233  0.3145727542830827
  0.5392828459187714  0.0329823696764078  0.6842424822962649
  0.5462005845932566  0.1681597179546146  0.7812055951900096
  0.1859221709083364  0.2705327283951857  0.1241031425709451
  0.9124591499636883  0.5017275984198989  0.3634965573688428
  0.0597182571269336  0.3276810637584585  0.2841096957368365
  0.0670981920877152  0.2333577143154698  0.8295816833679576
  0.6916723214438226  0.9724116356074688  0.1127010000715704
  0.0441674667025449  0.9176238386617219  0.5322620876984454
  0.5413302678577945  0.1397546634400157  0.8873659431845361
  0.2055085087432517  0.8514606658738154  0.8745376532620761
  0.5664804796005130  0.0167121087302806  0.1843356113958029
  0.4226181536746701  0.7618324722816977  0.1284592932166635
  0.4402766964818375  0.7846105590683294  0.4222412100120913
  0.4929615532230816  0.2868190986714623  0.5508036043998754
  0.6304582242091459  0.4236284448978644  0.7104519256967465
  0.8015975612730363  0.3517925201098211  0.5756289736704973
  0.1785004849216124  0.5795301776631390  0.4918843357882558
  0.0759952491680663  0.4097801402526656  0.0407918024017304
  0.5079449700897937  0.4717898765537347  0.2880632551326971
  0.7029953049326276  0.0666407572527650  0.3300338714405736
  0.9316537495948749  0.8213132484432081  0.3626344749105643
  0.3672276540356233  0.5956665620541000  0.3850493469174076
  0.5765262399748844  0.7200054756127802  0.3933820732546583
  0.0742802287596121  0.4927681257879289  0.5030060390056671
  0.9602124128469249  0.3129813641862269  0.7247059449896968
  0.9816139994469093  0.6494161392153356  0.8761741131444950
  0.0777901439629150  0.4025442173636307  0.4209961053659315
  0.5171991542433089  0.0786681380873162  0.6187223552330595
  0.0842758653125134  0.7727689118618137  0.7977775741046116
  0.8224306475762687  0.3912717867576978  0.2861526287574921
  0.7003175078932785  0.8559735065623935  0.1910723533428416
  0.1737451394123131  0.3852716397727417  0.6851621179952957
  0.0875447509312868  0.4170323378727444  0.4924851873811748
  0.9973677414544202  0.5175149161979569  0.8043755881983499
  0.3115215190211146  0.0147120435779876  0.2626026719460450
  0.5180164824155885  0.1803107618701743  0.4021047046457211
  0.2332158638140832  0.9970986462549862  0.1333310101255847
  0.3502200500260102  0.5496226507584074  0.9906639190650747
  0.8757745103128689  0.2534532697237556  0.9564596858430117
  0.5704146617701660  0.9646684995204229  0.0809773891356894
  0.8290327751713791  0.9868323442544903  0.2158588591240621
  0.1606165566820529  0.3855453402232488  0.7100428562318669
  0.9839849429738468  0.9102103227935993  0.6651336322188305
  0.7895553675145902  0.5257590233621893  0.5877149802065561
  0.7686508314667778  0.9178908804814162  0.0938004486001074
  0.6790967948462024  0.7958999609397821  0.6344265789757008
  0.7148426347188132  0.2780498670440770  0.1508192555153365
  0.1407181037922799  0.0694444384628285  0.1062044127382958
  0.9466457432419400  0.9614714906515737  0.0047818429419104
  0.6108932274124604  0.5133394060696306  0.6072518081277264
  0.1002992148416548  0.5112067026503887  0.7974653448231599
  0.6260401631617227  0.4140606132758171  0.0562954405087663
  0.4391531861269053  0.6385024804222583  0.6236791888504827
  0.1172952212613689  0.5968251100025141  0.2338218490412491
  0.2452916570023848  0.3803802744756617  0.7071387908724668
  0.8738810752156689  0.2541148963866491  0.5347388653009291
  0.7286792091704237  0.8971813846071174  0.7921314477675235
  0.1127613915064640  0.4009485903638088  0.0132598293742805
  0.2926636388783662  0.9390270721019731  0.3945178021402937
  0.7018920014601647  0.3557384517954916  0.7078644741704170
  0.2690787720721632  0.7123405229223629  0.8670603465448548
  0.5492612797583453  0.0126946647464100  0.3327327809893961
  0.6949632824503711  0.3437142440627881  0.1553407741659431
  0.5614790775202664  0.5761835143563750  0.6201031769537348
  0.5689159016544277  0.2166980216658990  0.5902609765174202
  0.6617008982659994  0.6584509035456184  0.3915291481388277
  0.3945165431953113  0.9647805763762567  0.7048706435176784
  0.3056504861467743  0.5330585208775284  0.6176266513829591
  0.3388974711755159  0.6780762716157256  0.1352226845164475
  0.7885838939538360  0.1909292806888789  0.9297732744353597
  0.5823223217902372  0.1529283236671972  0.1384775778133819
  0.6954863976627733  0.7595432995512706  0.2121811464323744
  0.8960603643792844  0.7494200134055941  0.5704001958398721
  0.6521837724702833  0.5141798896596612  0.3651038035758999
  0.8298536534917279  0.2914983302351317  0.5609755041228567
  0.9342152190330625  0.8782467155756944  0.2628511252038584
  0.6588261879893684  0.7946295696044237  0.9883690563492362
  0.4579203043101823  0.0488007668629149  0.6671413648109331
  0.1707240138310072  0.4717360498173410  0.9880870408689719
  0.3637228851543534  0.3001873544140535  0.5328379561482444
  0.4329360801762869  0.1874530708552928  0.9603139887514499
  0.5747943669565646  0.7473780170872778  0.8321968623826723
  0.9314534475601235  0.0277721619904578  0.2914823652896946
  0.7716584905003487  0.0193220477182795  0.3574396233481905
  0.5548732844297458  0.8455800045778052  0.0006528923981537
  0.3193983591389225  0.8080256129402356  0.1794853035803518
  0.4616346873584539  0.6506138279966064  0.4965404715749950
  0.3621517834026459  0.3618077694990198  0.2832678338224972
  0.3811688995841791  0.5790907619112823  0.8560357835486191
  0.0603027970140112  0.4508013517272366  0.8574785470621686
  0.9484840445253887  0.6109076416857888  0.6107237349295666
  0.1092802683181081  0.2377617156818204  0.7375956566396018
  0.1013299575330038  0.9500663573183068  0.0436158936996229
  0.5339509688044366  0.6091832998900893  0.2256297423953103
  0.6967994167129641  0.5768852571725825  0.4551345623127053
  0.3693063107504079  0.2924842946406345  0.8319193794726489
  0.5954423630374709  0.7238766877033418  0.9872894185203961
  0.8815262597243919  0.3076640441936789  0.5316732936224782
  0.1244709560636344  0.9488083566506316  0.4250900404224026
  0.8289268638372151  0.4056139809796907  0.1636544565072757
  0.1005452119277361  0.3131261424391042  0.8262448475618662
  0.8635515019435813  0.2590252825146777  0.5622691448753262
  0.2356591914287722  0.0196504177059106  0.8714808006805718
  0.4491532112241196  0.7126078926224146  0.8495890844917704
  0.0127232577135221  0.4616155345993794  0.1233043484749522
  0.5392369506591359  0.7141656356036075  0.0472581089253874
  0.9872905462892310  0.2816763695822934  0.2244625815552322
  0.6895229103996585  0.1040930195711160  0.8152212486869264
  0.6502947138168848  0.4506299616108437  0.9918125435731036
  0.1577880851473702  0.8817986268184308  0.2639110505526785
  0.1442709094012662  0.8766509863927014  0.1911767834811591
  0.3259456478295092  0.5714582784487895  0.8064276463670370
  0.0288890589493990  0.9724078891586957  0.8260719918149479
  0.8539911475217871  0.2040629099341858  0.6680431522644826
  0.2815289773365739  0.7559745624177505  0.1310548381612230
  0.3467873290880655  0.7454679519075645  0.6451750832410885
  0.9302453792534865  0.5354124650935478  0.1966410093334136
  0.6223585103458892  0.8567100681350798  0.3861139648566009
  0.2505697534257895  0.1462082932696070  0.2095766407604690
  0.9367372375980468  0.1565492705483555  0.3389129485140104
  0.3238299953118275  0.0967505162549989  0.3712652807490880
  0.0562947736314846  0.1128841546320784  0.6538613440563824
  0.7245015273434782  0.5764605727265149  0.4566547515671591
  0.1254985345855980  0.5746433413689480  0.3967040611927450
  0.7649369808287361  0.0767792129111071  0.6717706392182520
  0.8424213587544644  0.1198707588463339  0.0658226049178336
  0.0146517450189155  0.3730736255585194  0.9694896491379248
  0.6321262418927026  0.2937065111071884  0.6596144538530203
  0.3952389295834025  0.5946112686263729  0.3872398945093984
  0.3516126303421346  0.6150552230354259  0.0677352299444882
  0.9171359961095036  0.2472798353134739  0.4975106216292183
  0.2465699354168154  0.9245918481704634  0.9206831588112401
  0.8786717648823654  0.1242967676253566  0.7843899018064596
  0.9618012712405417  0.8347719166225340  0.8028407310985397
  0.3164104687564825  0.1474130267968442  0.1557144205742610
  0.8746315815628003  0.3373589516342315  0.2192642535554891
  0.4559752880389694  0.6406398999282384  0.7205427172155343
  0.2284386102921828  0.8482090548714867  0.4625226238020172
  0.3548635538304328  0.4853207221769198  0.2471785694453546
  0.4849827006455525  0.1719337822313085  0.0304268507909618
  0.9733316268333458  0.9119850960975643  0.5811552709319331
  0.0841962983951926  0.4563900489983901  0.2953870285339482
  0.3831936428103288  0.4723331988192594  0.2856598567620277
  0.6194651310576934  0.1675482400877014  0.7870415994155652
  0.7092216850592773  0.9499219662991194  0.2475389667868122
  0.9353176149455907  0.9114300586276211  0.1010433374252996
  0.1590892228177775  0.3237958771973635  0.6121591535190540
  0.0662527571409543  0.6585618327511734  0.9307530416995206
  0.4330162034891825  0.2854336400910386  0.1850027545288363
  0.7680989730297246  0.5059280082507746  0.4629138890269520
  0.1408149538611302  0.1835171909486165  0.5989832258604176
  0.4917104158454720  0.9999656550645556  0.2872083275745739
  0.0501741869757874  0.1144499238127479  0.4469563474144822
  0.2155388820805494  0.6101283762299640  0.0662908786311781
  0.9434623132531488  0.5856904860143274  0.6889792422262981
  0.4782160307060246  0.5082310581653425  0.5347534491357160
  0.2344297680875445  0.5783914871259485  0.4963809815096083
  0.4278329091218463  0.2372645625955416  0.7606427081807210
  0.0699893816241013  0.5026303494131502  0.3671861115503040
  0.6865687893836523  0.1365658855728542  0.6862852072907489
  0.8378349662102775  0.9830754279594205  0.1702483700851295
  0.1684813058909834  0.3328054277019172  0.3501848606291481
  0.1108710992065866  0.5785961518190437  0.8075628831907663
  0.7479605887569708  0.2559740046105747  0.9692674271802617
  0.5811143330299168  0.8545516002808813  0.4117744651947567
  0.3317358970815345  0.5335306605428587  0.1325523983687246
  0.5227123696040217  0.8353024245027786  0.8077580997508902
  0.4594636616602391  0.7640573358483611  0.7721344039467594
  0.4308196849339808  0.1943744024729117  0.4531137000687661
  0.7199810386784813  0.4903175224714535  0.4110379225305937
  0.8701946397369376  0.8356835445816930  0.9967859232721833
  0.7440515022350734  0.3276228766535316  0.8568037901712512
  0.4900232737170003  0.1830146932869970  0.7000290103935870
  0.8576084025168447  0.1235527598470657  0.8033487430113326
  0.9279930045900480  0.0966547181402406  0.2702261130483798
  0.3007880481551027  0.3041382292701327  0.7272156447341031
  0.7782775601754743  0.9837382419575419  0.8601321249078263
  0.8264313695668047  0.3878673610020052  0.3839517068237092
  0.0651359439631624  0.1208025911139219  0.5446558889580457
  0.6022317767519516  0.4171425399904387  0.6458760914346727
  0.0173871380156057  0.0978210726104140  0.7447356029136293
  0.2276937613468235  0.2593734274175923  0.3952281835131143
  0.0361987096097858  0.6442287892415570  0.3662132431540872
  0.4362454796226549  0.5305050235065782  0.3540106219467792
  0.9117155903694257  0.2475130401535192  0.8897411620099471
  0.3051787623732902  0.8311538447877849  0.7985655192357001
  0.5418206889945709  0.2915815616579276  0.1267876459073273
  0.1315422308763224  0.2093520700233202  0.0869311575771180
  0.9967193783587754  0.3177115483353811  0.3397533562453995
  0.0394268854602734  0.3035025625591983  0.8839716521500234
  0.3845578939522969  0.6432215318759232  0.5578448582574461
  0.1275648666870278  0.6977552429883154  0.8012552996359878
  0.8028616214216047  0.8265506843708027  0.2900867517080606
  0.6417102848428328  0.8448439206504494  0.0454669157760329
  0.9974839639958072  0.1221861847733892  0.5737165910743428
  0.9700951618066915  0.3751581841926123  0.9462708299867856
  0.6811015898122572  0.7993152109896687  0.7984907758322598
  0.6127446116264611  0.9707644699373440  0.1428767816756097
  0.9082739353128265  0.9783687976545770  0.9318398684327942
  0.3840457887458013  0.2403862981238817  0.5890246629772662
  0.2924330064318076  0.0930620810154858  0.1243594864214711
  0.7594500989570725  0.6541501289045588  0.5488002843629147
  0.2183726993877776  0.5803251433854765  0.5195692808210578
  0.3741254100470034  0.2382188821870500  0.0177587714245332
  0.5917872265533449  0.3760761871009041  0.4164104044405765
  0.7865596368022054  0.0537695194975930  0.8026067636631824
  0.0409174639615131  0.0015464961641884  0.1447294915643627
  0.8751741841181531  0.0333291607275878  0.4305362056024506
  0.8212115374582044  0.1330117652136864  0.5795957887340486
  0.5650142135113074  0.8569389141031738  0.9276750844628472
  0.2501448954965914  0.6078956135000826  0.2625385538793745
  0.9147741214629719  0.7345016981867072  0.1155954114164024
  0.6526190775942664  0.7154499402630703  0.4987241743058364
  0.7763889297039442  0.4058636269467709  0.2166651685655578
  0.5242695049760777  0.7841695989425496  0.4364689940043880
  0.5392092144864594  0.2214683341762454  0.1234285527010405
  0.3664913813489042  0.6438698740759451  0.5356762172288321
  0.9144887033711576  0.3144144684468995  0.8674612269794755
  0.3708880201399085  0.6917261709697438  0.6678585950454065
  0.7532629855513437  0.4016314599348814  0.8751554349849685
  0.4203673396473351  0.6296578366491900  0.0248237756701316
  0.3505421518376194  0.3548406224220740  0.1635335250929387
  0.6198247529730755  0.3512078720066620  0.1447060026092259
  0.8327728402334421  0.6209786102759025  0.8904982632605785
  0.7393507289749575  0.7139632002054701  0.4469270617300610
  0.3967148009527667  0.3085348524016095  0.3226923198026490
  0.7963703522538867  0.3314520843703271  0.4350302449959019
  0.5473061393182327  0.4062792806387944  0.2587558179747548
  0.5975560826880946  0.1670110615540418  0.5313759722165809
  0.6396739838558866  0.9693327140982205  0.7295978984445706
  0.6409127075585586  0.7878064183198062  0.6048965498135399
  0.2662312993674284  0.0072800453317160  0.1698414106857164
  0.5261116099407966  0.1540055392300084  0.0899498673598909
  0.6682264188261189  0.3726429645252841  0.7812394954549895
  0.5976053445106637  0.9134332226045214  0.0522929395555863
  0.7674965094909120  0.0498591606114554  0.0797380608162472
  0.7126504063815924  0.4314979099754772  0.6898124750550152
  0.3043994893442263  0.7975012777143189  0.5469976415730852
  0.5305968911665764  0.1580119601783954  0.3561179330668199
  0.7486039596909718  0.3508180835157663  0.6294357070759338
  0.9960767171095944  0.3557416933014555  0.0835642547883104
  0.5225293635874243  0.4834518160176930  0.1872199028674573
  0.3071716401586254  0.1041627165072981  0.6534713129867163
  0.1414505723938369  0.1672498256037874  0.8718191972541208
  0.5222564432701442  0.1541230237439770  0.0620583067328567
  0.0994022813338325  0.5184053724965517  0.2995882870927498
  0.9668039867995780  0.1005930890506207  0.7510951710085638
  0.9394738602120281  0.7538675459698042  0.5599792987906285
  0.8936095981345814  0.5252337425819786  0.7330088375735739
  0.5247750614622454  0.5102448335425507  0.5178741395559556
  0.9150256612836071  0.9095685032105972  0.9568942505154341
  0.9978290528162359  0.0989713071069449  0.9475918981898925
  0.3851360473495818  0.8901240624293523  0.0895623018004097
  0.7877298526237534  0.7786638207809340  0.5044126019648382
  0.9569755419076177  0.2481718255628940  0.6613260091831700
  0.0670786822272399  0.2848359858078179  0.0665390880583153
  0.2981865089784764  0.5125023210912543  0.6768439454890570
  0.6715135714346674  0.8486195268518117  0.5056046759392285
  0.6659375030270692  0.2827421217846410  0.7362088441652320
  0.1590225253839277  0.5593078774340287  0.7996564664873745
  0.0587476496971652  0.2769667318000352  0.2930474941979897
  0.8624029199824443  0.9833126214022482  0.8599791356603050
  0.9020034388489089  0.1329418228714513  0.6106606369912381
  0.5353250947647569  0.3639226963489969  0.6130557663215825
  0.3425316391451825  0.2084802200569769  0.2250309510615917
  0.8108245650202393  0.8498769397233269  0.0929148319810047
  0.4157871527673719  0.6529216186804297  0.4793019688052709
  0.1149302917290844  0.7328430717536465  0.3109322502726056
  0.6233385052221223  0.7925259051669827  0.3544908123593593
  0.7703546454690415  0.9645870949836137  0.4468672402039367
  0.4882135923886047  0.0844839230781910  0.1566720352514130
  0.7141543938077971  0.6792926258693410  0.3001300792554235
  0.5558108309945371  0.0904367130974531  0.5560137858909019
  0.1632389906700003  0.3112913477587643  0.7699745062108156
  0.1552177803317156  0.1122809768307457  0.6442986049716782
  0.4669340426856184  0.6890229531404741  0.1515694827011442
  0.6187220878675465  0.7809245590192899  0.4773427783202330
  0.5744274603664891  0.5875226709384429  0.4239991511780260
  0.3794699883258276  0.4132272078970106  0.1580716331343104
  0.2194256336927697  0.8342775942898257  0.8528410436195579
  0.9981648767244423  0.0614987544587436  0.8229792067127861
  0.9655863968489857  0.9769035032469560  0.1496960790089114
  0.3216741101077934  0.8756943718154749  0.2290934521633685
  0.6032919529854900  0.4283358535055325  0.0610926354421051
  0.4494605632147606  0.4437077354334054  0.7377168538873833
  0.4259882528677814  0.4999421815095511  0.6745428499890744
  0.8997516008120781  0.3825092929465035  0.0175850049230333
  0.4476406004133109  0.5890379010731178  0.4403575912273814
  0.4065068518564598  0.0540672923859435  0.4925863221048974
  0.9751308202716368  0.2377247325254041  0.9442499497405813
  0.4291627456243142  0.9067113809320819  0.0017447830265140
  0.5013630810980806  0.7991032797717404  0.3088201325478477
  0.8011257520195501  0.1911857565237739  0.2692663823050063
  0.2369441146231765  0.7807002171867615  0.4371256606193745
  0.8791057980371334  0.0465183231871345  0.9845772152991015
  0.7730784923245296  0.7186212662362598  0.9745015776868212
  0.2529079849638789  0.5290845892004524  0.0749881468313072
  0.6476570583299732  0.7167638276662108  0.0742384217086639
  0.8115844984529544  0.1423162632104952  0.6812642476056486
  0.9884398299390522  0.7753659750416122  0.7759019819443683
  0.8091603877322718  0.5242298861273965  0.6407975365035355
  0.8359948466399149  0.6018877736401002  0.2266513769267768
  0.8652160469214694  0.4600008026281858  0.8960513958981631
  0.3127847100027570  0.5182731470999076  0.2355472281105583
  0.3887495392572776  0.4237692503323734  0.4853886105634428
  0.9241960709184719  0.0369746135733145  0.0018157906479568
  0.2361640854542748  0.1651473303306237  0.7564574756381467
  0.1497095421994412  0.2749072840733302  0.2673625987906991
  0.9388592347234975  0.4499236951198634  0.9075822025847321
  0.5531429438912944  0.5858776911208782  0.9146605751121891
  0.6433192932589589  0.2375032899641926  0.0032329148118292
  0.8224648925958895  0.4755905837515346  0.8784453788916073
  0.4769652897235179  0.7111936085233259  0.9717510976499344
  0.4555889996952194  0.7514527078573190  0.2560924729002858
  0.0501447975896169  0.1590393507297309  0.3655925090597579
  0.8181543507740083  0.0777746912075923  0.6911081880681953
  0.3400284902268169  0.3593159549684212  0.8965074172700451
  0.5672846176960451  0.5219949674990022  0.8486739713617223
  0.4700039984122907  0.1734138145916789  0.7435503637991301
  0.1921037995688309  0.3943413807434820  0.9237105176821515
  0.2098937229874124  0.3745881814374892  0.8284009108153949
  0.5908822144168207  0.5212588884070293  0.9761861256191801
  0.8621364138027288  0.7683952142953185  0.1084126091506782
  0.8271967157733997  0.2569943793336342  0.0477199082241882
  0.2465911400407502  0.0916039852373968  0.7874068213640050
  0.8300637093149786  0.1412833463445437  0.6346799488520722
  0.1549807974166319  0.0153633798028927  0.2379022703975665
  0.9535673426351102  0.5820902535795190  0.7609516070431739
  0.7060057043950069  0.5773707474813468  0.9889161171747585
  0.3442688088223507  0.7004949227638569  0.7762737847207395
  0.4785915577420651  0.4001879946938520  0.9865992496905083
  0.4881302443197898  0.8308391257950615  0.0766270076157827
  0.9558252811825494  0.1423415647713320  0.2221515047995114
  0.1034733031662883  0.2781006237913893  0.3527331372268942
  0.7625758288586891  0.7121798810975520  0.0243969223678738
  0.5583249420779783  0.1522509583414920  0.8681611570374198
  0.8384330599088514  0.7607030976227040  0.2439784008333128
  0.5270210589602887  0.2010765834877940  0.6512495574684678
  0.9066514802245613  0.4568339794922136  0.1861553567372983
  0.6299191848757100  0.3807255909809676  0.3923170512646316
  0.5368143248333721  0.5433354181641364  0.1973380602291317
  0.4342296907970866  0.8963083118792137  0.0859921600421818
  0.5789170732235022  0.4246956457698806  0.7489278343367303
  0.7719926640615546  0.3303489850376627  0.2918404863447734
  0.7889251696166657  0.6392586548227214  0.4694902143920392
  0.6460676164702426  0.8683819215432768  0.2879743959533563
  0.7088429165916720  0.6819522899257293  0.2721791067538031
  0.2922768031999324  0.0126001362094295  0.1780409874714708
  0.0089079241817511  0.2816794894116995  0.4967299134086028
  0.0217430617884413  0.1048409618904673  0.3769937634473996
  0.5751903065576581  0.9529381472403677  0.8648216628968844
  0.8441771224367174  0.6324609027395297  0.4603422814939495
  0.9933360836396952  0.9043176169941574  0.4060178889620078
  0.0008667256560174  0.6595616552676127  0.3020720835782766
  0.7774875200005721  0.7877658061813797  0.9508151977120257
  0.2483738645046719  0.1999083807708537  0.1467829469088280
  0.9793385777498226  0.2149240865240644  0.1694552845073232
  0.0120615138492288  0.2193926041698482  0.2033847177569022
  0.3275758623638015  0.2494829052860905  0.3872476494850491
  0.9507374042900270  0.0544528254554148  0.5596533677853680
  0.6139877529671295  0.2495187561158249  0.4301004067747596
  0.0778811324092129  0.1014644674542552  0.8224846164885711
  0.5198378987411316  0.0107226628633575  0.4265978541198920
  0.4897514385859735  0.5421942301851255  0.2122662851436445
  0.8757936420450128  0.5988692988873265  0.0991721598131291
  0.5590550055833418  0.0786362710806600  0.9227168566700232
  0.4058753224566830  0.1232831290210044  0.6459065972726011
  0.6105469067766404  0.0148196788074691  0.2755644446619263
  0.6329295045241577  0.3861955721709503  0.0528555559381474
  0.1424334835576004  0.7343139119048353  0.3017731599708069
  0.1505054066609839  0.0774937812837237  0.1526332709359527
  0.4581245224420284  0.7738647128695542  0.9804554787449342
  0.1969371222985118  0.6269039551603250  0.7109740253819168
  0.0694320099234380  0.3051661238273582  0.7896129869208862
  0.5764060772417281  0.8506647184638270  0.2192737227468046
  0.4285486674096110  0.3923141720991075  0.4024372584841979
  0.4734571544124936  0.4838556780655784  0.1929147547346864
  0.8934908763223512  0.0876731783054491  0.3042026356222495
  0.9569780112486426  0.8330377972708108  0.4121632981136840
  0.9801180326417309  0.1586739796674967  0.3546816163643414
  0.1311472625256217  0.0467192914201509  0.4614436080514406
  0.3866317799612668  0.1219225147170593  0.9628209201475714
  0.7020949269551575  0.2449535346037797  0.9586039696145682
  0.6472583976131295  0.1601958826986686  0.5586659595599005
  0.4420097152321739  0.2601941567770423  0.4776568998397465
  0.8520527866184828  0.5416566345760808  0.8735842373131645
  0.4915935386214255  0.5172589521434127  0.7854842454854373
  0.0005240941392083  0.7537557641809342  0.0660099882924674
  0.2071939670945915  0.3255971715415660  0.6043867916810558
  0.5679058737824499  0.8496050439432300  0.9758377957959324
  0.4108375725742947  0.8548764734666485  0.2696512987312010
  0.8404622386836010  0.4683240139581422  0.0226817067772281
  0.7095594737315470  0.5841161606481781  0.8427215064842947
  0.2391971369285825  0.1886725611777007  0.4102265924574541
  0.6883595783364121  0.5287752955392556  0.3248344152988994
  0.8464581610095711  0.5443977100054553  0.1827653370401609
  0.9955811652003914  0.1889126973996328  0.5705700092040293
  0.4043275253914526  0.1385820249336584  0.5633281581093936
  0.5182161181839474  0.0737946642920742  0.1940248557960946
  0.7404600105890733  0.2597924741644288  0.4073510786901195
  0.7487884315334201  0.7933419935893061  0.7241312726903851
  0.9542449404344961  0.0359565713518380  0.3877363229648807
  0.0306220851596663  0.2764480926913956  0.2865735857179332
  0.4886136762660992  0.4596358288258744  0.9424963751240006
  0.4692974924425784  0.7137973424764705  0.8702041340636117
  0.3675405296448848  0.0481830054110115  0.5824652657419007
  0.5659430222904884  0.8588945786693906  0.3882679838529425
  0.1099319139832219  0.7071429558570993  0.4657571267336473
  0.3723189372430819  0.2145700753686805  0.6335506787790176
  0.7987896135363446  0.1378082618320915  0.5975570884385906
  0.2117726931479341  0.8057190706074836  0.2376546552451948
  0.3091972749264477  0.1805162077057278  0.4249473204668572
  0.4866213810065522  0.2866241829603153  0.1199045701500855
  0.8957142064271224  0.3208993089203944  0.0457972521355294
  0.9577053008158258  0.1348823687998976  0.6630324698723649
  0.3397457562419434  0.9509252614959378  0.5899528557528595
  0.4338235482577481  0.4301887401389006  0.5577466599031471
  0.4808683704888960  0.9798887374188262  0.1963026707671624
  0.4806607342397773  0.7793095150291912  0.5282091337977985
  0.2909570790429958  0.6754535040702758  0.1454605423375930
  0.9368381211243680  0.7382533203137758  0.2048180040781297
  0.4447846160723878  0.1922718141270938  0.4060810809121639
  0.6505135456509441  0.3099971944010591  0.4125837670127222
  0.0399938584519817  0.0488891556436084  0.6126083720350710
  0.0687493163550144  0.5963955278421568  0.0086231214917588
  0.6307925552112891  0.8994222705836779  0.7664890117020272
  0.7364263247232270  0.3232849082841996  0.9579054937395740
  0.9625734526819349  0.0868281687680376  0.8822743786166612
  0.7798813111499217  0.9774367795484313  0.2120524942466900
  0.9148003317121809  0.8133378819419792  0.6583828929107890
  0.5758655162068630  0.0286098576740963  0.0375584624164102
  0.4235153493264841  0.2842325560984319  0.0836107926432209
  0.9078663699869319  0.4539970633351422  0.9879972975784014
  0.7906967381902757  0.1921515621478328  0.0852060829461100
  0.5148487686004388  0.3150933661890319  0.3554659730439682
  0.1451916893630895  0.8704380863496857  0.1437981025866563
  0.0761585502015171  0.7712127137687661  0.7231414901662080
  0.0053718801927296  0.5074547662652522  0.3307647253890413
  0.7610996917608011  0.9166970545026527  0.9947339671163302
  0.1733816774294397  0.6463078354982411  0.4448583834704062
  0.4883903602013628  0.6382326920057678  0.9132627052466928
  0.7926205622539138  0.5678853470131825  0.8393323140912402
  0.9021397401319997  0.5635183664471308  0.3838250508891725
  0.2199847770065806  0.8454807529239284  0.0060899043486372
  0.4998250320202503  0.3071950552243399  0.8191455183978624
  0.1137277654319839  0.7322381799925127  0.5634217558848955
  0.0409543690390513  0.2404414316109369  0.9955510219096948
  0.9918766076148191  0.5327035214683854  0.0801213484375225
  0.1267196368205442  0.9429438447940688  0.1753260589073018
  0.8423049262962169  0.1370664831655705  0.7192455060138677
  0.7900992507704140  0.3346511094922563  0.8484459926798078
  0.5475059173581927  0.6479413558554029  0.7551111242541717
  0.3064169000780076  0.0258359856878344  0.7649203583503232
  0.0093641840556812  0.7756620455981391  0.7952062626088533
  0.9846211525060377  0.0812015248367108  0.8655057429607468
  0.6528806741933081  0.5184312117529685  0.8626684640037198
  0.4191124106260301  0.5501265954691438  0.1011144483717418
  0.0926076279856302  0.2274934312609499  0.3251855854794913
  0.2001031998728585  0.5577931461916213  0.7278443278284931
  0.9189713054532047  0.9096974161465178  0.5291137296046660
  0.6231492018626954  0.0845226915164187  0.5058524971175203
  0.4874558515435992  0.7263472259672226  0.3442448893235322
  0.3542840938696180  0.4443459843307156  0.8022614982254641
  0.0686594908134580  0.7296065719430815  0.9581436276991203
  0.5195679422055797  0.7794185364231716  0.9201645835694787
  0.3104378560097810  0.8675179446979356  0.3936308925585239
  0.4276003006424487  0.7992188273422099  0.3214286768241884
  0.4667038046817670  0.5222513644346869  0.4339895880712351
  0.2841840185427805  0.8727217146370224  0.2880302609817151
  0.5006044627210570  0.9671088119472638  0.0287553649019338
  0.3834570945929339  0.3066526448513419  0.4888733569781137
  0.7476482487410687  0.5692237471792888  0.0121620551037013
  0.7199634461902923  0.6573239894923495  0.5790522363499221
  0.3050055602109901  0.0894049518855185  0.8663766865338389
  0.8549711993373399  0.9179882567941083  0.0860168979544495
  0.1637562554893953  0.4023768670084471  0.0831477319857290
  0.5754509008844313  0.8064186069901513  0.8655148821105400
  0.3346892323805714  0.2370656999664392  0.3419739936229753
  0.7445652168087039  0.3603968263724935  0.5311910889564857
  0.3575103864789126  0.8957778528636305  0.0493248149369143
  0.7235126904532864  0.1197962485394696  0.4686123099432019
  0.9674476138366441  0.3822779824848198  0.4286445176098767
  0.7901005140956365  0.2589585404743849  0.3204943452762783
  0.0768651975229231  0.1168197612119701  0.6082433608746146
  0.2261007605422755  0.1333023680219515  0.3511115552162550
  0.1811813860900053  0.4072576088650001  0.1563815883103897
  0.4041501991334758  0.5780812191764260  0.9077422587213360
  0.2249399968997360  0.7374818064345809  0.2766215256528989
  0.6211196309686147  0.7961406067520984  0.2048401868689385
  0.1617393392258537  0.6563308099808648  0.2301565799150818
  0.1735157777896156  0.2336925387106909  0.7925897694288040
  0.2757247613899195  0.3063649137227411  0.6596490322033099
  0.7669796915238217  0.6554432984900228  0.7647686052583224
  0.9541825903877957  0.7522856630347949  0.6084626824673839
  0.7601428052927897  0.7388637128037641  0.6936178078025356
  0.7604368255552536  0.5900498075472764  0.5315596913302154
  0.7046656179266567  0.6707999293500675  0.6788636735903103
  0.0754087597135245  0.1499620925759515  0.1895555997206235
  0.3882177484384945  0.8249893033215323  0.0552972291241573
  0.5170795170846637  0.8367814293611213  0.7577613376765524
  0.3990199600046854  0.9321730693442559  0.3121900325137290
  0.0522293713358238  0.5270712379637529  0.2414051730964730
  0.5873446021398383  0.7580952520740919  0.6702157095931249
  0.5372992572404837  0.0128413105972677  0.8585186979231679
  0.8683521096602211  0.7571593396817640  0.3419679288599696
  0.2430599669462447  0.4107363916205338  0.5160107211199643
  0.6132731290228192  0.7446025856489427  0.6638417776910852
  0.4308563661664745  0.6416089235441601  0.5756260773061067
  0.1432730408304393  0.0524454555181036  0.5157229289129319
  0.2518017068088264  0.2493771024444619  0.5907753812344894
  0.9304069785575469  0.2399073843530243  0.4522712320781765
  0.6856892701777153  0.7139406236853404  0.4628022949873467
  0.3181145447410569  0.5787860704521833  0.5026063387195203
  0.3562134244582695  0.6769883671979339  0.2192018197007087
  0.5211881810321533  0.8554625631052354  0.2680343453028820
  0.5476204395029548  0.1641007301801700  0.4735331370306567
  0.2613473136802417  0.0461885000115719  0.5019881129407615
  0.1775450804730436  0.6455830675219588  0.3122397827727909
  0.0133983215796166  0.7525019963383545  0.5626438920221276
  0.6248342765294291  0.9388899946622250  0.2423256148969190
  0.5935768465020816  0.3623811179496891  0.0743429152549587
  0.8507960049731363  0.6281186509928521  0.5086498650533565
  0.3279562009008064  0.1105899732432907  0.4443218219657998
  0.9959202472127171  0.6080888128531700  0.1929060314372115
  0.1596167314932664  0.0504631349577319  0.0362261539991759
  0.5346753399231383  0.5934792044536380  0.3973218729194122
  0.5849815308628407  0.4322315157439561  0.7951434767097824
  0.9868684998268050  0.7555007373518056  0.0106802654402861
  0.3214395175325641  0.8150957200215804  0.1310318644709114
  0.1522387387213099  0.2109866351757572  0.2706895913584164
  0.5202087699553143  0.6318054058962539  0.1366420966921738
  0.4939969416057123  0.9162920646305197  0.4805534342516807
  0.9858678673075593  0.1080952887497335  0.4092500075936699
  0.1658748700497964  0.0083011205372467  0.1632083945883889
  0.1506964599105835  0.8013686059132265  0.1551628513815427
  0.4773652408801739  0.9141873019662292  0.5031116642943460
  0.4351652056693696  0.7611373673769093  0.6885969481300177
  0.0707870105365511  0.5584896436377343  0.4921320429522035
  0.9886918100580508  0.9037253487968075  0.1085922153468680
  0.2467487918829902  0.9275651497438369  0.3881704995884829
  0.2721795131022604  0.0826054246581920  0.3787972743464457
  0.4349574667576401  0.2808673905944947  0.2586464762185084
  0.0711329194382252  0.3898825557735922  0.2750168877739947
  0.4387744409331055  0.1922169292362602  0.3786243045851834
  0.2041745955303205  0.6297449725833117  0.7611789356433019
  0.6929591386533760  0.4446188286076668  0.8570188012217128
  0.1301654442249208  0.4142367215187061  0.5166339055225658
  0.9245712782569966  0.7410932917851771  0.3211865023563072
  0.7943969274494166  0.1908839414690039  0.9571729455779580
  0.3506644363093159  0.2911717360403400  0.5778070116886631
  0.6171355773509556  0.3034557812005758  0.9043196761274725
  0.7363837226592641  0.6469298990465858  0.8710691848953404
  0.8103016943905017  0.2787620773281850  0.6400496684145250
  0.8536055541116631  0.9802777014015270  0.1472041010940819
  0.5221892632724423  0.4146272231346415  0.1588577172312629
  0.7755066475673777  0.2107542252031087  0.5307728443372832
  0.6301088786017349  0.5203770742838474  0.0069444108537879
  0.4411467978183693  0.2399899855690462  0.8082255245574340
  0.0341072070702673  0.3660048532902127  0.4638468344004680
  0.7172471310799007  0.6513713712251817  0.8492515960324708
  0.9031625437430335  0.6137403837917101  0.5761709158520448
  0.7954167545067146  0.7083223078266911  0.8799850505971410
  0.2437531065651900  0.8683132836520154  0.1721595669321053
  0.8665721948357517  0.1958537185241712  0.2120969738426516
  0.9935903611955861  0.9674066236120014  0.3572329653486233
  0.0144176682842554  0.9563131833900725  0.2778076928841641
  0.4001597469269009  0.6388087601384297  0.7299953864523913
  0.2132625945997955  0.5113806300414064  0.3860144403354573
  0.5783462805101057  0.3630536073603775  0.6363982490307888
  0.8386984464858303  0.0775281295216703  0.3136477899136539
  0.8016795996350938  0.2610858074109111  0.5031095740313708
  0.2895061431259951  0.2412489275627905  0.0392255961578961
  0.1592107612859570  0.5018735910712366  0.1544904165827668
  0.3040449170505961  0.5351385701934619  0.3568330710380664
  0.7283690621111991  0.0066301366415759  0.6315031871848495
  0.2209721897909455  0.9544109313537319  0.6583242035270992
  0.7774566964419306  0.7322622639637153  0.6110210363329474
  0.8187402083222264  0.1972655257390012  0.2243565982215077
  0.8001938301373103  0.3319329881112973  0.2874263650057833
  0.3273571823198157  0.2092256697544445  0.1704830472097727
  0.2585681458980921  0.0830686628007275  0.8699705006702800
  0.3664794133515386  0.7510471333544053  0.6636426766422551
  0.4171724146136129  0.8364113722854535  0.5655375220686647
  0.4394804758564728  0.3145337863504830  0.9786969355032525
  0.2991072465093672  0.8448243271995680  0.9640615702333044
  0.1014576287375799  0.8973779865658570  0.6393496883502894
  0.9524308410072652  0.3204015978893650  0.5052472249684528
  0.1892995844921251  0.2598734783850301  0.3646049928207014
  0.9794605324827518  0.7140381532401202  0.8036091757762834
  0.0563777905069393  0.8793192568997195  0.3796785872240963
  0.1502558564990354  0.0434567255074421  0.6443209477826191
  0.7329177902463291  0.5890176510413757  0.5299598540552733
  0.0820990150196000  0.9576842959510782  0.3310678455244746
  0.8160304338982141  0.6198578913045152  0.9389681612407034
  0.4924144671250865  0.0395497650455762  0.6998831520432014
  0.2025632959063405  0.0603792515873149  0.0995839886251612
  0.5082830880743006  0.9360552812609833  0.2857453155135620
  0.7934932029606117  0.6919733322073471  0.3267618217852040
  0.5065725517016447  0.4384257860437915  0.7765369398281873
  0.3413403910336671  0.5717606322899932  0.7824492356519610
  0.8416046656673565  0.7857900313819020  0.8754004078049095
  0.3184671199768698  0.9598706164712661  0.7165169267323070
  0.2520459396194202  0.6930899620417807  0.0838306717061253
  0.7364049161123586  0.4886715505410769  0.3881629286359841
  0.6038988879055353  0.1566806411654518  0.6465057186478420
  0.8350506423394682  0.3918871566746784  0.2607352530067517
  0.4697434313062249  0.2826360905153816  0.0668869488225507
  0.7478897448411536  0.1163764038985346  0.4824236975488215
  0.1588889569432831  0.7849194748620238  0.9025697699724197
  0.4377001678174298  0.9607057673337360  0.1633976435977375
  0.6547302084764125  0.1512976506751388  0.6451957078358611
  0.8485171727548710  0.2590321786271616  0.2591797013033612
  0.8940037375842432  0.3962123663269849  0.0879606985032851
  0.8160800335477116  0.7773597924571878  0.5086701416043420
  0.1370048794125520  0.6859668726918454  0.8563409779450145
  0.5594601110423836  0.3962057972215658  0.3352825137703440
  0.7999570521856163  0.8537450856862948  0.5318577608302301
  0.4976124703863243  0.2825529764679205  0.0716219255282371
  0.7834346627849943  0.4971796270705053  0.8576241513805947
  0.8668926257248639  0.6558021754678086  0.6813045606774214
  0.8392377387831755  0.3858492348568942  0.3588386593603992
  0.0754644861630829  0.8311864614574477  0.8057653670459178
  0.6740397825476749  0.1160849575225005  0.7304801754435168
  0.1923837363219356  0.7365477692870028  0.0423158897466014
  0.3627064853758827  0.0139396043011937  0.8122964027131248
  0.7270003311887741  0.8470230153606605  0.1900270894385724
  0.7979148995727866  0.9168736555604879  0.5472412582224067
  0.9725871423882803  0.3004177801247341  0.4617648324645665
  0.9315707132921155  0.0215990578780197  0.7141673271300409
  0.5602217091665769  0.1443230547501978  0.0008207198724668
  0.9064202876991906  0.2695518398038589  0.2007247211036968
  0.5853814305266845  0.1528171125153050  0.0097538293657026
  0.2843846574313230  0.1682973688666744  0.6984910609047247
  0.4355476878889827  0.6596077655238565  0.4260455486345410
  0.7423718863061801  0.8919654535035410  0.4578905670446519
  0.3428458601551489  0.2164674150434811  0.5558222977998553
  0.4172881557246781  0.0515409347533351  0.3634401122675053
  0.9261899222606423  0.9771870096738997  0.1253649475181637
  0.4533332447958434  0.6818263610860877  0.1993965556076819
  0.2391735639610130  0.9420473101324809  0.2339430842938118
  0.1793721913932840  0.6229644947590622  0.6879376971898983
  0.8820964122120080  0.7632134444220320  0.0892378113763882
  0.2143927988503838  0.1445604905599961  0.3008400805804303
  0.2662058781963994  0.7152043141859802  0.9400375577810907
  0.0553411559871766  0.0363497485550363  0.0817495736839448
  0.9711676500917203  0.5951407128235776  0.0124551935433411
  0.2200817651558514  0.4745726442513268  0.8874006775544544
  0.9922264045555116  0.2163886830761420  0.1217507126125930
  0.4265246738551062  0.8387097166895869  0.9810612169526364
  0.8565241794566694  0.5613478441431760  0.4001380392202638
  0.3170163441836035  0.9557851603839906  0.1383105554003533
  0.3763477127273389  0.3562519048813002  0.2334400190033518
  0.5268892325542058  0.2426721565610046  0.3609128003073126
  0.3737069077202479  0.9351165302182632  0.3239479457724926
  0.0353462352794633  0.6687458295512364  0.2096726788429850
  0.8967170635690516  0.9130639113910456  0.5753970324900622
  0.7217139615210835  0.3207186110144075  0.0304437673192240
  0.3198405703352605  0.6872003229638660  0.0523925582885826
  0.6142099951164965  0.8110679587271087  0.6667823976494058
  0.8461517347715827  0.0035477151740857  0.6866439104190581
  0.1320047698123874  0.4029436211313766  0.3207858219468516
  0.9379003534945720  0.6551550047008484  0.9120238793904655
  0.7062901669460463  0.5157135885275211  0.7224681734564793
  0.3402256974892631  0.6396755736136067  0.0337700796013548
  0.6351442066923982  0.6544631551786522  0.5923177272764804
  0.6368443932729529  0.5880498756637685  0.0141090576753822
  0.3057213718856114  0.7330047861354715  0.6095800170388374
  0.5400559010404210  0.5230629899599554  0.9191179798966537
  0.4586071072634641  0.4198294973124331  0.6289621875026096
  0.6104848443909203  0.4361926697985993  0.7822449879556330
  0.3168837888669131  0.5168779815371587  0.4562898036531955
  0.6861427704032221  0.2432140655695267  0.0426266132386102
  0.7857268611186501  0.0531937284096333  0.1760845791364542
  0.0585427222694602  0.0591242440630928  0.8672530267858853
  0.4910410925972816  0.5105597940449662  0.7106230332237219
  0.3976078521820517  0.4915965851349490  0.0448353393176298
  0.4520312248525116  0.8557681752152311  0.2940334882455399
  0.3743126264423896  0.0824120283315525  0.1875761172826625
  0.2423640169617921  0.0489422468156011  0.4542923043485391
  0.0576884475202458  0.6069233712794150  0.6681891946380202
  0.2741846205210344  0.1668891993307995  0.7251027089064200
  0.4602962904041361  0.8442530763272247  0.5881835771605674
  0.8916522019129299  0.2534447764751848  0.8707995929780800
  0.1874281249610691  0.8690834656192016  0.1702528000424608
  0.3346267641274187  0.4229556539512926  0.2815159974246011
  0.8766310531119558  0.8428973454914048  0.8498453867370620
  0.8896065677089293  0.9745358938729888  0.4911232440355810
  0.6251973926045613  0.7962666030440269  0.9516123980075032
  0.2779168371626280  0.0789135634601061  0.3037856171573090
  0.7946479374034159  0.9179204333793657  0.9160135213258570
  0.5238488808040155  0.6519954543404167  0.8826561746502806
  0.3170132593565155  0.9604621700415082  0.7446880829351582
  0.0117279711891703  0.5824332938434040  0.8118996988039513
  0.6294436227769029  0.2307369448568203  0.8516495777216694
  0.4778565606442349  0.4093029190724371  0.2325801548241541
  0.3001479440226887  0.0290925746104259  0.7379079639308679
  0.3781208800999457  0.1123208657714086  0.4435611242627001
  0.4273946678178738  0.1178638362214770  0.8981338598921960
  0.3557273067454075  0.7687597980611781  0.8699082208348768
  0.0153673206600966  0.0941330017703552  0.9019285833049597
  0.6944484550172577  0.3091078477589341  0.8361493756469194
  0.8083226513922142  0.1909831380719080  0.0390497300322432
  0.1648226938412575  0.7060949262032640  0.4487502491045972
  0.6654937044038732  0.1781822398399721  0.7813767927283092
  0.9493185198635054  0.7481002620010571  0.9893199819848425
  0.1642480706761597  0.9280056606206136  0.1105220693410927
  0.0330722995305490  0.0514521264794408  0.5850181229159274
  0.4049015075605032  0.1822521960914561  0.6569819786622801
  0.9317095151044775  0.1362310172386213  0.6509546703688297
  0.5358849254840911  0.5872591614016283  0.9369085981278219
  0.1714154360240707  0.4764350880008467  0.8039124879358752
  0.5189411037316907  0.8281394177008463  0.1247453595680305
  0.7238921551518674  0.1368548211273423  0.3359023757549535
  0.6581554896881704  0.8520193175843538  0.1672493527798600
  0.2322643112949271  0.0771680984530572  0.2866213097220727
  0.3358438354223306  0.0799586580625252  0.2185504497520938
  0.1055166498337762  0.1478499378076906  0.2286514545558112
  0.1171590023921777  0.6610994616922400  0.1079113810913595
  0.0217066560728060  0.6166627399876088  0.5459615192189110
  0.1343005019949251  0.8063155669056046  0.1770831433654544
  0.4496378021320024  0.8237214202717946  0.1516066725799892
  0.6404809045583538  0.2204802986822782  0.6925836897005155
  0.5556776093731394  0.2803841886920704  0.2253359014272857
  0.3917977414334964  0.8883985770759485  0.2016761908077520
  0.0022034451501233  0.2440843089747765  0.6724046809868148
  0.5889202926711493  0.9333897909628449  0.3395662947112563
  0.9196228070113758  0.5684550114259661  0.3626059773252935
  0.7065070419566705  0.2466744751058911  0.8310281793510879
  0.8498958904679692  0.0574414973812929  0.1391991089889550
  0.2257476155885763  0.3296272823169344  0.2387137044837919
  0.0444378854860790  0.6811550052377430  0.6152390069942925
  0.9781691448952552  0.6648895090846390  0.1611057246522538
  0.4283741453276191  0.7739310268690470  0.5949631780996802
  0.0469281628528727  0.1856683390948969  0.6374689737382724
  0.8398130630521237  0.6225659143933823  0.5340553053024959
  0.1960549940096191  0.6921517815142140  0.8751752474775710
  0.1667267083345337  0.8505088276836441  0.5020767460916657
  0.7389727122133917  0.8911919966955807  0.2625627569243507
  0.8602518600980219  0.7694012098517036  0.1605916101716992
  0.2588774920357803  0.6932115835602813  0.1115019770229195
  0.1721665696485475  0.7676205551905696  0.7471160083915713
  0.7233737269048415  0.2021934585115951  0.2427289476400638
  0.4976280266625471  0.9317718748989519  0.2593448580816750
  0.6583826075464645  0.5197524950165198  0.0113703839438424
  0.8659945379157660  0.4990724955956401  0.3797395528941649
  0.8361274174066755  0.7656710907062695  0.0498736795893754
  0.8643706603786528  0.5207524413849131  0.3082511889692643
  0.6413014202697663  0.9391276143237978  0.5675511914076673
  0.3509602192503796  0.3123794746411265  0.4517537269710484
  0.2025927659251791  0.3372557115488777  0.1251194444315102
  0.3389141783520330  0.8884492385543598  0.5279562759858498
  0.7548692168309150  0.3245282268809463  0.9124924183371788
  0.4837994263553522  0.9767049129640576  0.8518193370790320
  0.4581288097210299  0.7881603496049147  0.4005703256060558
  0.7273227072597456  0.9762591298828409  0.0141043222396188
  0.6167976142157721  0.1693786786786924  0.4304417017129508
  0.3280659850660506  0.8259399952209210  0.6972639365206551
  0.1490595169063972  0.0858007617395364  0.3017645888924828
  0.1494943753788367  0.6611969828430259  0.5433584397264328
  0.6941133872393598  0.0645614165280145  0.5136957578752857
  0.1827822451727920  0.7927788778343338  0.9965163853617174
  0.1763387721872613  0.5724778082009931  0.3412823626091305
  0.9915367777854650  0.1055381299001770  0.7349278670059644
  0.8628575528801318  0.9769708381028619  0.0033814418779651
  0.5348381429989294  0.9649857230947823  0.8043085957700569
  0.8692067947724228  0.0201143377059499  0.3308784736996746
  0.3060230982212047  0.5832619460890633  0.4777624491188626
  0.0299723937573445  0.1168200710772717  0.6426481393271996
  0.0409263422654879  0.7301759253850179  0.9507313871678519
  0.5425056050833794  0.2345506738603791  0.0067117706254059
  0.8476653008382480  0.4324623554829026  0.4377514733526455
  0.8021204117009770  0.8450375734480539  0.4846032737605070
  0.3965202842250856  0.3075093895602588  0.0053845338462325
  0.8094043545783036  0.1262715550695969  0.8113922189580975
  0.9493985984512248  0.3156963300176561  0.3491898614486654
  0.8628061552144825  0.3246281631618742  0.8489178120392288
  0.8212401016182479  0.4207469904297594  0.6263454822958852
  0.7040654447733260  0.2045511925862784  0.5108620733704753
  0.8332856913892334  0.0012560495620603  0.6309770489915960
  0.6806343780989385  0.1458222943404336  0.6586721292995131
  0.4334313231814376  0.9658423556028273  0.1902903655612450
  0.6975127262503662  0.4380740088201798  0.0637240498993948
  0.9727484126765877  0.7546131050815936  0.0591116584161105
  0.1185281150505240  0.8429083399452577  0.8775619477474584
  0.0451641158978149  0.5283455241246571  0.0141369404633056
  0.8443293064956467  0.2484711652608509  0.3328284810293831
  0.6276627350585390  0.3006617696008090  0.0851533747149067
  0.6222794790891512  0.3112027795080516  0.0137150468050188
  0.8904839544558082  0.1987047281629800  0.7124096699998408
  0.0730401795763988  0.4844942170814065  0.0709369447510562
  0.6668242495681121  0.0268742522599333  0.0036535491916866
  0.2576540286536336  0.7286175631018698  0.5995302886861915
  0.3606683428631658  0.6981727638716413  0.0151628543331540
  0.9847578293441591  0.6442027518890181  0.7480546884865704
  0.4511646896504512  0.7102140669953251  0.5128317531751706
  0.2633927477870083  0.4749988240731375  0.0211987114021228
  0.1212356494577314  0.2122662637214444  0.1343548479342447
  0.7579250472143839  0.0740425145924013  0.6169582752948082
  0.2214978471094093  0.3112141584085457  0.6859627387210961
  0.2656197089488247  0.3186169472094076  0.3372615267492426
  0.4307767455846441  0.2467952852962194  0.9990868067454910
  0.5243739351906919  0.8560823003366214  0.4138530126960571
  0.5404596412736894  0.3073189367310469  0.8452761278802775
  0.1323453996155243  0.4069675747119641  0.3700179258198208
  0.7801740498055391  0.2067869843180186  0.7310117763240290
  0.3167906480424196  0.7007252638797010  0.7838923132050197
  0.1052728030594590  0.1119696371825592  0.6494954027789083
  0.5419923403635940  0.5689450563929846  0.0884342930860462
  0.0419473139284996  0.0273795183673373  0.0337853561232884
  0.8193374539842188  0.7049110682419359  0.4224126355790792
  0.6014198688757766  0.7859199564282866  0.0481961189360836
  0.4370842691684749  0.0510824491916334  0.8352991066748913
  0.0346923701693585  0.5137012428591818  0.8365667621581636
  0.5518434887552029  0.2482574862317672  0.3730302187952976
  0.4796366960194715  0.5473916002903498  0.0598503833548246
  0.1018210492036923  0.8787906123166405  0.2137939693410342
  0.0392374286573362  0.1513690244049802  0.2815485835242464
  0.8259328343962424  0.1318132848433561  0.7654482067587384
  0.4018885303871619  0.1853245987564006  0.8408700055476396
  0.3475594102366119  0.2866274758668859  0.2452214732237952
  0.5822768038395360  0.6752332989752864  0.2559519952268410
  0.7194261080804373  0.1079187965514147  0.8537867065930707
  0.0613150035421764  0.2376601962735767  0.0387517535439302
  0.5119778382437916  0.9036403563565740  0.1518369391497421
  0.6707944101199450  0.8738689885371684  0.6496814261824446
  0.9175964071505244  0.1934332943772756  0.7828465976439277
  0.3020333582344756  0.3859083938525065  0.3708674306957184
  0.7277938039343979  0.6328157496582013  0.1126030775519741
  0.3516391163947524  0.0388156679153337  0.6273080213925767
  0.9958971758249038  0.0413760823555335  0.4194779003611155
  0.0322729318325110  0.5767827663045837  0.7686509456941516
  0.1937599157212596  0.8820808705847840  0.6000752412464737
  0.3315098766719323  0.0151235046107816  0.2415670374605694
  0.6048368795618763  0.4361321839801776  0.8663269562772935
  0.2234584547893156  0.1582800768340967  0.8584200995185387
  0.5488456340172115  0.3751103441845327  0.4873555620248862
  0.4133376980401803  0.8486994772579981  0.4658003361698106
  0.4039571460511664  0.1855809181635466  0.3454036671089412
  0.5408694286313828  0.0998473806090127  0.8153869395324309
  0.5880918337542755  0.6695353022674632  0.7688737457245419
  0.7105072937131750  0.7842489218618447  0.4432671672800797
  0.2635644338707867  0.2806063778805242  0.2199530422117378
  0.9844529924287884  0.7393258327017050  0.1897149749715655
  0.5482976389748490  0.9379511537573775  0.3135980656578635
  0.6763094469382659  0.2188928049081219  0.6578069204479041
  0.0518066599314970  0.5111720505338866  0.7404277309418332
  0.0612722573253554  0.6654364001473613  0.0602653749647672
  0.3398497550267318  0.4258137279777146  0.5924048302348717
  0.3135762419494906  0.8883695242687281  0.7882346435120064
  0.9597684701654540  0.8397590735785808  0.9021003629164899
  0.1054168684416406  0.7936798929330349  0.9919504129183954
  0.7536217521981058  0.6459319513176841  0.4261328856223756
  0.0615979293140678  0.1389547240049432  0.0756930037090930
  0.4567461506411460  0.1677450986789980  0.0327260458518509
  0.7455961450467904  0.7835646502658489  0.0917728341066701
  0.7442012348658184  0.8441298323944300  0.4794058958802981
  0.7178514690594298  0.5694470016965593  0.9648419644144108
  0.1916012244208221  0.1888229823438707  0.4074462366619091
  0.4884690966459540  0.7808809544199868  0.4799353204870141
  0.7769066328235923  0.2005310841076143  0.2587894442052585
  0.3168221334734690  0.1745358183850489  0.3694373847821654
  0.5973270217604201  0.5219121736701741  0.9281049105391085
  0.4078915448330109  0.9604714730757301  0.2008373432726507
  0.2618298360168054  0.7295328728922417  0.3416908580017863
  0.9211421275946031  0.5159940075738029  0.3176928628227961
  0.3293867367756844  0.7203621793425082  0.8259600637333170
  0.1035351693763113  0.8750112318849150  0.1171207351168188
  0.5265932891825326  0.8438868561796772  0.0020936498213177
  0.1935662140664099  0.5087445812497192  0.4086392647563371
  0.8400321142737076  0.2675745565974272  0.5731482215679832
  0.7070512498676316  0.7964684832864398  0.6393588254998308
  0.6804137688160555  0.9141909090290433  0.0494093197684363
  0.8785237968642731  0.8416889275517648  0.7996160994088071
  0.4424315637314256  0.6011872349396385  0.3171666486199799
  0.2152480112649771  0.5883465584973692  0.5677153060548710
  0.6441428026890560  0.8461628883449233  0.1436731672685897
  0.5027921985281527  0.3157821605918227  0.4570504993560435
  0.1973373566527186  0.9685299281492965  0.5307284007458513
  0.7793641799402841  0.3309355505885069  0.1080093630184299
  0.2069864075777106  0.5293422958104318  0.0928851024407421
  0.7933176541445373  0.9183324881963757  0.0416055463785623
  0.2973277979322696  0.2914606780431876  0.8479677925176204
  0.4143624776958789  0.2882307565465690  0.0573088108005118
  0.4643828659667669  0.4218284029423442  0.6774542102662453
  0.0028492267852280  0.3938525063915501  0.2534975724368082
  0.3917089433793585  0.0766163234896483  0.2091292944799972
  0.7334024564856700  0.9076645311743752  0.2171345956240042
  0.3260763509609937  0.3711946359726205  0.6558505343156810
  0.6697084500482237  0.2406769865537975  0.9949174241969985
  0.2918691395833249  0.0313526984270543  0.0782255399265476
  0.1581336662696797  0.3251001552253061  0.8717490564297293
  0.5328760488050573  0.7465681383573280  0.2526660298207360
  0.2037103707309612  0.1338894780131545  0.4434809901810607
  0.5640937031706926  0.3509619816124337  0.1534191024011217
  0.9267803648233915  0.3753332617411953  0.0181881011183449
  0.2620482416819127  0.9346013382180136  0.8759622804939068
  0.2024103634894843  0.6950632253018301  0.7990430733166042
  0.6731171716015779  0.9606313892028793  0.8786966565047518
  0.1810279738330739  0.2730199063420984  0.1987250773292454
  0.2725264440593390  0.9419168285682584  0.6333693359643445
  0.0795022035521419  0.5004241487433091  0.3939228652915066
  0.4306520327213815  0.9947613875983504  0.3445794034086267
  0.9250652107752747  0.1612135133016684  0.3633442082018499
  0.4634305902507714  0.3706764607259110  0.5279888920892698
  0.9237485924639001  0.5182233681322735  0.8124313096857217
  0.4240112817083831  0.9576442648137873  0.0636005967678015
  0.2810304450069782  0.2055932413698008  0.1823544271437372
  0.8676024294523604  0.8919303692646942  0.7469118767098392
  0.2925193832045543  0.9590352494935380  0.7866433533123688
  0.6653311611857108  0.5878863294266897  0.9648959832104957
  0.7010248939619718  0.9740213142033725  0.0265083714085048
  0.7240587616162500  0.0158890362503702  0.7055265780405606
  0.6279450164203053  0.5860915411744797  0.6960354879699925
  0.8399864037201913  0.9510091193099055  0.3583414108017400
  0.9986025082496840  0.8419029522150061  0.5858019055233304
  0.3401202070506160  0.9503229967068464  0.1535243462418108
  0.9502285271395625  0.0288382220155223  0.3131216517204004
  0.0063080134841896  0.0028445537206520  0.1930867587744517
  0.7398230714849517  0.6170835468244127  0.2027997901673762
  0.0454353859680714  0.2211812821050852  0.2379822664618420
  0.9179005761500499  0.6253975961098569  0.4732933228597236
  0.1126557511492138  0.9755304483434212  0.8356155204827967
  0.7040813607755292  0.5202908569957908  0.5738485216724830
  0.9433869129502045  0.3238051744683051  0.6389169339056111
  0.1658311310482755  0.2610913252879489  0.3164148000301840
  0.6687275803178883  0.7161145145769282  0.1537255869598319
  0.7431818937842775  0.9585048370624450  0.7090830834832086
  0.1015536980212446  0.1528726915407715  0.4778261271301699
  0.2471828382514949  0.0441075806662059  0.0907036235896863
  0.9371952102806185  0.2413166291450627  0.8798289229547795
  0.7389057930698074  0.4280125174300235  0.8390562093546043
  0.3616531088230028  0.1044367319815505  0.7042036956092061
  0.4663657450824984  0.2836103817947743  0.6004540169001000
  0.1450483016508650  0.1703581796188048  0.7214397860754392
  0.5707837267525084  0.0923191185166184  0.8516512559328046
  0.1623299557815037  0.1313141557331691  0.4701659434052591
  0.7789961146562411  0.7727171122357360  0.0061472738262702
  0.6637129422401251  0.7961149748629185  0.8839175333413559
  0.9291920714495858  0.9676159203512877  0.0773359992137561
  0.6113957548089456  0.8034716955449367  0.2524628542592929
  0.9416889087471315  0.2683066294095846  0.0600216715045241
  0.2680149554466634  0.6562243179585754  0.4244155695674712
  0.2270552660058497  0.7725944733190189  0.8339671110970152
  0.9404677933235405  0.3097250525858786  0.8769514529413304
  0.4282203071647755  0.8307301225497874  0.7145171811450466
  0.2089476632739929  0.6948975767689610  0.8267894620796193
  0.5187442776407584  0.1117320173665265  0.4033032554349573
  0.7862739848880735  0.6933497842648819  0.9721609492132096
  0.1651757771810030  0.7310691309117899  0.1800343388542787
  0.6866253986343999  0.4423790963308284  0.0369025330941823
  0.2340091527421743  0.9031239624028466  0.4643662117431414
  0.3187255206706530  0.0415129497408928  0.5890965840256269
  0.6964266774077752  0.1866899204699257  0.3341760085613287
  0.0794557981586168  0.1138648727095376  0.6370386796031247
  0.5372967199588440  0.0854098559302220  0.6006981616158574
  0.4773959511752337  0.6406321797645200  0.5927839659337952
  0.4534603149241048  0.0618461941151291  0.2735992714242005
  0.2442876558432658  0.8729682020635340  0.2214739035507463
  0.4782859072391717  0.1413650008644970  0.5190141509803756
  0.0936387711545889  0.0156196660975010  0.1619742985272151
  0.3294422477975491  0.7576011288747777  0.7298355463429655
  0.3900602758494945  0.4880879239686131  0.6440564285035455
  0.8017489456734873  0.1138757385325188  0.5017663830450044
  0.8170633390827473  0.2083576655014460  0.6996257956652896
  0.9278104667267290  0.7866436967546908  0.9520144905946245
  0.5257758967785724  0.9062081403858532  0.7255815151448576
  0.3699014814438332  0.7333582635183037  0.3063002955280745
  0.2959950906946041  0.7924470382566841  0.8547995380170212
  0.6681222729488989  0.3108739098452856  0.4348665864060746
  0.1649392781062732  0.1010543722646139  0.7268202269867411
  0.2536195671869847  0.5498704645020458  0.8760021215062900
  0.0117699792347964  0.2675615342941874  0.3060685783758244
  0.1019369216377039  0.8762388900962058  0.1653459705160340
  0.1113715065474828  0.8041192680424238  0.1235694472269292
  0.4884537563366939  0.3518507690215227  0.2168699203253018
  0.5595992541103846  0.8339556034871579  0.0984022905561596
  0.7230649520826367  0.5785812473448492  0.8669999649482681
  0.8936569964089274  0.4594593956007518  0.0881212695046640
  0.0194829907807477  0.6906262806413098  0.5213581838822972
  0.3646276661798492  0.7609289254640446  0.7959814501349123
  0.5189852258363834  0.5909583663393712  0.4207604297156642
  0.0979628237798488  0.6393600769426839  0.4422725981537019
  0.4178503710336497  0.3667498819176905  0.5461245637314814
  0.7970874567619378  0.9802869820097425  0.0426562755704173
  0.1306672385807250  0.4614969463338165  0.6035772078276076
  0.9860755291641683  0.3069811249530208  0.7334007308775270
  0.5867265258114027  0.2321259062190116  0.7089784723221167
  0.6102507740105522  0.7840547287732187  0.0757475279687702
  0.8722832215399444  0.4608964770633682  0.9440760618638112
  0.8578192694070980  0.6551984308893529  0.3511546806418490
  0.1117436239574670  0.5324966473480847  0.1259038451166733
  0.1665991359583927  0.3405458563225028  0.5107758565235653
  0.1511899550125248  0.7253948075118929  0.9808319781121818
  0.9829314328262485  0.6474079169240656  0.3468700996002763
  0.7177784564283571  0.7942745316775425  0.3959980763730532
  0.0049359521345951  0.4448507381130120  0.7917463213149055
  0.2404686398236087  0.5990246327450462  0.1859270200103382
  0.9677333457457349  0.4470841614743788  0.8247650973950393
  0.2906428836829114  0.2847015548102777  0.2289097450512439
  0.0457260160230247  0.8874988677810718  0.0287212990161172
  0.8523375943236968  0.1847368484789802  0.2582668064523941
  0.8832666037286718  0.5268381739423504  0.2877497496906922
  0.1334149430631471  0.6460741559438883  0.3499727839478585
  0.9460215431416141  0.9769489070800882  0.8138022521634931
  0.7586904647316869  0.1201682031247484  0.9766400987333714
  0.0202638427901551  0.6407807919325015  0.8137912807831877
  0.4635259980090081  0.5500492642348882  0.0824415539417278
  0.5906595554570117  0.0942342372282298  0.6483876674151277
  0.2906909635870288  0.7197847613520093  0.5646778679158904
  0.3668084746225766  0.3694633604849744  0.6308176769410567
  0.3907789653567154  0.8300429318803891  0.7911272834339762
  0.4141744269742554  0.7570514039425494  0.1786646195303919
  0.7155510155991734  0.0751905072133773  0.6808507075783290
  0.2515239027267682  0.7372607933410964  0.6256865974018179
  0.8547496028769829  0.5006178786384265  0.6590038610345613
  0.2581655261351203  0.7880383989855382  0.9917864602915755
  0.1398523643932754  0.8135171016060340  0.2513579612531083
  0.5365438752352012  0.6196210757626183  0.1786905237893972
  0.4017787324087052  0.4713993505601228  0.3309755219092744
  0.7538761893249315  0.5651125920671444  0.1647782296887683
  0.2310923966403217  0.1999352193324373  0.2962174110040628
  0.3595185873162104  0.1529838302694785  0.5332742010320535
  0.6010266323247323  0.5116269079187452  0.5807124932262320
  0.5498115793946785  0.7734392286241923  0.6407192626559315
  0.7877806234912481  0.4741191489991090  0.6593224151117332
  0.4465268710527114  0.9294283144442858  0.3318969638355458
  0.2819273273290820  0.0369362051163613  0.6552357049642252
  0.6213238186457424  0.1608362587468386  0.0753902422187807
  0.5603391713656991  0.4662643194842040  0.3104120628280136
  0.8444256900480174  0.3053256440370682  0.5831896688787942
  0.6186274607973707  0.3720860285113324  0.4645858793794463
  0.6640074241716398  0.3484724509744481  0.2345961204520519
  0.9919762116504713  0.9744217474647063  0.6740636917063463
  0.9930535231443315  0.1678016262094607  0.9966793638659833
  0.4116386903859714  0.4279939800151000  0.6865890035112402
  0.1499620512632768  0.6309359021320403  0.7653662704503613
  0.5578198279732742  0.2239150377284088  0.1021800892396293
  0.4664473788085091  0.7662839141519315  0.7999879761944894
  0.3841583830618034  0.1875595566560273  0.6352001402971675
  0.6813656380214822  0.5596385542800630  0.1810668627557328
  0.0674809721480506  0.4776361924341466  0.5693352698619246
  0.8995878839125443  0.6105241647424470  0.9739844846315332
  0.6994964694501086  0.6936616471403382  0.2120934013932031
  0.6845054516644935  0.3512966920518673  0.1098412264845021
  0.7923302574224164  0.2014952333023901  0.2141429252430485
  0.3591829104803317  0.8916878369133068  0.7554421999066784
  0.4648565687243104  0.8472763946263465  0.9067227644591361
  0.9032744302545901  0.1274900649042732  0.1722122407589802
  0.7871120236688052  0.5480394751751844  0.9395970283582453
  0.0386471882923392  0.5754883164577556  0.3517837937903439
  0.4870876393699524  0.0767884072120609  0.5800427009599122
  0.1006675425242664  0.1006056305315784  0.8056142880387234
  0.8828021913857855  0.6754115281972670  0.1758134634274861
  0.3087217964445841  0.2272666254579860  0.5251849093212240
  0.8166880835392447  0.1908953838403298  0.0946167987048153
  0.7585685123203622  0.4279327543908746  0.7096529611793130
  0.4340171750808354  0.1139560505083245  0.9530956406137127
  0.1001877874088565  0.2157807060671290  0.1528518402340761
  0.8868873330549459  0.2653413431028575  0.6081820171569839
  0.4028245144254045  0.3681746870023047  0.5695169387176169
  0.6141184779374589  0.9357911529046753  0.5618819461619978
  0.5918053027243050  0.9733795794492598  0.7262571341442365
  0.4987952982688756  0.0684190697126187  0.2389925755684610
  0.4686448776339538  0.0690304654651237  0.2000052075819640
  0.2335872002508495  0.5110925626807664  0.5163737727953626
  0.9017769038154499  0.0913294913971354  0.3525056266038659
  0.8921380560158929  0.2504279808679061  0.0047112706032303
  0.3649839827553601  0.8825660688059433  0.1630206803721320
  0.5606528739088765  0.4209991931432536  0.6240217059424327
  0.0563164804460018  0.2864859384050699  0.4840396348493019
  0.6128044965466244  0.7988843238414495  0.8944762177255738
  0.6290207520922071  0.8759130263083001  0.6714878076353140
  0.1055988675385067  0.4507971252436579  0.7976540185601337
  0.5224016755064927  0.2075009644170240  0.8851859829245337
  0.5233005317794648  0.0657353276636850  0.4357569444216907
  0.7047637151080255  0.2860257620710391  0.5894742615410969
  0.6595165767242126  0.2385780542045383  0.0517974228148065
  0.7567680210507970  0.3951701847206560  0.9243857986390015
  0.2532799452948420  0.7154854472316055  0.9866219985525343
  0.3685117985705081  0.4832854348877565  0.1150204172766001
  0.6363835481194513  0.5127918890338864  0.4627959501891100
  0.5213714903537222  0.2258094515090600  0.0688416667448971
  0.6352281421208845  0.8127179167904467  0.7870634541651034
  0.1724231563022550  0.4124313094461154  0.5411303554119606
  0.0848150109689429  0.6468620775018937  0.3586759168858281
  0.1232230460498168  0.2799293006802718  0.0812956519762209
  0.9623837808527604  0.4203197840978463  0.0816470589866083
  0.8067497211611343  0.2581188484021931  0.0290395544557176
  0.1661418015973054  0.1890324262550343  0.5168981107621302
  0.2533852592871447  0.9407962598289715  0.6114489441678754
  0.5911623947984170  0.4503732400614509  0.9402905656119134
  0.3200403069377568  0.6268039965391434  0.6721191870689295
  0.3852969084806326  0.0208513081818256  0.7991147723370318
  0.4667816911297513  0.7733146656733684  0.6226569222394945
  0.5023897869585134  0.1494595588561826  0.5613654131771721
  0.8376860359394446  0.1880382949675314  0.0762031234870756
  0.9612861536394499  0.6639523059803214  0.2069789619474483
  0.4593450476808950  0.2547295395487879  0.9574627420371444
  0.1905341614035227  0.1314579432689201  0.4677888123392697
  0.8389375389998318  0.6777384296565763  0.8973447026086070
  0.9752528912069724  0.3824616855897846  0.7680782936490073
  0.2774448070646948  0.9718194798279370  0.0508969515268433
  0.1509736191622017  0.4919386377551364  0.7300487411649281
  0.9062414987467953  0.3908555676114516  0.2817903499407908
  0.9230532321428075  0.3842648790456316  0.3552682101634925
  0.0805011579382662  0.7461532490234902  0.5963895475506987
  0.5906725644247964  0.8286146136546337  0.7726704933919764
  0.6800412948497976  0.8565876430590721  0.9231185852113440
  0.9262610263201302  0.6910446323140257  0.4929395565451931
  0.4967345711716757  0.2884882558872450  0.1457399046840675
  0.7092551113617133  0.0663622116384751  0.4143104782496309
  0.0472444707563242  0.5360938602594512  0.0898795107083463
  0.6538828097102719  0.0307874987340865  0.0300885762327634
  0.4511239289725733  0.5943202638140535  0.3914144497086601
  0.1089403285677378  0.3922635842275002  0.9357665724499894
  0.1475563851524295  0.1801782131034775  0.6474709860877854
  0.3684472959395073  0.1689151687589664  0.6863088422642563
  0.7684040370496469  0.9440521078459494  0.6698950072456801
  0.8319847275476021  0.5886846492046666  0.2746503516602203
  0.4459082599640837  0.6063169477670056  0.2683890259251213
  0.3143239315626289  0.6439059971887516  0.9667401832286251
  0.2340572615759046  0.2496690589993651  0.6138535466900387
  0.4779412305983720  0.7112982868784952  0.5037800523840069
  0.4228778185948436  0.3595259775274394  0.6208302464260790
  0.8281999093630339  0.7635895804594158  0.3711015781537244
  0.1683701722255290  0.0981892347254151  0.7547080835477680
  0.9202520525163269  0.9061973007106988  0.0539740764588048
  0.6050855174486997  0.0210123539771976  0.8222553416435867
  0.7807519107547393  0.1196792641641081  0.5189808027848514
  0.7514905979622067  0.8104787576045889  0.3550469683291383
  0.3515821400990778  0.1453260540586338  0.9366659596015577
  0.5560119855061769  0.5097491633045192  0.6724597839192946
  0.4101620731038072  0.7177514383317444  0.9040064567214537
  0.4824802222068457  0.1352156468857449  0.3062932246384885
  0.3334480409875257  0.3062003777696389  0.4963899086327264
  0.1435655998709547  0.8825919810491347  0.2877075723843807
  0.7043410611761238  0.0382709542281258  0.9701465037765664
  0.2490798252779841  0.1138130257577172  0.0008817928540362
  0.1481599155576919  0.3369861171845934  0.3972067424348881
  0.9581819362725748  0.3271105084311423  0.5624643334319271
  0.5223802157031217  0.6434686806959103  0.9575909641687238
  0.9076856137451934  0.8885487601601684  0.6344432530734629
  0.5617996421122022  0.4280024280815802  0.5261189228291216
  0.5054962484639921  0.7687895824373193  0.1486717907435796
  0.1543205061451959  0.6624801051086409  0.0144201646156325
  0.9082726594873259  0.8372433495674159  0.0723432950834768
  0.2060502919937784  0.7640310945897791  0.7119469837894580
  0.1119762770079220  0.3289506895615969  0.3010953466953669
  0.7438772160254282  0.2033499284674212  0.2234637998988775
  0.2016617057201722  0.5604073467614266  0.7763253812120753
  0.2677909374313741  0.2055048694873355  0.5354438960005834
  0.3650599544490622  0.6094772953987491  0.2139242517318141
  0.5641224444458066  0.9633845172195127  0.1372476516768248
  0.6558571846956996  0.2879826843641232  0.7103284801661095
  0.2061369383125154  0.7918920707630607  0.3595588819713422
  0.5850304195209204  0.8480304159021939  0.5084717486445963
  0.3988019904039091  0.8242534740838042  0.2043851176168424
  0.4620795697191158  0.5004110077775218  0.6310208024962084
  0.4896761689248514  0.6510376954967824  0.4921614406507172
  0.6993556466793454  0.1127143666711480  0.0857512365316831
  0.4455592020933852  0.9834638465546172  0.2315210855830405
  0.9406471863608857  0.7752457972833794  0.7656504762061834
  0.2677758570843998  0.9348008754147803  0.5881925282867052
  0.2839883892163017  0.6525186349924136  0.4737634660082611
  0.3481005638900747  0.2211687091990350  0.9194092345392937
  0.6944073357577754  0.7843101798296835  0.0980250120908940
  0.8926167267507704  0.6709235041351390  0.2326827037257939
  0.6488510323716392  0.8029283770997901  0.2854244591467399
  0.4440180397414529  0.1922604816249443  0.9121261182530992
  0.5046306720165438  0.4374399561546455  0.8499036860716799
  0.9421883972655372  0.9696375890137796  0.4240979976138599
  0.9532162006408392  0.4329278463401117  0.0572855084688540
  0.4130085008269894  0.2022997053630994  0.2947727912569812
  0.2956962355592276  0.2279502207039103  0.5713094842371126
  0.7438084311631004  0.8830875767984590  0.4099522119377414
  0.6315562146495227  0.7313277109897791  0.7088558648969214
  0.2855395596585862  0.5011772674095569  0.7234482927649307
  0.5655751535191192  0.4183442616436941  0.1347536327052108
  0.3501014044572442  0.2786590970553857  0.1697070233784985
  0.3791396355327045  0.0059225058850854  0.8603645521494125
  0.9647143647853625  0.7392695465770869  0.2108024689814688
  0.8603706673257525  0.9582893746969463  0.4121415093724504
  0.9131313050418499  0.7453673067928958  0.6734351166255453
  0.5818499216177293  0.5841600014974266  0.8174596382979040
  0.4556766434715576  0.8975059527859200  0.7464303201253815
  0.0319023238701878  0.9093149684575305  0.6607932741599718
  0.1671733787989451  0.8104873965391108  0.2557630194518680
  0.1720729839353690  0.4796130183476923  0.1384302292564773
  0.3537974126358163  0.0347916414277705  0.4146224454981163
  0.5918030241305109  0.2220186403728093  0.6826264029779174
  0.6725552093676218  0.5187132224598167  0.9147829145036632
  0.0515508662988532  0.4228437545836805  0.0418371857210231
  0.8008648649137208  0.6283419465855746  0.1136809335566435
  0.6940916740553527  0.5177946176764610  0.5475166228659317
  0.6736368105349471  0.3809266154680797  0.2673928545971710
  0.7734504279732333  0.6367982924878396  0.9159384598824043
  0.9002065523164988  0.1250205271160172  0.1441982077237372
  0.7966445989901785  0.7877190404224025  0.7358385255755858
  0.4723710921888332  0.4853627276002747  0.0353766919286637
  0.1008417579742416  0.3534010675266619  0.0188706482893546
  0.8223143560115260  0.7588367089841314  0.0037088318467772
  0.7858236705882969  0.0537601001400060  0.0264673014415073
  0.4171751470493407  0.1237546549025369  0.3557856072570315
  0.4075659040667743  0.5027710909834529  0.6959639309674323
  0.4757097493617131  0.3896712128476904  0.8883874957056849
  0.1581988251680303  0.8781575437320154  0.2155629658978436
  0.1570863841671465  0.2655311646036139  0.5547924922403947
  0.4789755071888518  0.9125236063404003  0.9981075135409713
  0.8672043509358613  0.6354002758474026  0.4080022526140725
  0.5485940086024113  0.5214848397873654  0.8705590527157976
  0.7773139349678189  0.1898503881562397  0.0025135632104675
  0.0333936357419219  0.2917686233760288  0.2117137796331284
  0.8705928996048151  0.4056824510972552  0.1364986040394157
  0.7431441988714058  0.8821142483730970  0.3605268317487494
  0.5914097703419268  0.1524972987106622  0.9066689776922426
  0.4690676403054605  0.7166999659795280  0.4284300046220761
  0.9369269325586569  0.1738132891979713  0.9287586807897045
  0.0216972522924699  0.7426103122012057  0.2229212776443512
  0.6392965791391180  0.2751388365710741  0.2328358189891691
  0.0689816477148339  0.3138020441479507  0.6546973732369077
  0.8908141245232549  0.9714239528886874  0.0035176178102093
  0.6626389936041276  0.2329964434908995  0.9198247248119727
  0.6651461181249676  0.0663642130263671  0.2066949662180495
  0.7208505163297609  0.5846635400266943  0.5050619716618021
  0.8263847790689128  0.7020604189502599  0.4970232943187478
  0.4740134821729301  0.7789638309067404  0.5758071960925950
  0.0662907712303185  0.0116362844564463  0.0952886250270390
  0.8381952064257766  0.7176992940406758  0.7963065370339760
  0.6764895062773584  0.5431397067419272  0.2246520533926147
  0.8030526416312043  0.1412118065502576  0.6253276882475884
  0.5169807971156494  0.2083687135204553  0.9140364885960929
  0.5837408241177023  0.0235046253109555  0.1376985754073743
  0.3371931037835753  0.3581786578883087  0.8474569742517614
  0.0838979743803479  0.3111202999736317  0.9745826458859816
  0.8509331276328704  0.5571500178715604  0.5245701919838608
  0.1765067752754695  0.0815273890016088  0.2965458563256486
  0.0353229655324594  0.2683676047102097  0.5800515420722092
  0.1646155517141391  0.6439776866106099  0.3876993443126101
  0.4909485008683505  0.5359380279590676  0.2885101633580573
  0.4337131366834133  0.3822653606684095  0.8663659391817186
  0.2922280671262352  0.8494694044518118  0.9179657629366597
  0.5334860650285947  0.4628209603753377  0.0024631511281419
  0.9383248713224288  0.9817515249724260  0.1498969712830948
  0.7695687951300366  0.1924298518102319  0.1038113798717067
  0.5864755660857260  0.6462735535482359  0.0692037046927588
  0.1383058555010408  0.5273865739251763  0.9808055687896345
  0.9195981343544345  0.3963178601520797  0.5489518694337771
  0.1185010457089978  0.4087613073767813  0.3947502413833899
  0.3226009354863877  0.2974428084903483  0.5705611360877058
  0.6250769443100719  0.9146816985499364  0.0515595764914476
  0.7195949344469108  0.7811768273748338  0.1822752555831922
  0.2749890787915574  0.7905145048244102  0.9446392367166334
  0.5218117453494461  0.2392673002523953  0.7830833394283251
  0.3093369982765536  0.0235412101399694  0.4203718768319681
  0.1966098909584428  0.3365968393780718  0.3890925975972959
  0.2730755919979671  0.0161146878898774  0.8300434154583028
  0.5087597753989921  0.5460391534251398  0.0639770861337909
  0.3489461493293549  0.5656353323901335  0.9469670355761559
  0.6875176261290659  0.9691734834448430  0.7815767658868592
  0.1232471349143244  0.9469094154310045  0.2045433815279671
  0.2368654697605965  0.8502292008616475  0.5191922253838511
  0.2474363404611291  0.0650279203788064  0.8857163616512871
  0.9780347173758080  0.9018157188829716  0.9798401213270427
  0.0879903316487775  0.3561056077729806  0.4830152519720670
  0.6964733356960110  0.9717545631874159  0.8081205873553231
  0.7631077924566863  0.3479684303272672  0.6787862658516710
  0.9967298119524450  0.0251161579960689  0.0155235510122712
  0.4179978980417994  0.7751122046257778  0.9150810280092142
  0.4082725008629058  0.0312479675340422  0.1358150682440274
  0.1860437191810393  0.8749383273632064  0.2172839204105009
  0.2693949804246489  0.0632483004583749  0.9724582486163387
  0.8847732271823603  0.6174082705429098  0.5538256726051702
  0.8983412845728266  0.8327350176663177  0.9983660740703767
  0.7967018488929452  0.0595741649443573  0.7773434752981195
  0.0063820586691449  0.3698758300605923  0.8691160411710432
  0.9553712342233056  0.0901570577109087  0.2644768597369250
  0.8091073336439718  0.5007356418836142  0.3695247397722647
  0.1838162145036280  0.6741385505103544  0.0820953243827137
  0.9747799258536530  0.1935326933760407  0.6232165126413581
  0.3239857843679979  0.5932607769123041  0.4060310166135928
  0.8652899219530418  0.7780983124386079  0.7644107242334416
  0.0659770097949634  0.8202105640311232  0.3586458711057794
  0.3304869556787108  0.6502114525095843  0.4912831881580925
  0.3392658419676062  0.2820493510927057  0.2177849054392440
  0.1313356897793548  0.3905551661780058  0.8829867242366031
  0.1482499677975226  0.9213750841128060  0.9330107157366649
  0.1593084937885165  0.0621860711398744  0.9373693300923417
  0.4256182120114264  0.1553681265327261  0.0694401450392323
  0.7419477516461078  0.2715560001070351  0.1568833790404978
  0.3578977978234526  0.5754544189488785  0.5307746205607492
  0.4344256518567645  0.4967772885690859  0.6260496110724348
  0.8225490552425206  0.6915986957029331  0.2328562395582734
  0.4817793716337931  0.2803267422490931  0.2411168708252698
  0.8927540614844656  0.4539192272900337  0.8907565997617992
  0.9036038050956392  0.9152929331259057  0.1051095419930080
  0.8103521094524117  0.7050787612889940  0.1428688406765555
  0.8425112226680186  0.5604219402410561  0.4977886566086973
  0.7384022238248947  0.1328831708021074  0.2352728395898389
  0.0950629453192527  0.5702133611005854  0.4374432065697143
  0.2836593650423712  0.0069558763839026  0.3836478725984365
  0.5524446398319116  0.8323780537260798  0.8040452046329144
  0.6047807719277420  0.1556628397247570  0.1213539316937308
  0.5292986108246098  0.3083814201075179  0.7721610472987497
  0.6434711447779127  0.7286243033325880  0.3221847979515107
  0.3555248142570218  0.4358025093519421  0.7533449800562166
  0.4994207571334645  0.5393961324371227  0.2396080430001933
  0.5460309451799324  0.5757612597042153  0.6439210514718107
  0.4364136477202638  0.8483342197601691  0.9071096431322003
  0.3132593727425366  0.0012083121434789  0.9303020269575210
  0.6176261869808329  0.6476151631740845  0.1361566064128195
  0.1721394716791822  0.5269156001738001  0.8629634991219799
  0.7740263305622251  0.9157344474930934  0.5324914665565156
  0.6875704172412371  0.2126202338000942  0.7038009309375300
  0.4470195475492704  0.1231254807152364  0.3955757772437543
  0.0563026236312304  0.4627973720775109  0.2594467609020316
  0.4483204392411871  0.0993535767294018  0.0343782453144606
  0.3663678687567077  0.2164203659688717  0.1304882748821042
  0.8944866020169951  0.9853887804187903  0.1733926778693410
  0.6045840654400000  0.2292688718805481  0.0878807292423816
  0.9758841721154480  0.2721025712775643  0.2712857223574392
  0.7235668079271720  0.6922626202739687  0.2261442091201806
  0.8241735490440187  0.7683267074757772  0.1959371429802454
  0.1263515569747822  0.4614940943338155  0.8947796078949800
  0.2898967995239300  0.5406764790494119  0.6386184763567760
  0.7477368191548803  0.3310758530213182  0.4936441871945172
  0.9174188450188491  0.3055448469727517  0.4408408080207094
  0.0755522840301791  0.3195743580720706  0.3665453469359424
  0.9587487270723728  0.5409261999205618  0.6210789797191235
  0.0459415335990783  0.2771521937836102  0.5315684544326982
  0.1919535362396462  0.7331589261804922  0.3131592024446433
  0.3248833333711887  0.3954152826948233  0.5640203591949589
  0.8314626480014072  0.3286494247265021  0.9422075547876199
  0.3773219909472674  0.2259145585744817  0.0827562073281552
  0.8188194440684069  0.0028612234370244  0.6794617208304147
  0.1195330615485506  0.1143214372323078  0.9421219980237546
  0.6606211661384730  0.1852010620446097  0.4227726188684451
  0.5845003218561717  0.4402098763701177  0.4398934988400880
  0.2268622266774901  0.8945872749608060  0.6674151932611903
  0.7844467579376895  0.9027566319771373  0.4832324132930533
  0.6894448045680172  0.7140538557210749  0.1341467423525577
  0.5555258476581032  0.4445814945317799  0.4338777860054581
  0.4963735979182043  0.3203178710056581  0.4084295063667108
  0.5905940804680535  0.3708511207507127  0.4640646258007244
  0.9606851318691652  0.3056555012869759  0.8574848678573858
  0.2943387441995243  0.3004111501263355  0.9808850107842028
  0.1252455256931262  0.2143949266506169  0.4290651605308085
  0.0759758782924096  0.9792315212848317  0.4881820380035266
  0.6323911903937297  0.9651047769545867  0.8173438257275670
  0.7828522116656415  0.1261024111394983  0.8010799835795389
  0.8457521742937298  0.2689427530877388  0.7307590865332190
  0.4292849587980448  0.1287398266168004  0.4942250602739467
  0.7851875624227498  0.8580169226167369  0.5553426754587441
  0.1415357653077523  0.7800161657059548  0.3974081617753816
  0.6487270264330435  0.6675770195757192  0.6878683104603792
  0.8320031442579443  0.1310957865289588  0.1943839769769989
  0.7905271837587040  0.8390345639439976  0.4602712665595866
  0.2804212545699680  0.7129188532270568  0.9939692749106839
  0.4862041024918655  0.2413012144898324  0.0409157441948020
  0.7354882044048378  0.2709933864500793  0.7673883728503242
  0.7452223171582917  0.6002530098588638  0.2662453442293117
  0.1517319018437226  0.7764288254356677  0.4235783362354522
  0.5254850923909896  0.9211317824669899  0.4341240569887204
  0.9854332973884312  0.2273533874526710  0.2958251696563224
  0.1244227867387401  0.4679639120743872  0.9713125484762234
  0.9887803216781338  0.2326109289094236  0.8599673061720415
  0.2041376278710891  0.9172608608628968  0.9818370405587202
  0.0399039533787454  0.6685274318828566  0.2379830605617475
  0.5709231234210079  0.0870118813987291  0.0059251936064390
  0.3671732839540038  0.6906091458372325  0.0416793286610842
  0.7281689295554559  0.8917610112296980  0.7648113306335861
  0.8852149196105270  0.5321279423172169  0.0158436533842335
  0.8868917536579075  0.3350684325934724  0.1459424139616856
  0.6529627021221218  0.9642636565013727  0.8367798209630140
  0.8420532962992002  0.0573783720389436  0.2416986740217170
  0.6213799322460847  0.3011872428100109  0.8525090958573315
  0.9533159889240624  0.5295456368307642  0.0488985125039613
  0.5071983554674587  0.2828710776882144  0.3203161228541806
  0.2351053276131131  0.8537556611973156  0.4127650858243755
  0.9057979881765742  0.9222526337807435  0.1526023082405473
  0.0858953637253966  0.1062332992610275  0.6936602911473496
  0.4440537591736059  0.2005842178438315  0.5073420405164302
  0.8492940796604591  0.5943215187098554  0.2513806781111078
  0.6263570839835857  0.4352604051718628  0.2156998011130319
  0.1160615818268922  0.4170150767273219  0.4922883386157038
  0.8289693020783843  0.9065772441504646  0.5080363478669838
  0.2623425530851514  0.8312576325203679  0.8270571117525267
  0.7841990108911259  0.9170729498241879  0.9424749644303291
  0.8164920970727714  0.7343847790556191  0.9569635652358937
  0.6557600762364351  0.8477048150298118  0.4819976419469222
  0.2603498718071007  0.3945269947508029  0.3471675310200144
  0.4006219429138059  0.4296968333614196  0.5113282720227570
  0.7270567981055669  0.1225888815660608  0.1232443195227317
  0.4967364382593509  0.9079488201815303  0.6855745098781676
  0.9587976843401183  0.4075249694239011  0.1311215395529007
  0.1262448188390460  0.7343464979499086  0.1482446646069966
  0.4221963946332427  0.7636050242300767  0.6217796558709338
  0.5825716072312825  0.6009567606305881  0.3273441350458222
  0.3265996983248441  0.8869112045801825  0.4428589779259264
  0.1948017223405694  0.5289968970593469  0.9901684947359211
  0.9278197949264954  0.2037172850420653  0.1521001012580706
  0.5412946692416817  0.8487607893258103  0.4860475694668212
  0.9650149924563296  0.3269641214049721  0.3038615207067068
  0.2903124968731063  0.7943430204884858  0.3731484416688741
  0.5160142978403552  0.0315746182720784  0.7794178662764893
  0.7404370355074031  0.0467970435720029  0.9365986631350139
  0.1583472368491729  0.8515472657851504  0.9498679105341726
  0.0161343262651067  0.4808856278828330  0.4279163479991244
  0.2144173121038880  0.5429619996650629  0.8464149351532039
  0.8990626208560693  0.3890124657848637  0.9206871393120253
  0.8640090069961485  0.1398876813768556  0.7012914492205538
  0.3246440186091100  0.3006944370266048  0.0245996940785085
  0.7899045776211991  0.9767737283434577  0.1258824674271540
  0.0889266216002500  0.8064028503558039  0.5841063722089047
  0.1915710927397207  0.4006268380410080  0.9972113087897795
  0.9728301899833239  0.6102528176116547  0.2349386795492865
  0.2630594745131296  0.0256722506931558  0.4217438294368232
  0.5446545535849481  0.1457830478147656  0.2286765617145337
  0.5389384874717160  0.7845461737390206  0.0046680162614174
  0.0526021773158460  0.0430044709425028  0.6670571462154224
  0.7441116609060745  0.5669503465880501  0.3842482161274361
  0.2089060094804372  0.3354968234597228  0.4750105669055685
  0.2618046065735524  0.2036741269831707  0.3394074407258946
  0.4535295793789522  0.1425662703583341  0.5623619865557041
  0.2291424717133722  0.6921195056069986  0.7037559752816755
  0.8533837137668449  0.7294007370562496  0.7136925834027064
  0.6749183034346899  0.3838650434936796  0.9766696604525205
  0.3221217240911295  0.8889906514217336  0.6299570926712647
  0.1605775192800507  0.9790225298545744  0.4991668359969417
  0.0466633952220296  0.8365584241606132  0.8539898881552684
  0.3432327338375258  0.7493631658637786  0.1874520452732084
  0.5033399620162399  0.1824185638852879  0.8423948113829035
  0.4539566313693951  0.6427459224861691  0.7951185655757217
  0.9965625085240213  0.5436363072269806  0.5789654134267619
  0.1412655233526705  0.6662622225363888  0.9281077228929298
  0.0103275466501947  0.4743125305165911  0.4757639896934137
  0.7634981808198802  0.5637651199591969  0.8905595329688980
  0.2776586728042838  0.3103982427170029  0.0255949518915297
  0.2225682908590180  0.1218549096446477  0.3935915396075436
  0.5863868281747515  0.9612978168608525  0.1804227607214916
  0.0019157855253322  0.0941174531635442  0.2802195103140322
  0.9401420835661469  0.3154343582925613  0.7447230493342680
  0.1235046873798307  0.0161511555165375  0.2007845646325893
  0.1812584987824200  0.1160960819817058  0.5076812071868648
  0.1607416677793230  0.5289428600617228  0.8370265560046593
  0.3338761121638080  0.6402280592075930  0.7663593113844779
  0.2561431511488844  0.3848494387269021  0.6345568173609444
  0.8948586875794996  0.9106124614333397  0.5458278364003245
  0.5194903853204235  0.9281299807585689  0.9065607180721394
  0.7293748090203032  0.1927458340876236  0.4462443638400893
  0.9517217304307640  0.0630965368441999  0.6809976660671228
  0.1803138953660834  0.4721631732386589  0.0364176556919337
  0.6111663700191798  0.0308876917252789  0.7501925374485660
  0.7109328098210200  0.0379238716139900  0.7935413851512297
  0.1872260332634592  0.6290656756777016  0.7373604870530022
  0.6701455375763280  0.0208767540823553  0.8533777731453031
  0.0279739026699547  0.7732653468404294  0.7116190605335532
  0.8238758866208682  0.1931771980074779  0.4721154066665185
  0.1311368125013789  0.4327512869804401  0.2039984529707048
  0.5078341376955398  0.7744824328786500  0.0729208423444863
  0.5572701935814485  0.4691728187524284  0.2822821098089198
  0.5600661035567287  0.0043513639062311  0.4899313900888722
  0.0358566791048976  0.6392407269119902  0.7695433559679614
  0.9786539598959494  0.9449330569308032  0.1870457761606400
  0.5323790683463030  0.3141210814192801  0.3776567708601196
  0.3922700622687410  0.9021922098090834  0.6094657186590001
  0.9447971167195709  0.3115018966772681  0.7726320545560004
  0.5968162701294986  0.1703621186654184  0.4755199249877224
  0.3638703300777871  0.0994300858932121  0.7319969842726805
  0.9212304489431989  0.1837314614107096  0.5586228461358164
  0.4650418567774041  0.4023310221960786  0.0116766363733485
  0.8106882837520479  0.7166162072255839  0.8045016500581462
  0.0575044112001498  0.6653156070370080  0.0321870704435520
  0.4102983454267948  0.9901980907796510  0.3629093574934414
  0.2148597862650812  0.6041057644606406  0.9807593729777564
  0.7578026357238336  0.2794910714598223  0.6417370687057381
  0.2183753013363739  0.0332867630466360  0.7136770134438555
  0.9296970610153709  0.6646678872881600  0.1684536358902773
  0.5447315672993860  0.9306660834510889  0.3618873689174327
  0.5266997747849315  0.9922481636717996  0.6504477985994779
  0.1083427586982864  0.0386114442305941  0.6832086262272112
  0.4987621017193281  0.7114509684644886  0.5230235654033368
  0.0288233613520546  0.2935096219178271  0.0338101804464274
  0.3429768782089867  0.9989083314625343  0.9270031999333004
  0.0125343093067570  0.7751209164667524  0.3973420154535370
  0.2794925843584776  0.3070857451976523  0.0539474721117216
  0.0628754622267557  0.8856494485639470  0.0904479526238157
  0.2721539505668399  0.3696533777244938  0.9213733916491806
  0.8495207426881243  0.8836941490981384  0.2612652616869497
  0.4444366599694002  0.3553536895702147  0.1238329495780636
  0.3397340438806251  0.8869025358724640  0.8002615446120320
  0.3573377161420776  0.7559964000245173  0.1329318239041123
  0.5445299087698324  0.9118277387677913  0.6819968697765757
  0.3342065504093943  0.6186460056531093  0.0465780553680983
  0.8460205534941799  0.7010663874047263  0.0529319093441415
  0.0548161727703262  0.9446683193697298  0.1058168817831682
  0.2162314337112625  0.4040051899590349  0.4193051046217468
  0.1032174578498967  0.2856459400393876  0.4698710403036078
  0.0033694750466436  0.9138815222218594  0.9165675410268729
  0.9102933761326037  0.6299185077957968  0.4253116303005440
  0.5079389924500711  0.0713284422131898  0.3240600978823086
  0.8219996678434180  0.9243351346899892  0.5902887620131032
  0.3881039849461972  0.5347537906607120  0.2953508899873709
  0.1819885467912963  0.8621544187821809  0.3599108002460517
  0.3860804767518179  0.8997723361110509  0.5221218759621182
  0.3640089201217906  0.7043578537081286  0.7957317767235917
  0.0922491227241570  0.0237452560684509  0.2961530449061877
  0.9060611408030994  0.7461830918419249  0.2736052601776434
  0.1968658055431309  0.1182768591021647  0.5829353288803721
  0.3132095715718414  0.6030042206386184  0.3325955497243808
  0.6233219292778551  0.5861702051746565  0.0389733732258213
  0.1880077713232299  0.1029081325495571  0.7102856907827928
  0.5869882403039498  0.4110016011224309  0.2849647773143368
  0.5703671241248581  0.6031225469456810  0.3020097577370853
  0.4916181463137126  0.3155095944190175  0.9117531453295122
  0.0345770184648993  0.9080307148017722  0.6890351352581799
  0.9953210009795295  0.1366332166088958  0.1299104897911734
  0.7847515511392026  0.2785318129069157  0.6515007130662616
  0.2502015444803710  0.3702642611287356  0.8023839676332954
  0.6671798744744677  0.7181466172242928  0.0531319637129084
  0.9052666275876207  0.7794439998332950  0.1790468696211359
  0.9862292472536233  0.6812066687669295  0.6309354197542369
  0.3863435319506182  0.2835207770812279  0.2023105486160757
  0.8740115825508105  0.6097477384608636  0.9840441102293478
  0.0627704527890147  0.7029611703520383  0.7259856359871527
  0.0731584378486606  0.0162618791862047  0.1792221474727782
  0.9737447689368103  0.8981561614305457  0.0363182127810575
  0.5234346935420889  0.3166694089641431  0.4043046654219812
  0.5878534090217380  0.9393616655026715  0.6047587984830954
  0.5284417544203952  0.2166056442932212  0.1717372109956596
  0.8929504971577580  0.6957085647196931  0.4246455004949970
  0.1747805065610473  0.9207845583187422  0.9432393565982281
  0.2466707872871366  0.5715392504344678  0.3995644390558371
  0.8465829568898660  0.3279684824706527  0.3035738885198067
  0.5023421296450882  0.5732412113106230  0.6665016963344763
  0.8172627157715353  0.9734933910510356  0.0848359875845481
  0.7996092791015653  0.9911818829885172  0.7233715491098395
  0.3234691871273208  0.4917731993701361  0.9856144517934452
  0.3415483036456205  0.8809771045152190  0.1805232039582185
  0.6695857777332254  0.0240658999879593  0.6901156171932168
  0.1647460888913206  0.7789837196878996  0.5229745412356241
  0.4432264157391498  0.4713261677227873  0.9562226660236350
  0.0805860597036872  0.8829531035491852  0.0667280974375161
  0.2461176567884436  0.7156483362620072  0.9595755118439405
  0.3060999535596766  0.6923244417498717  0.7380746749047143
  0.4344267202405953  0.2919907788394582  0.0375482449309521
  0.9079870040106524  0.8383415986825418  0.5880058107958460
  0.1273051543131521  0.6909714985291194  0.6700312303838631
  0.9471495251595659  0.9073910335756360  0.8376156801221488
  0.8630746850193701  0.7343611010431458  0.9474863549115314
  0.8119053649407172  0.6534489469962016  0.7306365811208578
  0.3257671908710017  0.8218155895663719  0.6474399001768781
  0.2453784045971554  0.7128608584282204  0.4235566195032780
  0.1533692109136115  0.7280373514065968  0.1541191016677732
  0.6651803326661236  0.9187219827373572  0.0256205279092391
  0.7137096722037736  0.0422135840654317  0.0903679687610752
  0.7563330167354603  0.2795194972144746  0.6877623671316878
  0.4331285879067726  0.0457381706597799  0.1750383329085992
  0.4973739394889954  0.3595168884361147  0.6906514226026993
  0.5694882218541644  0.0138356946171399  0.3133471360885062
  0.2144908033975461  0.9960879368916039  0.4119446025996813
  0.7094614762345536  0.6266158371716499  0.1682805061088829
  0.6993209320559535  0.7207415584121166  0.9078008480924434
  0.7106203286721197  0.4387651071955459  0.7702615723264987
  0.5851184608416076  0.6545941444020162  0.9956924156983955
  0.1146583360684705  0.5090842475602128  0.3515760476538786
  0.3602116923057030  0.3534094446052264  0.1367991102459916
  0.3770119749312904  0.6471061093018551  0.5096329627365163
  0.8835891914895767  0.0537390805736809  0.8333747145678246
  0.3700185609167166  0.5191097836728575  0.3877361689455036
  0.8087730412090830  0.7131467555499847  0.8329477288489076
  0.8822075361041806  0.9809932715744809  0.1485043066724699
  0.7970053837743121  0.0514920726562821  0.8502506897280829
  0.6178550758751473  0.2187687098293698  0.2176173163549227
  0.3245615671544069  0.6582474670192351  0.4436398241639059
  0.1662009476025354  0.6040043798198926  0.0930082639356447
  0.6859250252855674  0.0555915506755774  0.4288321072104556
  0.6745144105880894  0.7846644099789387  0.1185228501163938
  0.1320723493446348  0.7707573018068328  0.8096483075572425
  0.7105878502703876  0.6026573167863372  0.6984607550919615
  0.7383904837534541  0.7845269338165390  0.4479972803738768
  0.1623371476036354  0.5985762914040371  0.8916719469212903
  0.4548090399848198  0.2754026880248027  0.3092982907047504
  0.9448625451210526  0.9117138098731814  0.5415421692221054
  0.5959376953150286  0.2508179993687068  0.4076530186770787
  0.2270270165626264  0.9882919394089397  0.1070533769461721
  0.2159132438888907  0.9517545248449707  0.5821518223076969
  0.6342363065986503  0.9971395029549173  0.4849578603709187
  0.0557418073103232  0.9611925562730188  0.3418739870411838
  0.4511044625564862  0.9134115710500045  0.9580405867355744
  0.9939785033822445  0.4503368365161402  0.9726124000100691
  0.1282201086732929  0.3329045183937514  0.5750874155372667
  0.2897956082251937  0.5095985736203050  0.1861534352955624
  0.7734020262377247  0.7026832839777104  0.1753365092220521
  0.0413371817544179  0.8287362668908788  0.6479355785379914
  0.7884457107382885  0.7944629687623791  0.6620804440983505
  0.8685643229934348  0.5837935237039024  0.8399068443726846
  0.3581657673310309  0.1125968550635257  0.6188156389690522
  0.2791253232033007  0.1320678118149397  0.4982493365666742
  0.9391685203641780  0.0476845291282499  0.5046365581406828
  0.7244115355977480  0.9148334553336412  0.0719401919692215
  0.6447332284099985  0.8564377728026947  0.1915910297973365
  0.2178148161762969  0.3360203899515451  0.0784179191297047
  0.4380917624250583  0.8382995948642995  0.2236039775345746
  0.4438535380725662  0.5700048226202135  0.9602473263646795
  0.5288333895679863  0.9182381083133789  0.9942671443855334
  0.7657762773470542  0.3266455868436859  0.9961499712632939
  0.4333769402002057  0.7243766345450849  0.3622632422059136
  0.8901935953787272  0.7840355106497824  0.8857077965737179
  0.4158913423357202  0.8299807475917276  0.7400610468094367
  0.2374066728228857  0.2332674183690352  0.8491033373801039
  0.8584895090886669  0.6825064740396740  0.0100325174673507
  0.0444150713891664  0.5973713518350893  0.0517806703071796
  0.2652784280808819  0.2003875251373460  0.5062664431959250
  0.5074696342072480  0.4125778609947898  0.1833926625637554
  0.5414262391954949  0.9615371772039679  0.1200971215749098
  0.0734821032584476  0.4133593913974880  0.5169169291296623
  0.5723071753387541  0.7556067748064910  0.7238142248027064
  0.1067996944843800  0.3289664285709518  0.2728968230494276
  0.1364094982797719  0.9209896546118250  0.0304438821336688
  0.9874292354038219  0.2653514085008148  0.5937511136102904
  0.8524844514957699  0.9674669155005550  0.4604801368374798
  0.1605311396109228  0.4061810103261829  0.3700407566921646
  0.0760475010195595  0.2843167161544450  0.0939216266454729
  0.5358164220894286  0.6474806727777191  0.5096334327956542
  0.5480230551403310  0.8588726077946055  0.9052773786156721
  0.3606534826662876  0.5030432838250285  0.7116089192576830
  0.3746074707262919  0.9221918966767668  0.9221468949633496
  0.2016470875014902  0.8706590655562924  0.1947937585314663
  0.7805358710318088  0.4735563237343116  0.6892677945289577
  0.6406126819735660  0.2433363914679103  0.3455588946380598
  0.2558496645617848  0.4906467001851408  0.8465877328928242
  0.0936529134046140  0.0358817016582773  0.7304969515541131
  0.9031946296275872  0.7625697545707372  0.5220741919630117
  0.2783141411178935  0.3451418223877566  0.1574699738397748
  0.2504717546754318  0.1233767603545140  0.9121210056098795
  0.0874965318221303  0.8287535175746334  0.7314634411478153
  0.8169149245690449  0.2017291567044139  0.7747637347419043
  0.2690934354956543  0.3079759236330760  0.9698739694891275
  0.3916380211489787  0.7522011448311754  0.1962871942200637
  0.9415929113278600  0.9711957079013375  0.1021020894265014
  0.3364297469833414  0.2273329365676838  0.5303424881943344
  0.1528808879684060  0.1666203243620615  0.7699352812759410
  0.5546051176261051  0.1583576156981348  0.3404491697854463
  0.4851756866447826  0.2596478261687606  0.3855028539729643
  0.2446449883639998  0.5595498823807802  0.7057567369967745
  0.3476079884671757  0.7135638032152406  0.9620589682866866
  0.0953309512939333  0.7571015073852605  0.6419425605585930
  0.3716913610572067  0.8285990200582695  0.7189961266395399
  0.4139238112769471  0.5407408491166871  0.2249909020230368
  0.7940444183637546  0.8522822819895098  0.8447299531662367
  0.4371941825163144  0.3974954609593200  0.0132160613478411
  0.4226341950033251  0.2619837266001983  0.4979157866028753
  0.6946036258200798  0.2745135860299243  0.2454367563084813
  0.9673280110866572  0.2337958062059869  0.8418880176233663
  0.6022850970525104  0.2282198421043126  0.8597732997641663
  0.5664055675967805  0.5183044265693704  0.7736789662675797
  0.4452033474519979  0.0618699665888555  0.6142387851567491
  0.5263988373562254  0.0804573530706370  0.8851652923214565
  0.1384015504862513  0.7693576561515083  0.7821955137312989
  0.5650771362161999  0.4164046913377014  0.0843960050305040
  0.3308887969771915  0.5754522686140954  0.9062110100755044
  0.8949039336914066  0.1816969744557637  0.9113015725173020
  0.9659727956043932  0.7589843881031403  0.6548534308704614
  0.5028799527103713  0.5269888185555182  0.3906661995715843
  0.3398087991551505  0.6756684090358825  0.2662581158361029
  0.1778368536882863  0.1181143320215567  0.5352597428323407
  0.1308066978246032  0.8497806801589062  0.4260290885637056
  0.5172663282495166  0.7144507666378082  0.8829097125477906
  0.9997907554614752  0.2918051019846236  0.4702632076420371
  0.5082442343170782  0.4067845791766153  0.0348966247315853
  0.7449728018400077  0.6557934751253002  0.7813193655034111
  0.9006482074143916  0.3874676010821070  0.9696169191497185
  0.2333369272038737  0.0385971101288849  0.6665037885977032
  0.2115090155294968  0.8487601883496068  0.5093199093513844
  0.6523471159851008  0.2157317383922861  0.2509883267495266
  0.6677078945014795  0.2332762990349191  0.5234394277228230
  0.7505692130981370  0.5715658427884776  0.8662461301085829
  0.7323922783446126  0.5219193517373595  0.5785451145491139
  0.9401498594851727  0.6745270512196737  0.6152574033087260
  0.8276175409631651  0.6363474630013881  0.4375128993377360
  0.8731169959807105  0.6680237374823703  0.9650703451469073
  0.0541271098440204  0.5700594633150899  0.7255309287806055
  0.0947019553626998  0.9055510903787592  0.8544209703895665
  0.1157836338909836  0.8856314664900549  0.2862253539070166
  0.6181052462033439  0.2332110971037769  0.5349862124195796
  0.6830045836842538  0.9142915595546184  0.0987354686731766
  0.3495482156694821  0.9334551562273508  0.3951595668804808
  0.3968275444360152  0.1863133740014219  0.4190216869650752
  0.9527971271559147  0.3835025480298119  0.4041113110961443
  0.8450108046232928  0.7626009913747733  0.2159263136104863
  0.1493992664648373  0.9436025539622904  0.3818522326896368
  0.8424338842456064  0.4778316695603745  0.6532645469735600
  0.7377338130318633  0.7160298338088589  0.8662760078674928
  0.5405387367450009  0.7065031578950578  0.7991168165942190
  0.6202020324580283  0.2835380262823581  0.1822040550254761
  0.0998185929811102  0.9722112645441532  0.6148268031350759
  0.3355817120893951  0.5215984905711241  0.4352472122924781
  0.3914935814954654  0.0971900307496277  0.7721593510853497
  0.3637398615524822  0.9700405662410180  0.8324348283210798
  0.7591147727567293  0.1987391642654974  0.1776972114211317
  0.1958566464087669  0.6469362054723011  0.4258736010018723
  0.5095233126882674  0.9626576900930929  0.8160026729976328
  0.1544672051018540  0.6111098117524366  0.8351455813599277
  0.5326814691770450  0.2564252996547511  0.4424416854265099
  0.1299178391712498  0.0896880951763963  0.8435208770528133
  0.5055191554752967  0.6418703295040686  0.5883956478411021
  0.3535845987829490  0.2370673003916300  0.5098379545264583
  0.0092743332918785  0.6646203942132773  0.0410587727891771
  0.8841242855464115  0.0651352029893301  0.6145490981971192
  0.0108896001713229  0.1681651850409412  0.9440983666699707
  0.6771481301333053  0.9763651101654425  0.0109755545304984
  0.9033026747412745  0.5969867747303527  0.9007904601180982
  0.4796518571154437  0.0377202374924820  0.8223483833491296
  0.0075751926802596  0.2258176759044886  0.4739871841541591
  0.9483236080616048  0.2070794109908352  0.1329881321882369
  0.1680637186075832  0.9207489606005252  0.8882825244992958
  0.8700342218318614  0.9638371190930199  0.4383967125299502
  0.2230903366221627  0.7006840338193886  0.8803447898558057
  0.7892815419411970  0.2007364437599130  0.7783663419846030
  0.2391173227288360  0.8319286233134221  0.0846745380726441
  0.9913295119746469  0.1626429068390218  0.7216657845082194
  0.6617699337234574  0.0992293641221303  0.9633219311795859
  0.5976296104635934  0.9124829003373722  0.1500285670391087
  0.7593660175973128  0.0475798257375000  0.8824929781185847
  0.4536291361645993  0.5039922527082540  0.6793093856651834
  0.5086493353337962  0.5450493993803759  0.1902297565360457
  0.4817423591126869  0.0913808687659063  0.1007540534305861
  0.2138028263812602  0.9152615074196592  0.0962722047708466
  0.1449052898969207  0.7965789841856581  0.0805075624269632
  0.5960937742299360  0.5256846981680786  0.3574219071193183
  0.0668920452099991  0.8032734300610987  0.1445544523427423
  0.4874478039155664  0.9150551854870153  0.1959359674323501
  0.5077085599473988  0.6476369218992346  0.5139696563343505
  0.9677102437439239  0.1146787293122479  0.4634081452091414
  0.0735888198602869  0.9319609360572282  0.9555541759211398
  0.9927693602129417  0.7659385177417689  0.4679342746398285
  0.7849865310292556  0.3723979290917425  0.4559026469451518
  0.1635356398360588  0.0557076733196142  0.4963151112224916
  0.8641668312177277  0.8430528747738700  0.8242891935217471
  0.4625619589062957  0.7788433287949439  0.5499186010579289
  0.6805202542250558  0.5828304545988867  0.0887356922049590
  0.7358614637517575  0.9751913798059733  0.9343489060939040
  0.1342026885480911  0.2730475857505839  0.0359503340983751
  0.3406508291236158  0.8253500539258033  0.6715220759465979
  0.6456904798462823  0.6441433381443590  0.1312781752591815
  0.4020388127323977  0.0930679246447325  0.0694996681278103
  0.4367617089732170  0.1372047882814798  0.1534675909014422
  0.6093837603484608  0.8534959567925227  0.4108011607436799
  0.7675756618183803  0.5688639058540416  0.4363382835597548
  0.7052447829518070  0.6572168057956796  0.8018390490772913
  0.3068698649782841  0.7597984903726633  0.8137952012764235
  0.5635615439564288  0.2870832397904474  0.1768188183108160
  0.1781089946156533  0.3075489315476327  0.7232997220733064
  0.8062513146130521  0.1312149112020765  0.1836197067280986
  0.5682537399399140  0.6657809786910456  0.3571473305749437
  0.6368370030667135  0.1647383644937619  0.0288904606982865
  0.1989420784778653  0.4731592311180339  0.1337304485787904
  0.4606644618293142  0.0608034621666649  0.3297301012233537
  0.0499968405109291  0.7437722686495536  0.2297239794897806
  0.6811474982530729  0.6787539492031185  0.2679760599700256
  0.7844895949097006  0.0050576922193103  0.6450822815657438
  0.0781631383083613  0.3845024996629079  0.7634735823319619
  0.1845457119853907  0.0386506997650943  0.6789390830775502
  0.0282528663623601  0.3559763490872191  0.1215412382587012
  0.1810177516761716  0.8451607572058805  0.4781133972715212
  0.4727217480109184  0.1241284206145003  0.4075662037549252
  0.4807426250208848  0.9958821560411746  0.4628632446554022
  0.8607306169639976  0.4332682551422319  0.4981524723802264
  0.5683879413735388  0.9286829183360340  0.5621173817820670
  0.5628125906146356  0.0884430607678888  0.6109138528482324
  0.9503110346538007  0.5582721914608242  0.4435497668338262
  0.2726710820868332  0.6927175594271180  0.0642964921181409
  0.9925791383655233  0.0850331515358914  0.2326565944409943
  0.9018648151093906  0.0565663674581671  0.8556479787590405
  0.7988088023344229  0.7795102042969574  0.0769261280480148
  0.8201447572679703  0.6758241942527409  0.9457336604056772
  0.5277725052575731  0.7047969945370625  0.7500974714883523
  0.6895720636045158  0.6747525594926657  0.3137031488783451
  0.5163249647799993  0.1247714127737434  0.0116468598671771
  0.8601205600894866  0.9210467742156585  0.1344389349131968
  0.4936440989245724  0.8391223776740517  0.2223740567986970
  0.8836473056850135  0.1152349145266935  0.0034131913123498
  0.6900484081386220  0.1071266118634189  0.0016560323148194
  0.7952699880653101  0.0300507418797899  0.3992071461049417
  0.2355816970136858  0.0637794652276973  0.9326981544134393
  0.4630479604541526  0.9001258894163545  0.1555515812875099
  0.6983092917964749  0.1022867690655273  0.8718300686218435
  0.4632600380429276  0.2783656366380804  0.2623031282605635
  0.7578604031264011  0.5024478168436851  0.4368690643370902
  0.5947970464156815  0.3663233861699576  0.7103632725433258
  0.9707450915541254  0.7796446527247228  0.8601082038983328
  0.4130780455813436  0.6219947333204692  0.1438711917819812
  0.7456003118113423  0.4919913693635925  0.9398683144886540
  0.0180492143027011  0.8837021886743073  0.2609145615654959
  0.5898152465812124  0.3720565187102933  0.5129069706382521
  0.7778360983182201  0.1284902919069216  0.1447069597296408
  0.3508938073191751  0.4135901768296442  0.1578900360876524
  0.9268907317780527  0.0346090325608627  0.3939025947412761
  0.3130871987261564  0.6509452576059558  0.8931545094419384
  0.4214747297059389  0.0994307681748964  0.0243747157740704
  0.6241929689108399  0.5886612279713558  0.8423559124890481
  0.5421168823715746  0.7863594510995822  0.4146261639659354
  0.7621997347018575  0.8354440250478351  0.4578179279059485
  0.5932209920653139  0.9660605184803516  0.0980841037251909
  0.0847876774013823  0.0221540829262531  0.2680543998259342
  0.2435161028714524  0.8770634559720195  0.8585871485349144
  0.0446085259691916  0.8553877711861980  0.9482534214158876
  0.8650137029722268  0.8504255207518575  0.1442757838835655
  0.2943038237298943  0.4097773968736932  0.1573689523302956
  0.9923133305055698  0.0517638018684890  0.6227767893199280
  0.7725166147026788  0.6627497241161716  0.6457791272356425
  0.5390464473923139  0.5793010733228053  0.8416908288151144
  0.7347619513740751  0.4261334182439052  0.8667349196030102
  0.7318019161241703  0.8119237076942020  0.3021476610866553
  0.6139727993886197  0.2956540558318694  0.1086640729872515
  0.5525047577080308  0.0894774897272532  0.5281185123967533
  0.5906923491688020  0.7811837708162115  0.0958599381037281
  0.6915403294315631  0.5150909496222994  0.8936955215064681
  0.4650273929930839  0.4153250043679466  0.1583772285811617
  0.7564792377294607  0.0544803185092176  0.2551678025678497
  0.5441035083241443  0.2894556496684577  0.0769961760607296
  0.7356275408693304  0.0281254200762438  0.2920381192088917
  0.0513883555554052  0.3060363600832464  0.9393166430830764
  0.7914327383757060  0.2830190998296463  0.5925353506555980
  0.6727988965041481  0.5024756467611218  0.4213484856987723
  0.8318697908686902  0.3158336046938465  0.4037519638868033
  0.0050990014462777  0.5427078682547947  0.6060155085893340
  0.5641107527654363  0.7140535300904266  0.4493185806061755
  0.7196627678466240  0.9479055140815001  0.2738287682971181
  0.1775674911849802  0.5145348060184893  0.5078180023970202
  0.9786067930585489  0.5488315567430199  0.5250119375597100
  0.4673637321473247  0.2727959187869196  0.6496497261942806
  0.2274084389274993  0.5229972576073035  0.2209621491671146
  0.4793456974342657  0.8323281954593170  0.1991370875641023
  0.9813297536292699  0.1258508955178837  0.6488057980199859
  0.1104944503220213  0.6625269275352587  0.8933097009665272
  0.9362247008813716  0.9673683927521604  0.7401422490254579
  0.9092337288719968  0.3160030961419130  0.8393976503111662
  0.1972750637592409  0.9332350327009991  0.3840287965223359
  0.8210426473538037  0.9295496145311060  0.6181146147734548
  0.0427830457597893  0.1708619389794606  0.7881157665561400
  0.9750854745700400  0.1680644174656440  0.8991589648602769
  0.9959502128074168  0.3792226695401918  0.4295061360097722
  0.9783311127938955  0.3720460651606982  0.8695747108761109
  0.9268507746344694  0.3831504970006162  0.9207523835203754
  0.2188776352661008  0.1850934456739952  0.3672159673064457
  0.7557079579379549  0.1879618301010112  0.0206695068230884
  0.9488710455030563  0.3922267395439614  0.3051921201089306
  0.4419220560916336  0.9978422015869804  0.8839304669685308
  0.6333528153058499  0.1606111164227449  0.8706545467298645
  0.8007183308668697  0.2597194126633049  0.0945032232159246
  0.8198775391450561  0.0196168734383255  0.3246952717933058
  0.9498919806826713  0.2680053730718486  0.0872241794420916
  0.0902358374058537  0.5129149012678077  0.8467504933696601
  0.6311109246371410  0.0314772495114957  0.7299265597933345
  0.8030820495131741  0.0647789158416942  0.5820250903635975
  0.3471576374604725  0.8072012247562729  0.8679627700784293
  0.3746113213284307  0.7114282953213172  0.9698886513362454
  0.4157288219362744  0.9708410531527347  0.6164324551415671
  0.2059184394893551  0.2538100376868796  0.6110867926057200
  0.8955071332902503  0.4869736661752671  0.4581819036976096
  0.6601166069216871  0.9470405072520480  0.9288116114488913
  0.1607688223063004  0.1634533662089991  0.8186814400123306
  0.6714084960460870  0.6009195265009527  0.2844311921841869
  0.3320524229987569  0.7960809669681511  0.5517630591085211
  0.0619259885047601  0.4945797254274815  0.4151289132166346
  0.2188654832233645  0.5397919909206303  0.6590735938076160
  0.7029824691589421  0.0237731292851295  0.2528620164777456
  0.6346751320039218  0.3649010233671962  0.6344826540304830
  0.5911076728340993  0.0865871942777113  0.4387209873268437
  0.3213312717518157  0.5584722344597211  0.9446864286538338
  0.0143572922083110  0.8116763366685772  0.2626990240680702
  0.3187700681325900  0.5067182919340876  0.5298642680296305
  0.4197403474682445  0.2457287984465900  0.3511767634200751
  0.7576409728922949  0.8481978569725367  0.5048978370120819
  0.1249720934910555  0.9496610849187771  0.3954553400916003
  0.9428388831865688  0.2439643159911713  0.7165871975730558
  0.8340179515265875  0.6530958171313914  0.3651246802023806
  0.3968319806289410  0.1648312901090904  0.0255883776644286
  0.9286231936421760  0.7421581584411026  0.2552484947196997
  0.1286719279626341  0.0317438845074630  0.7661859295713754
  0.0018997873582713  0.2523743096451008  0.6454711444884457
  0.0249992478962206  0.1589307853728373  0.0410811772078688
  0.8334326619808458  0.1981891337180978  0.1772827750810475
  0.8916604773743090  0.9803996921919660  0.9087833477003595
  0.7176628904426490  0.7394792356243406  0.6555208888431047
  0.3645594209518690  0.1649008635907031  0.7612772200084219
  0.6369985198260180  0.5904028278070510  0.9649773074418676
  0.9374832416236096  0.6387825990873885  0.3819180149656808
  0.7327193869711324  0.7129945657757288  0.4742289625722134
  0.3708042231759379  0.8027307029494370  0.5801360487039576
  0.6288861481589935  0.2954743321198116  0.7073929508482405
  0.6096947028350258  0.2204112453500348  0.1905155216880549
  0.7537209443619758  0.7877069598107839  0.9673952236390194
  0.7303344471958607  0.1122174923771566  0.9381840405907713
  0.2908092437268350  0.4697562970708545  0.0912710601786759
  0.0191400638771135  0.2197887056259914  0.1271715882109680
  0.0415211701973182  0.1197431702186760  0.4738210612542979
  0.6998991393538755  0.3175693812476505  0.0472349262087783
  0.5173576093005339  0.4598519232856173  0.3733908361644368
  0.3287191141650050  0.3860628102044814  0.4204822347160532
  0.6644518667907177  0.5130845187794322  0.4680577021682006
  0.3792767213782370  0.9040400699927230  0.0051723013853442
  0.7437604979094298  0.1875353122077325  0.0949902904936806
  0.0298755886408685  0.9851763899465411  0.5078350965476290
  0.3554602312788118  0.9928771831908331  0.9731294070545361
  0.6852551601919133  0.2234683141598834  0.5753499285639345
  0.0399584285209694  0.0196892470187745  0.2400872212854380
  0.1880344101496292  0.3375371502361422  0.1728597904269669
  0.5019398022535027  0.6422470768184394  0.7377210184113204
  0.2318918032121671  0.5103598739863859  0.4411175648393835
  0.0400478835625032  0.7401459346582220  0.3020523570964951
  0.4197364758649924  0.6823075681255892  0.1620541983793863
  0.8133542952885288  0.0542848025546459  0.0960272469527932
  0.0527899182016658  0.2207758370888367  0.1636991641319256
  0.8262747613277279  0.7830819342052333  0.8287402895125046
  0.7317630237042553  0.4119615809892228  0.1967713437307365
  0.8577742821492071  0.4665584389382071  0.1190952729326988
  0.8164080299610931  0.4030501201687084  0.1888786303513549
  0.7375698357527588  0.0455564328232978  0.7874458722769860
  0.3717468623845764  0.8016812361764707  0.3123261876433560
  0.3083133120109270  0.7118996410981633  0.4815721744190082
  0.8073294423023063  0.5466564349202673  0.2243562821817469
  0.0879739880759822  0.1724198044881346  0.8056512266859610
  0.6233653556077533  0.2356068514503252  0.9826015427404601
  0.9687353867544994  0.8435175894191883  0.5380364741718942
  0.6793672573921544  0.7946031580889713  0.3646864150644040
  0.8189234111421184  0.9222954890550079  0.2195709081355896
  0.9736501432031726  0.7408625639959678  0.2380248158149606
  0.0218052808547378  0.6668699058425265  0.1250309284953527
  0.4640538929571621  0.6420499467220396  0.7687488560122128
  0.3826778914895238  0.0268454230645746  0.7699205294200154
  0.7450963152234297  0.7982146750826551  0.4008801525852747
  0.2596023776889811  0.7873226351740372  0.9005548844804134
  0.8114715849442520  0.6985800518726366  0.5541151870288740
  0.3022315813234487  0.8291999494883725  0.7489720819035005
  0.9701656911038059  0.1297675104349716  0.1200748789765766
  0.4539256340707761  0.9296064329657027  0.2820333845168819
  0.9193725003032730  0.9574705162691693  0.2933891811855045
  0.5170342500424903  0.6494433436297830  0.8340966213906578
  0.8761977901486797  0.6489638451459957  0.8380929301648020
  0.0605363758969060  0.4441711998121908  0.7807741529104143
  0.4971811482159972  0.5751143606378071  0.8166049807737538
  0.7839707516388317  0.7928795242781402  0.6899608957277659
  0.9039932313098431  0.7403425266626711  0.9791245052956516
  0.1865558035507867  0.0811300054176705  0.2699130536624931
  0.8555824652154679  0.5243939756238054  0.7011061099030821
  0.2728308957147471  0.9513837601661017  0.8311972026158430
  0.4383602485812975  0.8984832804163774  0.1702444833961466
  0.1587020425929898  0.8967973248096777  0.7194347158182839
  0.4431008484772233  0.0405028620496303  0.0148574436695502
  0.4464655414744062  0.9061129830615591  0.6610019144089252
  0.1381001987159729  0.0200562673845164  0.3898435760776236
  0.1352562524025200  0.1062934647661859  0.6881062683977802
  0.1247442013242078  0.5456677708044142  0.7105902550999181
  0.8205065053822097  0.9845510267677126  0.8843253906537352
  0.0337850947068230  0.7515659531214124  0.5830367076347961
  0.5501566772591844  0.3613756023207568  0.6376782100622177
  0.2052858290654139  0.7881320953343987  0.9149571984302602
  0.4448569978498783  0.9694631775766945  0.7107444725019531
  0.1767039894188876  0.0509106865103112  0.5516895418593429
  0.4153325408895933  0.0419488570052000  0.0143350229039849
  0.0202966474194556  0.7535699691470316  0.0450077794122550
  0.7579001763229506  0.3257606154276572  0.4662375911807035
  0.8638233155150521  0.0923426890701066  0.3832768799239839
  0.5790015449455431  0.5225036226816853  0.9501323197994056
  0.0886953165287875  0.3965313614172347  0.2969220656564068
  0.4198556608906600  0.0526439953820366  0.9659047561238469
  0.5982047362944886  0.0976892270801689  0.0440683564237927
  0.5572388118149579  0.8389656035996956  0.0492042273658361
  0.4118224352214914  0.2575536575733391  0.3981589802355773
  0.8729214751748939  0.1899909285279145  0.2390332266827628
  0.3884900277142353  0.7573459475077033  0.7029161976295565
  0.8626697919096030  0.6823975345660548  0.1942862180779877
  0.0359535802008093  0.8353087479696308  0.6206130851050927
  0.8839599087156191  0.6817168920303596  0.5543549871980454
  0.5494652583795262  0.5276306015049280  0.3741287470007291
  0.1132100926365487  0.0719236740341474  0.1119897785930565
  0.1966890004757627  0.0762498890091738  0.1691658030877718
  0.4755255952890817  0.5890993569826122  0.4424369468303488
  0.5657050129913590  0.8272904536686988  0.8513187621018774
  0.0299877414585453  0.3871844322408154  0.2531829468538788
  0.0962071667420313  0.4657687330799990  0.9769144812533358
  0.1983780871576333  0.1451901151303325  0.1882440925203827
  0.9306571957436656  0.4489400142553563  0.8581702700875894
  0.3050358100202052  0.3494548088289475  0.1487746630859113
  0.4522010764293608  0.8452351858091534  0.2465574212989336
  0.6730240875654506  0.2875076884534014  0.6880940008544051
  0.9732398267695415  0.5520654635232439  0.6732003970955673
  0.4585464408019542  0.5160971955495297  0.4822532781084141
  0.3957460384233567  0.2957850276548680  0.8407486542804811
  0.2651438388757963  0.8263434826236158  0.1320773169989113
  0.9377161552682790  0.7198471977613569  0.8413230505450648
  0.8198185872554702  0.2016860972508138  0.5485137283114029
  0.0135307958083473  0.9554567632203883  0.0815132595533506
  0.5551075695819602  0.2400841642998357  0.7456042922031110
  0.8186859646564087  0.4997098628381236  0.8089988298466895
  0.2762345343922525  0.2301509907746435  0.3351933205489775
  0.7318094126113547  0.5939178805231812  0.5785253580635578
  0.0466068418738327  0.9057463861523483  0.8580372313500346
  0.9147448246192622  0.3228171468194545  0.7363629575541810
  0.2467191675053392  0.3989373310683332  0.3232456614183551
  0.4442678952221850  0.5820572117659055  0.4893305444967081
  0.1533828794631652  0.2472795710722779  0.6762325285669180
  0.5832557883616105  0.0308615977351219  0.7442758650741800
  0.6158844068485425  0.7866117281838360  0.4025497246335229
  0.7786728140664040  0.4100295152636061  0.0940248510320952
  0.4554524381208112  0.2076654330016888  0.1786183789128767
  0.7116530826886125  0.1110059391553715  0.9838663838696595
  0.8140094754055096  0.7779494925435236  0.1209297721303714
  0.6486743036793504  0.9716784725334321  0.0500507076612123
  0.6620665585746959  0.6650419977068427  0.7841428587260600
  0.4197768421414387  0.4071262258253464  0.2804658813098771
  0.5803765786989370  0.7830732215214936  0.4459795265210031
  0.8156253106164131  0.1270217984357971  0.5526406415168428
  0.6577061193740118  0.7218511942514426  0.3690198402510407
  0.0717673559994842  0.8827047072905861  0.3567480523418953
  0.2570711884772933  0.3103267129985366  0.7489035132769066
  0.7242227140544468  0.9775064730144485  0.8088691475314047
  0.1465766744363134  0.5239930100690988  0.9324604165037198
  0.3688637641585967  0.2896235183772370  0.0740601070749651
  0.4384855497109640  0.1935294904779820  0.6258433771262176
  0.4974381168915723  0.2845922837637992  0.5215513281817108
  0.8733960090649719  0.4022412358015762  0.1850718908268486
  0.1519903053454481  0.9703622593864644  0.5476921189450291
  0.9262335527611949  0.2711537125743843  0.1811160009377895
  0.6968804797565286  0.4999329653620591  0.1418187009588620
  0.1194302685835592  0.9102824279689145  0.8661395246965951
  0.0264631218998182  0.9078444334730580  0.4514079374673975
  0.1439887234628539  0.7757569748554024  0.4716698386097644
  0.0142069163450114  0.5196375964860794  0.2840220887150292
  0.2508271559264700  0.7335578380761075  0.1655863215545102
  0.6975386828165754  0.7993948866178329  0.6869629025513416
  0.0981836059343247  0.2769901801913502  0.3253465597316030
  0.6559660800551134  0.9959822033563710  0.5664350869909791
  0.6945485728724357  0.0251002925447264  0.4238680166800429
  0.9240940871921332  0.9107046821628944  0.8808346514851180
  0.0507987486901627  0.9136582424192137  0.9155255499343549
  0.2086358887074282  0.4548813117483986  0.1749628118073171
  0.4385700535978819  0.3080113983401532  0.8984901287142462
  0.5137775900704141  0.5729817587922074  0.7416601099869898
  0.7559134605235196  0.3348620358907254  0.1248396616321386
  0.2716458747871487  0.6639115574690829  0.2943144555939392
  0.9616293943975766  0.3961100993615403  0.2800471486292718
  0.0477047455799239  0.0525298461723232  0.5380734728266814
  0.7935301553503539  0.4262559701929434  0.6328733615659869
  0.1495105936386931  0.5150143326375680  0.5038464347355462
  0.4231155667741989  0.7865754250970641  0.2477150649416566
  0.5897765968698012  0.7416761938924838  0.2333132730574907
  0.5586652427905971  0.6540118271611486  0.9261062930937792
  0.7376903966492172  0.9754544201393979  0.1483635209602709
  0.3361795524377665  0.4153775337005198  0.1820877939987189
  0.1711198170628779  0.0110401319522029  0.1909029298277312
  0.5099098008453455  0.6439709221218707  0.7860030207523638
  0.7091775693792446  0.3997500993416684  0.4422011471644791
  0.0175712952008691  0.8938324403362077  0.1158880396318511
  0.2402137859731309  0.7965457869882072  0.5828846084992595
  0.0551689134682204  0.4353155020986934  0.7323404974899526
  0.0122682479093840  0.8466791085882931  0.4643491695990755
  0.3228037451233700  0.2751795412819155  0.1630950989347042
  0.6771930552546606  0.2051530980768427  0.2567875503477250
  0.4745527463028992  0.4318065402624168  0.5275770042698140
  0.4879343567382993  0.0005532234034796  0.8631583016300122
  0.0951416419688529  0.5145898426383946  0.5729975146075956
  0.4013949819883980  0.4273153894318353  0.6392993660192553
  0.8866824569568482  0.1894111079702507  0.0708303211367783
  0.9508384802616363  0.4675095736737532  0.6485179558066624
  0.5547358309346290  0.0809669592692325  0.3173501517064360
  0.3467865680933111  0.5437800895631549  0.1126176047796393
  0.8050880657854667  0.1770757999164313  0.3991683872287016
  0.8605036766357234  0.3972510069816428  0.2099517019467796
  0.4774366816043290  0.3932033370851588  0.9376984154944558
  0.0539489678122397  0.8546351605007514  0.4905511880654288
  0.5309062582433899  0.2678322831160473  0.9367260171573769
  0.2700534150439650  0.3922856935140903  0.2050144007867277
  0.0744504995769731  0.8133526648268211  0.0510055491894755
  0.7361925219337082  0.5807826184517696  0.4817426678687267
  0.6901618671312730  0.2046761048089558  0.2073471502690863
  0.3945270534066961  0.1314231732973856  0.8718054335225106
  0.3593852599999741  0.1393147053656198  0.9090666633441969
  0.9396262705935889  0.5332195863612783  0.2231700389409189
  0.9662512584100379  0.5845364063848895  0.8433174994659536
  0.9629732201812937  0.3744079749509491  0.8446958788793631
  0.5770272148759713  0.3082482394189542  0.3963997189035530
  0.0185009431417029  0.2840557230703199  0.1562610049398400
  0.5582203311013832  0.7905070795713479  0.8809679742584071
  0.6451684897682860  0.2161232603645649  0.2231736073898642
  0.7116082103241974  0.0439769048124856  0.0168242975587182
  0.7950523470958626  0.0238249021239533  0.3709873817867212
  0.8852059871245570  0.0696274642724336  0.6425769683732079
  0.1018958330942833  0.5309824413317856  0.0242157317723513
  0.9598418054533242  0.9103472986750396  0.9311055340464538
  0.0409138562493865  0.8185905210721048  0.2627930058918890
  0.8098276921628224  0.7100962662356152  0.1153957827011868
  0.4519442758417006  0.1852833272117325  0.6731025227820356
  0.1351213035967789  0.5870556008654898  0.5127045931772177
  0.8462619361891505  0.3997010809645966  0.7488882193527837
  0.0179930294147679  0.8286892685178858  0.6650323634782473
  0.4313796908361335  0.4760348279430757  0.2853814337337284
  0.6483339504294143  0.0285656134691543  0.1171407874395942
  0.2704244194158935  0.5318643163580662  0.0523415272683886
  0.8933663465560502  0.6594742127540418  0.1023294836348835
  0.9162046618054944  0.6634966135680879  0.0854077875224890
  0.8039461707933202  0.2790245963328457  0.6966655932433063
  0.4076850706401844  0.2907436763782731  0.5308450534218817
  0.8624664422311039  0.6481826788665411  0.7543847688716668
  0.3350444292295817  0.0466500587890908  0.5158078255937523
  0.0309837640966725  0.3668904371742410  0.0196018730644760
  0.6284937059262251  0.6616327192423692  0.1779076550969735
  0.7958190258592743  0.6352961859000543  0.5185446819166446
  0.9041290021478852  0.3973425150704131  0.2324738734529337
  0.0694358695902746  0.2215882911811430  0.4180527610648623
  0.1739166292295127  0.3089380431501136  0.6950847903630746
  0.4731195393029715  0.5188263965662170  0.8823844484645086
  0.0972802287443719  0.0618006675202675  0.0916101196356221
  0.6418646992139326  0.6481525923393165  0.0582171740813637
  0.2145825959797440  0.6130976977405758  0.0952297338179576
  0.0620777131637838  0.5372342561107160  0.5404909109636887
  0.8356779258690141  0.0739666377071995  0.6461087647072120
  0.5265750816686370  0.4784023929751428  0.0484919445537963
  0.3519022068519541  0.5929853024359112  0.4083735853313058
  0.0377854219846758  0.1665074689571498  0.0158902336844840
  0.1619564055576201  0.8381246839066272  0.8535908279496500
  0.7407624421032230  0.2503139100792777  0.8957693664161372
  0.7213172880981493  0.1149435946878625  0.0680594013283714
  0.7506675254654772  0.1850427968762585  0.8368725086240146
  0.9743012913185781  0.2428045777594622  0.3399987411171804
  0.7070885987152280  0.7976041151665529  0.3699960630692762
  0.9581436522414218  0.2376490154322548  0.8982854529640649
  0.6157334949135974  0.0826461262512326  0.1835183395751342
  0.5314041952702842  0.7193652862385055  0.9309811884025738
  0.3036895553808781  0.1682590704550157  0.6436173672654117
  0.2458684381427427  0.7775068249357602  0.0376862424923748
  0.8172284558338933  0.5237707627000383  0.6681675079096208
  0.8422727782301366  0.5424160532329497  0.0374042112101224
  0.8099071924184765  0.6884340183718909  0.0187297179589613
  0.2716586419194094  0.8453464616468129  0.9705300740334002
  0.7965624632238167  0.9979764271266232  0.5979103508824093
  0.0189715891903999  0.3516925412990818  0.5099887895029515
  0.4111151187274074  0.0604778319992931  0.5481369769124472
  0.6615866034117283  0.0685691937500159  0.1780599354553097
  0.2502438542166530  0.1753881247294081  0.0025906264857700
  0.8281423862139560  0.9884264562007821  0.2445845330905902
  0.1778417798469560  0.1143852613160698  0.6273891576002933
  0.6647536842999561  0.5237110996856674  0.9628686181484394
  0.8573184973539244  0.2417405261320656  0.4608681836575082
  0.0714067743893358  0.6784194692423495  0.6060470105525844
  0.0817825657817049  0.2316479940490649  0.3713365557161655
  0.7170065677621129  0.0656243925289141  0.2813181765368276
  0.8286374495819850  0.2598738973244783  0.9453439313740104
  0.7272976576431286  0.0091435630821655  0.3619047871088090
  0.5075806947992196  0.9884305798052380  0.6032903137335666
  0.0955255272230862  0.5729685945366516  0.4891862263400937
  0.0662797927295232  0.3545285023626976  0.5011280787401734
  0.2096099885111677  0.4720326755941006  0.9576009474247136
  0.5224333167643552  0.1572205830279954  0.4871893991199919
  0.1057306545796527  0.6200768660362813  0.6742474888297950
  0.4564114219310580  0.9042053726810324  0.0419945421179739
  0.5488134144198774  0.8458484350596503  0.8607781201802551
  0.7719844996328246  0.7483084992587146  0.3141051854584200
  0.0189942887274685  0.7717672231666266  0.4243137167534060
  0.4530431671629007  0.5541333872240755  0.9802673690789260
  0.2024371837047047  0.9822221384362074  0.0491985596527832
  0.0130525857072194  0.1900868598198793  0.5927671678204307
  0.7306647298746645  0.8781913057255863  0.3853635364454772
  0.8444057011562864  0.0774925684947414  0.7013762018832552
  0.5739204633959126  0.1558341038987247  0.0830480344428177
  0.0648411083959369  0.3268412937564124  0.3117574280879245
  0.2143102701038299  0.6063107941638129  0.9143511461830487
  0.7488810099874056  0.7800225804680083  0.4738043191479796
  0.7360639196815887  0.0087349859773276  0.6584169051898613
  0.7749670547156247  0.1255725739283851  0.1168228342380183
  0.2730358310811625  0.8874241284619305  0.6343845336859982
  0.4120934944466749  0.4294521521552090  0.6113726645711673
  0.4203119333159493  0.3363176411867297  0.0549914696566706
  0.9138809482213902  0.8274848697521185  0.3854719640867190
  0.4130976428883228  0.2652762437555406  0.6465346982937606
  0.2598419871513273  0.8051031247167134  0.2950743811999015
  0.2784677863952048  0.5626304996830318  0.8796225629927082
  0.7433667350728547  0.7958054569023857  0.6715124967414414
  0.9964693590827226  0.4935738690147859  0.3771635368065238
  0.6337803182201209  0.6441467316835808  0.0843172753255486
  0.0565673502335839  0.8507305636356935  0.4424023624793043
  0.9543649179225888  0.3396241472306523  0.2494795669330063
  0.7085300904497706  0.5813282446918761  0.0884155247248055
  0.5672958952629895  0.5777206224657833  0.5218957155089544
  0.9403242941913019  0.5614273913954215  0.4166266196425319
  0.6603576561130563  0.2905629571485417  0.6620149538590475
  0.0762824139614263  0.0770134667104841  0.1413792756749279
  0.2773792499486438  0.1177989040011469  0.4435669930010440
  0.7588684115877457  0.7811526713173725  0.1376641904814194
  0.5933842063125789  0.7145511509323896  0.5439777116368052
  0.0564453508636638  0.3635541861283094  0.0303460146209928
  0.0046571549210949  0.9698190886587978  0.3825570533628677
  0.5257253463552726  0.3117965736750942  0.8680935705343867
  0.4075835476717522  0.5915269405775532  0.4125860793036307
  0.6538354950261599  0.7261889045790652  0.9234082616554314
  0.2979373227841459  0.8022391020857431  0.3255254002314609
  0.7012136614921928  0.9281097691430376  0.9523709714433496
  0.8315374482147576  0.0576978683473842  0.1929195495379188
  0.0523379837220951  0.2568203887559725  0.6329762105053743
  0.8198745715265324  0.4989157308623747  0.3964190693380240
  0.7021902245827701  0.7332269036985027  0.6098474486843147
  0.7992654097265943  0.1346723298829419  0.7555994176861898
  0.1074742015620678  0.1709098508709126  0.7522315759792572
  0.9266300253659837  0.3974760194579600  0.6949749845484452
  0.1041412672843082  0.1724365310453603  0.9025797952336941
  0.2769337790636012  0.6669287474776499  0.1915271039548496
  0.9721680382375905  0.3958602977047487  0.7181561629640173
  0.6017133366022458  0.2801026367718883  0.2042409774826249
  0.9128931452116139  0.5444176032395196  0.5614838860822049
  0.4113425703707799  0.1963806915008419  0.4735870038076162
  0.3343826761515254  0.6672286858138001  0.3701939119605728
  0.5314952985713770  0.1337372647728248  0.9641477010693934
  0.7566089784181284  0.2531261495076406  0.4923721531603809
  0.1492608860173231  0.0946023877408130  0.7994831966883645
  0.9201514877754262  0.0932254004219894  0.2978746354988700
  0.9659054612375421  0.9863109173868633  0.5498483202159219
  0.4621564805583884  0.3040843232159582  0.7464708892293656
  0.3398379751643246  0.3975884954755520  0.5891598999913854
  0.0944405612802033  0.3555810074362979  0.1945656778367176
  0.5077152129499313  0.1812870907346922  0.4780994075114747
  0.7462212425670497  0.1858295216875958  0.9653168081543280
  0.5938489504941068  0.5896780793268280  0.9892619586849523
  0.3986278275307324  0.0963708284273557  0.0414209057489922
  0.9086883044458312  0.5734332660806636  0.3361005626887791
  0.1969621399346150  0.0629134983872452  0.8965805304683897
  0.5572478729424958  0.8058274023567030  0.2425202453833093
  0.7447968110847092  0.7385224211027529  0.6469138819987237
  0.8440066901666173  0.9771750896307925  0.5086426401443934
  0.4492128607719035  0.6107154984716578  0.2194364712221307
  0.6912466591991223  0.0119324041901878  0.2986264000780965
  0.9982653989893804  0.0427379036812571  0.7339339719643929
  0.2238324664834265  0.8904860378991539  0.6390274478093249
  0.9404933868020975  0.6457388842137339  0.7832048727183838
  0.3814254374699533  0.8197964226942054  0.5974094698667521
  0.6046939615253184  0.4536074408177020  0.9941509437663760
  0.9088354563391388  0.2557032028306920  0.5674592218370093
  0.4819548454887565  0.2050722396933767  0.5697987441714579
  0.8935923634050658  0.4651856082856145  0.6605498615363187
  0.7525099560431648  0.8795888865365751  0.6982988507228320
  0.0284883762165063  0.9515685395230482  0.0571601152931844
  0.7116408211596869  0.7940289588132787  0.0034360298256548
  0.5042922205426132  0.2048075951003907  0.3437838953260461
  0.4068881472202463  0.2979892239675142  0.9417893181694239
  0.5941167674027090  0.0869357521169987  0.4666881338633135
  0.1760379249523397  0.2701178314293275  0.0177562404861168
  0.3697188690773124  0.3614819888569868  0.6766026651336638
  0.0504063390255939  0.0427303163385074  0.4363768864163661
  0.9771353501341290  0.9938064236080497  0.8953119868733844
  0.2969840532146760  0.0401667943075188  0.6077219112712309
  0.3886850026665054  0.5152323856760562  0.7909216455627509
  0.0965036717854323  0.4785337299763385  0.0550105286544762
  0.0794897737629193  0.9023993917923410  0.6561895949727781
  0.3338031997726838  0.7722230105371073  0.0439402221032607
  0.0570281353778666  0.8173007269336370  0.2397817288515467
  0.9821594306592613  0.3733551104299776  0.9203116120670801
  0.9655132310487728  0.4475472507155457  0.9797177819355687
  0.1415687404992471  0.5856220239459107  0.2756988315690940
  0.3048188732319083  0.1249499515661608  0.4844705390612030
  0.7022717972066068  0.9144137501847533  0.4765750217290573
  0.8424787947499385  0.5364014433665949  0.9442374981740543
  0.7845818881060330  0.8947487875815592  0.4344285873015676
  0.6608653082852479  0.7281953474334482  0.8005505069662799
  0.1359936966763373  0.1456809616292076  0.2677348496234402
  0.1996845840658117  0.6453599467920252  0.2935938309324143
  0.6219258671421153  0.2994436583970836  0.5860046670326817
  0.3135407655466623  0.7177179039485664  0.9271709090327209
  0.6626107463111828  0.2938761613242312  0.6121567732195894
  0.3783029550399811  0.1836234361463748  0.4413403708705286
  0.2579027547876163  0.1140050411901077  0.0873503143110733
  0.4190095206017673  0.3781542397699088  0.8425066694557268
  0.5806516490323733  0.9420698829665684  0.2656826034310978
  0.3357654100130834  0.5415922677389678  0.0866709222370051
  0.0221689113305226  0.3720044038033543  0.8931988890253175
  0.0757929851456214  0.9707855829033178  0.6857563147509720
  0.0132482192040971  0.1193573528708318  0.4799248031638336
  0.7694310196593992  0.0042539304025564  0.6926312936895560
  0.4237558693788844  0.9713458240094890  0.6666843713167488
  0.1172286592641214  0.7350323859689348  0.1210881866604455
  0.4016047547108116  0.1976162250832207  0.8953357698655139
  0.7766899763694862  0.1885597571041889  0.8473850652049104
  0.7580607137679305  0.0511582452143647  0.0318217776862039
  0.6720675008074430  0.0027418181982962  0.2183223670570935
  0.8867453840148359  0.0543381909989520  0.1072867935122248
  0.1101924282240401  0.3515358137966643  0.0450856064036403
  0.7049971645152729  0.2196144160968714  0.5562396323045565
  0.9273645073424724  0.9811956564713414  0.5210771545260967
  0.6853988960216160  0.8460265419422756  0.1179690664450728
  0.0949616546608748  0.9876034498602096  0.9288467458691400
  0.4286141869491897  0.7074532635008407  0.9851405561728107
  0.5261378986830557  0.8503286122881517  0.4622474711851672
  0.5678736097268702  0.5293373506124767  0.3526479505095845
  0.5670085089842739  0.4227383590749534  0.7227930603303778
  0.3586829923922847  0.7847284224788195  0.4831274980937105
  0.6383456244566744  0.5793764013376854  0.5011534599333720
  0.5226840229504366  0.8622336566743748  0.3654784207063440
  0.4526197867076324  0.4799283994765753  0.2386637521993133
  0.8453456890768116  0.9110952978140202  0.7872676878596697
  0.5560621953938829  0.1527955202729173  0.1281874914213791
  0.0133620078349536  0.6531331724706368  0.9126876929046007
  0.1738179147907131  0.4131081141644073  0.4432794828294945
  0.0592746143337733  0.5306661914862216  0.1928577913681461
  0.2460199825576045  0.6157835792638230  0.2917812308898663
  0.6203303692575427  0.0930538037948593  0.8424377987911337
  0.9120676036901834  0.7919644709173301  0.2043109402846194
  0.9073925238412824  0.9311164084675435  0.1974850223183784
  0.8402441610698091  0.0182713913774694  0.3693801295789091
  0.7968127660315245  0.3930630301158284  0.3372616627663549
  0.9108086912947132  0.1877625739706073  0.5847814271373182
  0.6738933474114440  0.3432165429197420  0.2087036289271698
  0.0325750933354420  0.9619358469099442  0.3237648167330953
  0.1736145236947108  0.4672533364458133  0.9113487144482111
  0.6049950980055104  0.2814206627653019  0.2778601474834581
  0.8586141933768882  0.8217585786181384  0.2986021450265774
  0.6214161501910284  0.1599334159935399  0.3341183353054775
  0.7628992589115575  0.7898945645860910  0.5745703124807204
  0.5728792558719747  0.7127885990592886  0.5246070746240522
  0.9193142975856087  0.5301717158445484  0.0944055587287913
  0.8660250008942831  0.5230813633188365  0.8051313912856596
  0.3409593052443813  0.7596599795111307  0.7790682862959599
  0.6983972196781136  0.8761282455303936  0.6493263055048422
  0.5661139317495859  0.9741098927990242  0.7378973946011443
  0.9082001373443194  0.8966711779885663  0.3588711154436872
  0.9778890307314152  0.5202117719640678  0.7506371633867925
  0.8453993242525742  0.5369679991750812  0.2567835698469397
  0.2621980205415737  0.7650490159129401  0.1121185621952744
  0.2867459667691269  0.5651981823883956  0.7316945502235634
  0.7985637273698029  0.4199151713822748  0.4306055543271883
  0.3038184156991309  0.8541611935501964  0.8928987092598110
  0.3892930511366193  0.0997040961659809  0.7440259336303966
  0.9530487914607122  0.5861038412130951  0.3230103738169081
  0.1272940930057378  0.6750012126234348  0.5946953764076474
  0.1233366037593471  0.3489909774095806  0.0994765215047621
  0.6331374110172958  0.3731687193778866  0.4404691392611987
  0.4135707435300023  0.9190262153521909  0.4281009852282666
  0.7308620207938730  0.0458804571391428  0.9636817024422767
  0.0326084590369557  0.4053743766647107  0.5912582059784937
  0.0499906325354699  0.1220640588587603  0.5208391685851725
  0.4785888605123175  0.1351860279704745  0.4909354584103403
  0.6924466466353112  0.9617567522173791  0.7062829271965710
  0.6907910933701649  0.1351003543391447  0.2390570356781638
  0.8629943377449993  0.7958321775747943  0.6630676122936199
  0.7081475827229889  0.0369441183768974  0.7195681846099438
  0.9602524073254280  0.1231428613329959  0.5371960804422666
  0.4288236603175789  0.9229383186228036  0.2458945879081073
  0.7461540545456810  0.6787538876670285  0.3374599077074783
  0.2378429439970107  0.8058768896855881  0.6098379574902312
  0.7331637674845956  0.7392358992043323  0.7020214130570369
  0.3549513805096710  0.2766615207303671  0.9247713331429565
  0.0597564589055076  0.0663830439287822  0.1212112735459615
  0.5803644549262551  0.4691641184663067  0.2653243323571451
  0.7086672312977081  0.0503876948169774  0.2372200605689977
  0.1440244704381748  0.5160376534800183  0.2051904049297445
  0.5496996866592646  0.2822744528183097  0.6537829621951892
  0.0559429111362907  0.3864959060180536  0.4233573064277729
  0.1555867936745548  0.0540370559743718  0.8662111297051950
  0.0794457786984413  0.6644617909163086  0.0137783619906792
  0.8063474388434438  0.9864796839187109  0.9551147306346892
  0.5739071808830469  0.3048072091871215  0.4705359539561511
  0.3868261133364047  0.3526492547415040  0.2910778003915328
  0.6403639111029963  0.3765471911483099  0.7820959572061289
  0.8133973385838216  0.2619163801419271  0.8979768641406181
  0.7163625467672761  0.3774095805630293  0.4855859673928332
  0.8818848245268248  0.2559744827719597  0.7950892818915521
  0.8377201099982894  0.6915748695485415  0.1845549257876662
  0.1861302543941800  0.8630508146799863  0.5481783601188533
  0.6217229777828932  0.9246038583239965  0.0034680113692411
  0.9597885539983275  0.4012463764488922  0.2307280118067190
  0.2341925210768222  0.7926230075294172  0.3639849868179731
  0.9647442541095190  0.7633103099675120  0.4741240613746322
  0.2882425080236484  0.8944368519251836  0.5083167731471857
  0.2164239078428144  0.2788647334619142  0.2308626567463495
  0.4919242906549591  0.9339272966897543  0.3094484395949273
  0.8477664765408593  0.3275390581464981  0.8956860419331145
  0.1590671186769628  0.8069751566447370  0.3043957859224181
  0.7364104280495566  0.7893189714433378  0.0149850616851261
  0.3354041445693094  0.3710371042191845  0.2923832226262263
  0.2980092290578846  0.0800518893459495  0.2499763434322759
  0.7142429414181378  0.0351413946417946  0.8677628709291905
  0.9555494682672941  0.7769534303285757  0.8128181923592892
  0.7025334661239425  0.8724923572555064  0.3359487715919967
  0.4264089682862486  0.1202770343084385  0.4395107546871863
  0.6019228275834837  0.7331037800814921  0.2818567202908202
  0.9122989492097092  0.9943904522386193  0.6196448652937125
  0.9510153725650046  0.1100123956639765  0.4411268840118251
  0.3889112506718218  0.5614298747004719  0.6604955967092807
  0.0323211014790776  0.8963564139245794  0.3323570517190341
  0.5800963466632085  0.1567532436178978  0.6624694710416879
  0.6887276449715221  0.1439600813526178  0.5273680679836164
  0.9068970547690032  0.8895960423427949  0.3102090192831795
  0.0255297092122380  0.0399871119875866  0.0851346941647136
  0.4655999225602676  0.4101926574783017  0.0601722586498377
  0.7460970630332131  0.3385838339554749  0.2232720857793943
  0.6795576950067378  0.5852060532404270  0.0387375279542140
  0.2833735579473256  0.8785099620543634  0.8288061838026410
  0.1458793844646524  0.1423093758760069  0.4502328936355631
  0.9599452763283953  0.6944623329486991  0.4580649369820699
  0.8213936611728554  0.4833371754181044  0.7607060561505059
  0.1436935499179590  0.3459267178056397  0.0792983496963521
  0.2505991140109328  0.5303912197858156  0.9228669055476177
  0.2565660003653292  0.4078998464708269  0.5404858643287734
  0.3769976568145813  0.1333331752860292  0.6062006458813889
  0.2864385322190590  0.1026832121621525  0.6982975505592590
  0.6340445224655187  0.5200526833362118  0.8841308221751460
  0.0617390095931948  0.7676897384652573  0.6761358824078999
  0.9962778422518698  0.5948204351743360  0.1102728689892877
  0.4128799935895054  0.0013454737906713  0.2623857046494688
  0.0219476227084247  0.8289782215813843  0.3724911109703394
  0.2046517523400037  0.1822401049936518  0.9845822739355267
  0.8266341893674394  0.0347402379258278  0.4394288463823324
  0.5092927783350699  0.0077379081550701  0.3708853509502590
  0.8803968734432105  0.1161506032560329  0.9751157769590069
  0.1907921014158230  0.0031775228787124  0.8773505631532401
  0.6408417534966434  0.7163417822100200  0.1496792104866887
  0.6391587235704042  0.7807468102812272  0.5304397184268344
  0.6491673199162555  0.1645153448535408  0.8253956807284977
  0.8901497005274781  0.9817407852434444  0.8600628541929030
  0.7240012814317294  0.5854110609080074  0.8182830718937834
  0.8509299306977059  0.6977528905858573  0.3832073931818823
  0.1707122918383541  0.3841228914664307  0.8550352056662820
  0.5168112511714180  0.3895847590830483  0.8609485036161327
  0.5788846675494328  0.9254928317069417  0.4865357708872632
  0.2328112436363654  0.8981791983616492  0.7245626629634375
  0.2507951006041783  0.5999588257860208  0.2123576906433369
  0.7045823097949502  0.8694771771938478  0.3850883438235941
  0.4015333814999745  0.2518650337594948  0.3724382723227285
  0.2083959349977933  0.4005152874957221  0.2507684670890632
  0.9615384729043945  0.4013703954452272  0.5217408100203514
  0.6878885589734717  0.0264627699679026  0.8741767238536794
  0.2035472589762283  0.5093861297026141  0.4357018854947472
  0.0144412782614931  0.6403926127931465  0.7864987691222848
  0.6432598019534818  0.6627245876563257  0.3703375880364073
  0.6435703854711097  0.0132797321446629  0.3104817755985517
  0.4803909770770297  0.2614110671578515  0.9981922582026661
  0.6759081307847125  0.9926261863710524  0.5466098987913077
  0.1536710412684414  0.9615600807382744  0.7454339867770476
  0.6957661416727157  0.7824406236654869  0.5395999108672926
  0.4480275205620360  0.1711308067448207  0.7604243727120155
  0.2961195573691079  0.9300805435618726  0.9143600713059151
  0.7341014687167161  0.9498581405776294  0.4199728786341508
  0.7420739479631652  0.7150056793247831  0.0449018736882946
  0.7202306643441523  0.3920622745229160  0.0474898306782163
  0.4109713272424455  0.2962321951581989  0.7408209464121277
  0.4461440468158324  0.6716380855159703  0.3031923405173921
  0.5925691370887345  0.8833997394901115  0.8549265399950937
  0.1695320708259537  0.8126350617528080  0.6374674135419847
  0.4802033468750053  0.5726442933263360  0.5662566645437164
  0.7299432210992713  0.7147642790688464  0.0937652937772920
  0.3530158537865186  0.8950036397600643  0.6986932043363159
  0.7725331486826758  0.1892918871675591  0.9749678123436328
  0.5309021375123453  0.9929346506335680  0.5856821904620224
  0.5020459348945103  0.5549993323580830  0.1126787996785471
  0.9500309887708578  0.2228846977420418  0.2618592804202292
  0.5377141201084366  0.8596050422582164  0.3892898144090707
  0.1717483255902642  0.9353403781311928  0.3967544855366132
  0.3677946466988595  0.1106985921232653  0.3299731878059877
  0.2752552484757760  0.7455075541072107  0.1570107612664090
  0.6718214749996776  0.8626184890400027  0.6019524774208698
  0.7701676347414547  0.2014002892894751  0.4817636345065318
  0.5805883390241331  0.3609024765408012  0.6865552172606044
  0.8033757894647678  0.5482892120329638  0.9149787951473353
  0.9128175199080257  0.8428014148489072  0.5379597785228427
  0.3474589073028657  0.4765388053508725  0.1319692324008276
  0.6759082650032751  0.5223137441110657  0.9889814893992142
  0.6387183730069251  0.1609480007191401  0.8985285275451890
  0.2970898052938506  0.9541148424582887  0.8430307353882700
  0.3370538058012845  0.7293115321433120  0.3429137598546209
  0.9687851216400651  0.5440082947017681  0.5730364135014513
  0.7023177348461324  0.4337781875655741  0.7183339533317585
  0.4786467810139223  0.1338664576294305  0.2782298379940859
  0.8591848181930902  0.0584980007619373  0.1876367169066790
  0.9335463435885710  0.2461918907762315  0.2762661989493764
  0.7269692651693401  0.4205823378964583  0.1497059388493743
  0.3391621329427090  0.3749481693304964  0.6319338713690691
  0.1351592652360907  0.6615314091941134  0.0612852666769702
  0.4508648526394796  0.9723552990694514  0.9939238852002209
  0.5815439660596693  0.2903134710105243  0.1542769571275109
  0.4444494204920065  0.2015031006556807  0.2263646408526162
  0.0928173075500792  0.2181025174739665  0.2262485842515777
  0.3394101523502934  0.2966866107062271  0.7563328379575257
  0.4210796360162147  0.7138578916670419  0.8545448539753152
  0.9093856332429795  0.3800575019829820  0.4776125202563673
  0.4016082344818486  0.2324378028937834  0.7698319262728860
  0.7963007900542537  0.6477948944549341  0.8033730020633550
  0.9302787632621582  0.5863214319855349  0.7139116009572248
