Generated using phonoLAMMPS
1.0
       16.3991178599         0.0000000000         0.0000000000
        1.2056116093        16.3272134767         0.0000000000
       -0.5492207111        -0.3350511511        16.8883316197
C 
213
Direct
0.642972124844231   0.206823701986842   0.816936439352384
0.887608012002774   0.602678693259483   0.951019364237550
0.866415312705479   0.283018294122472   0.246307662809495
0.610997408336346   0.596635645477242   0.711667757990976
0.654121205277031   0.662007994441595   0.682978547540204
0.606110723380681   0.880028033288045   0.775023945215052
0.883000385336180   0.723328349307696   0.572629797766358
0.484902774428938   0.786233780852356   0.333415307491459
0.355351186182176   0.705026816794833   0.153137049191005
0.163074311686473   0.386913781984771   0.388531587237778
0.848417366851389   0.646220089242203   0.806738759446626
0.514134518471223   0.763815142233894   0.081635845449161
0.254488155619570   0.022382174240161   0.401612307404495
0.579785559635697   0.945464601010190   0.648106340310863
0.556374632578529   0.290848223052078   0.691284051195543
0.429317668201921   0.936817866541922   0.471315485107782
0.526148129988171   0.823816411367564   0.477322084947500
0.628905793989205   0.465914979678979   0.787056347501786
0.295154246754959   0.668766864969791   0.197995948640627
0.582905635925650   0.873620595438110   0.693650383222881
0.562018770715834   0.786821524996196   0.668704781165389
0.558685825934814   0.083267720398216   0.615279267010543
0.091785499692985   0.358094061663874   0.351804550253469
0.576990889749276   0.806190015753486   0.048424516489600
0.680130279650878   0.431741023470011   0.850880159366225
0.279240329997951   0.280040739803973   0.436587668695422
0.234990358827979   0.353107042713805   0.433998528395204
0.799260709349792   0.696340617408506   0.684435233763211
0.733254334748399   0.661895330697676   0.719077856443449
0.083845751719585   0.921800655585925   0.355912481786450
0.202430254881611   0.645357255326297   0.470041591955725
0.829936858830143   0.329552013679955   0.182083806692483
0.818827257030364   0.980241695829806   0.306061406561356
0.507927611039625   0.345124428762618   0.639866521059702
0.804059071248789   0.720016198626673   0.606992338310212
0.618582574155352   0.732144176143093   0.627105917771416
0.245502303707613   0.936818823139465   0.393284171555010
0.739968922080544   0.742411901028863   0.548940647232784
0.869836402146654   0.685938583418679   0.735261414781514
0.040973646690129   0.412669280164846   0.301797060525185
0.072207896361171   0.488253600250167   0.281411604593090
0.797578086112409   0.853517258549331   0.374415327244286
0.733019351330106   0.066104623946352   0.209512925828185
0.916878206628956   0.767898799904273   0.430991906951274
0.779159169180811   0.420841893787856   0.013828902834166
0.287009172185866   0.686811739504534   0.900217140588696
0.936973533622205   0.310005909842358   0.285047577724289
0.215080689556123   0.651741426371725   0.169052396310697
0.474804261816794   0.722706202666243   0.015522262346756
0.611233247731499   0.792323670985350   0.482464299226305
0.501004624553416   0.901068786677233   0.514341576515911
0.171057386607703   0.680482604971438   0.550397328718793
0.592436292483029   0.031273633207174   0.676382650295383
0.831961850576625   0.442771782097699   0.081959478956784
0.678809952417299   0.904497296149104   0.298400536742274
0.998128847249536   0.738619497126996   0.421369116869959
0.065745585809072   0.279398927052291   0.361522820458949
0.671361882000783   0.000914642418366   0.098382184067364
0.252859778973436   0.620607123375978   0.328642322698457
0.654811643471287   0.955037271328586   0.971380955171664
0.842255195092467   0.541886495091437   0.982971419191903
0.048918869484747   0.003863369341935   0.351743323364793
0.518988288898520   0.734251042609759   0.945004418398761
0.311347512956759   0.872364019130101   0.405282803187967
0.642048882927624   0.909299729506626   0.904424584023613
0.635605665978365   0.944614706388118   0.827628448727033
0.424445656140992   0.744549121475213   0.284841433619685
0.781925393085093   0.764968890194002   0.482194950536189
0.732543103605541   0.493628477584595   0.881328957481970
0.928888510967347   0.109022166371726   0.321101072747429
0.572890693153631   0.206440676078709   0.688245355535390
0.626677993481630   0.850243506847426   0.338667523163049
0.642721435934877   0.031059970181627   0.821295756877516
0.963364158668993   0.505179787072475   0.178224153088573
0.663203976007726   0.079712531370262   0.892310160609441
0.048300983135208   0.783988863903813   0.375647252366821
0.868542938789496   0.514580339540565   0.061603741768453
0.703460527042429   0.140570632361963   0.078812721704694
0.859843428395547   0.402616403501142   0.154493870605695
0.648198390628920   0.933436064741786   0.053091881139644
0.522976509179011   0.430939831256862   0.672802077544818
0.686248429572753   0.998726828721856   0.180595223298569
0.768380357908065   0.206885105216433   0.187859876951916
0.763698407160528   0.917466880750358   0.325262335184864
0.883192241804192   0.832573470497503   0.380657363602516
0.191307697622737   0.673274200425276   0.091317993081154
0.905108122874935   0.964020517426358   0.325922724277828
0.463363553911237   0.073048131423579   0.505289790143971
0.932240324736289   0.545278299672875   0.109113706522109
0.082764047668214   0.703670323719864   0.684848542795576
0.319380104242615   0.719493905482612   0.397902796517882
0.404910622736966   0.530240410078692   0.629960764602098
0.363026327682131   0.704451721789096   0.322380464370388
0.184542243329298   0.078458812303177   0.389439544302176
0.023196297899452   0.699127190366942   0.742483300444733
0.252865600912376   0.692358845948011   0.039506147737040
0.594958005298179   0.333021239084453   0.751589487098518
0.054413771539190   0.683019895923951   0.463668455021675
0.023513889171397   0.863365765163905   0.353439037343230
0.190093399087432   0.809447238327514   0.383491171054767
0.611238765374969   0.829837152841240   0.903040160711323
0.944196453440637   0.702449921291431   0.705079570211064
0.670008175280253   0.039151549559855   0.965705563300024
0.395096932941552   0.872575868668364   0.427045488116020
0.649702810779657   0.545952066981041   0.771521556623215
0.781495953473687   0.486159518870170   0.952488858120003
0.669228426191091   0.168177994000612   0.888602648144031
0.679061398230614   0.346738598688341   0.868577739371781
0.927585555221668   0.433313772315540   0.201477215548687
0.657541479914025   0.817833279831017   0.415004239484759
0.335805259225466   0.701537529381671   0.067707286056970
0.694184572154848   0.223163296541333   0.950556062108234
0.129723660326917   0.689407894959071   0.843357119029204
0.525734542404975   0.588784153467142   0.687647765422449
0.109859479555091   0.665242956704149   0.062872692454796
0.350792601266378   0.491287889760655   0.571290902930019
0.231495298783692   0.560781013775810   0.494256250289588
0.087653496965000   0.681454328314353   0.982646058456235
0.129922613249675   0.675615610047035   0.421127618769860
0.719560047888681   0.561997755910557   0.822471444354948
0.466048940774185   0.811665634902788   0.414047205340477
0.036109618991520   0.531870570178354   0.216590305802213
0.109922270928903   0.206800023680669   0.386348004464156
0.983426901448320   0.669214288621199   0.876514976928370
0.212560648160606   0.669024801839097   0.625451248699938
0.008796550842257   0.668425896903866   0.955945416252241
0.901582234220553   0.636811628385750   0.871772862561869
0.308392092922336   0.657581178869909   0.278969600200431
0.771444007598953   0.280536688537333   0.143717434300542
0.193717683685569   0.686481473889698   0.783250471264430
0.167591331551185   0.689722074963845   0.698766909943567
0.172496749768397   0.471383294817083   0.387028617579698
0.553017305095773   0.821442074502307   0.296868131376086
0.275716792014060   0.796824901486949   0.401809901819096
0.043576309526856   0.686757340055322   0.821275488445577
0.952636397855716   0.630675113948180   0.000970657384586
0.961924131764705   0.025758820872883   0.331305136350668
0.867117267632823   0.747295724897033   0.491785299283905
0.744411168192778   0.810166668904378   0.420695032522473
0.161154196596421   0.609428173160183   0.215309786773632
0.828334104910675   0.204355190808818   0.249753881258457
0.387604124691822   0.193357681237447   0.467015434538235
0.463498338354934   0.302917684008282   0.577063717095171
0.604967886887468   0.874891177111709   0.174568323052172
0.228901429688234   0.692839605499364   0.956873429767899
0.986286695861522   0.257535760423647   0.333616099972111
0.405648265973321   0.021358827425442   0.466074509741290
0.741164876628350   0.283793747133419   0.067042995453693
0.523419671902303   0.036165148717846   0.555176082583731
0.708152074032528   0.308070391146859   0.937257016053382
0.393819398537439   0.702213665486751   0.005622492720905
0.084930818683162   0.694622261446278   0.542925006239478
0.682284228043339   0.066487155335291   0.046364886575688
0.148201829275038   0.691129464054527   0.926786846235439
0.141886830419547   0.517669300767668   0.322652059581999
0.515172809786811   0.741006025634870   0.721639269907734
0.580888179748516   0.787760431545874   0.964635499044600
0.057452616897004   0.144340611875480   0.374832687594540
0.040126881790205   0.709373808191270   0.609808981248732
0.952958390642680   0.714192763560754   0.621865388274899
0.357326553940355   0.275537630150631   0.477114487768635
0.276037339709836   0.682392744808761   0.815828325157245
0.265496831677688   0.654469167245918   0.406534068290753
0.331458764330367   0.058685707824729   0.428497046538251
0.413982746036936   0.690843279621050   0.856710995840631
0.186519165369463   0.580766137429153   0.291554634340338
0.478794929067091   0.665125201056807   0.699953859634714
0.494901569740312   0.774436533403024   0.163067952004659
0.612517085632905   0.869861247367677   0.090387335728259
0.796935334241825   0.058804303801365   0.269246445557467
0.098047905829397   0.067134742729609   0.373071526061846
0.492044382830009   0.719324053325635   0.865765649872982
0.082238861801936   0.592357261000564   0.182722293681181
0.618785937050236   0.071782867567552   0.748401493091034
0.849979058213950   0.125577813601252   0.283095522261241
0.729560755871107   0.138172379173019   0.161228162219636
0.368332685216699   0.688796880204667   0.925806713894794
0.392088193774831   0.334411914176252   0.527994759387511
0.640235858855323   0.294617825028467   0.812257747473322
0.130704735370741   0.753136669710926   0.383097575041278
0.710783862540629   0.210844355505045   0.033141753584890
0.485969964387786   0.513119767974613   0.662150451081600
0.654938215147142   0.929693398329969   0.219927859284065
0.273814456816709   0.418500498669163   0.473977753413051
0.980690215306553   0.170579638174990   0.344300047567593
0.054270779421727   0.626556750547271   0.109761811986075
0.967012315706018   0.387028460988666   0.264390508224715
0.489753219233751   0.213943493839735   0.566927244537970
0.228740561592306   0.490512757015694   0.449545707708863
0.764375962501392   0.622654710554623   0.792404833192026
0.360245721068580   0.602786229966547   0.659277058902150
0.613530561020982   0.160637291779239   0.750653965440382
0.539941594606675   0.951408783529093   0.569655742594359
0.452696665660655   0.160761052871467   0.510195975779463
0.394311145258520   0.656967189875726   0.714701189661647
0.426121730067144   0.738425656784777   0.198554563322790
0.581159173043859   0.417507705455718   0.738874122145031
0.976749463077908   0.606291876308115   0.076938084190881
0.329893482150178   0.144556138812939   0.428532590605807
0.359725272314955   0.680667449947097   0.787303553684967
0.189027961735395   0.166621184737835   0.394650645196082
0.551474739481237   0.822299124183915   0.211627215789092
0.531833548362168   0.755539406160888   0.802044026906704
0.261906454592718   0.198829512226925   0.410442379158062
0.344307225881195   0.414725525518116   0.527199738878538
0.284652856729920   0.614998103265177   0.619375367297875
0.285450704896771   0.553669554622815   0.559271362778213
0.587518054858356   0.813954867038111   0.823791154347734
0.937254885352469   0.884949444028563   0.348315438876045
0.654547030372089   0.755850302524449   0.553542481904797
0.743590811799860   0.345449450911042   0.006965743665453
0.169002526498350   0.895556498719017   0.374687968148295
0.543117381933142   0.168248750880184   0.620647689542834
