generated by phonopy
   1.0
    43.2419688366000017    0.0000000000000000    0.0000000000000000
     0.0377936120000000   43.6599678946000012    0.0000000000000000
    -0.5292344099000000   -0.2935107937000000   43.6612676073999992
C
3649
Direct
  0.6072211375203272  0.2049157599248496  0.3646034889124917
  0.3711164142180085  0.2158113502896273  0.3572706257698344
  0.3187271392007424  0.8178176566730887  0.5236639922044977
  0.6647117851866771  0.3255818303055628  0.0806234684171970
  0.9034176598745789  0.3313488686875372  0.8415270378859249
  0.5622647244649442  0.6484665578688071  0.5019246325382857
  0.9202539834857841  0.8827428054780263  0.7323333620891194
  0.9026957193739074  0.6709623728852608  0.7622583682009105
  0.2180503934384869  0.2957111140500721  0.5937248279893376
  0.6079997405862924  0.3465407621585203  0.8618233313414498
  0.9212253112288818  0.1407140340396710  0.6161983898845881
  0.5454671960071412  0.2803913156658652  0.3180392063936895
  0.8848971762922362  0.3933061728295277  0.1469543179024087
  0.7572463456199774  0.0484038235720301  0.2053644514086509
  0.3138036275329071  0.3542993935155223  0.3525030362927777
  0.2120144813290461  0.5633573594464084  0.8202857672856454
  0.1862301059906585  0.1886910372972905  0.4855605771832160
  0.6355750159506189  0.2200615123692485  0.0834177665831834
  0.4846546175496053  0.8565805052193514  0.7037491003763771
  0.6130810877209852  0.8351370498870313  0.6485389626021946
  0.7823044753602950  0.9011468631696175  0.6534925407242220
  0.7375525937783626  0.1239248448276942  0.1936753187295644
  0.1970866969854669  0.3949409508756202  0.6537842546550801
  0.1741094181899019  0.0031987364503297  0.2041979419875784
  0.0461572275110846  0.3179698765557741  0.3287940476003707
  0.3554634934917120  0.6286383996510239  0.3521831165844082
  0.8470255251999250  0.1702875834782702  0.3751812876184946
  0.6781017955903190  0.0096621362269086  0.5917250921872281
  0.2462938560400472  0.2567959435290942  0.8072120515810821
  0.3271667681346705  0.1525818341813161  0.3122006196102680
  0.0688340870150351  0.0088354200993917  0.1618202188615002
  0.4663860221675690  0.7040519632257907  0.7187514568331324
  0.8341448627060997  0.7871227821784862  0.6230435232574301
  0.5227372194568621  0.8186929691359593  0.7720065253966001
  0.5575986463241184  0.1405266630185474  0.0541011644746579
  0.1521815275479669  0.7995511759974762  0.4613703381480811
  0.5364093531405081  0.0772794919740978  0.6486624771104881
  0.1699593983113540  0.2233592960464334  0.5747658960718477
  0.1619715624000861  0.4969335759168966  0.6335670587656416
  0.5482540948526244  0.1976346228987374  0.3546141499880744
  0.0130336785031961  0.0888813154562282  0.3222819783091940
  0.5528787221892337  0.1195660295824349  0.9233307553619298
  0.8760671570962892  0.0073412932811884  0.6319803732707785
  0.4055677431109718  0.2272459440141616  0.2238691429642178
  0.1381842412449814  0.0406237101998754  0.2260383076538831
  0.7378579877960093  0.9940937850121886  0.4245122855035617
  0.4536491857481169  0.0096034225958163  0.1376097236577183
  0.9422290750464121  0.3020403578456863  0.8141244940395518
  0.0207636926811950  0.6397165374208624  0.8842560171903141
  0.6385796979573307  0.1797914357887770  0.3230654759462209
  0.0637821183960168  0.7341762235229280  0.0587891428870233
  0.3152009098863743  0.1934073251277558  0.7365569522436283
  0.5946430123607729  0.3205468211298098  0.4079176023964410
  0.3440515988906629  0.3292864537296490  0.0156566574783582
  0.0611394955228646  0.3886867955315762  0.3092772596852261
  0.6061117024004394  0.2269945508691090  0.3910669578705980
  0.4357812289454537  0.3355420714291655  0.0888650994947842
  0.5415188330748648  0.1844231931817369  0.2074478167112328
  0.0858390179403340  0.1040886475147867  0.5399291681582906
  0.1549978444489203  0.6169797480163780  0.1894580751612903
  0.8162217749881151  0.3046076838641454  0.9255775385035024
  0.7743247467032043  0.1063718335386181  0.8860632139192205
  0.1571792832412987  0.8305018671819965  0.5655081895930855
  0.3463060296555007  0.0063560115327414  0.0902142000415126
  0.0107850564474922  0.4936200850395580  0.0906432251483519
  0.7397263869024933  0.0625151820019151  0.3703159524681244
  0.2625564129408602  0.8283201335185272  0.3274071616183948
  0.1131485980214397  0.2528093482268832  0.2943003422516798
  0.4047033764008605  0.3006659487168505  0.3985658125292407
  0.8695987462458280  0.3775310760535012  0.0851394914464180
  0.1001918186525672  0.2068179531399775  0.6557226454677567
  0.1017190110712509  0.5141887127376464  0.1614062954692042
  0.9206297691902184  0.3771266630561268  0.8701226895565692
  0.2888599551604317  0.4182029231642279  0.3607291488103888
  0.8053533614113855  0.6127752532486319  0.7296068425324626
  0.2723662062845865  0.2964196924476268  0.5311530578665441
  0.3519150467340301  0.4058097372090367  0.4736967118310290
  0.8908066725474031  0.1713759273030368  0.1047342878616966
  0.9782822036385235  0.3378053459470204  0.4743503873096393
  0.0231088612167254  0.4747134675858814  0.1742189896637536
  0.9598604184701426  0.1470975517250316  0.1980155651398148
  0.7794478541042164  0.1846192536744531  0.0686316775533133
  0.1953998415698696  0.9833361124530555  0.2902186261273913
  0.2306992715136744  0.2901731114019709  0.8487273144062226
  0.0124927717725709  0.9715350973959097  0.0344190435218903
  0.0045425519248718  0.7677681572538089  0.9034485337139978
  0.9747309243512056  0.3645593708764207  0.3276347248694058
  0.9270186277324030  0.0618370079106774  0.1241348899609456
  0.9323044945916265  0.6777057388208766  0.7744979189351048
  0.6075305759858040  0.4526152573909161  0.5700315282596552
  0.7004568992084254  0.3124815165990251  0.8032119684508710
  0.2916360672850025  0.5653933979971427  0.8564809532387933
  0.3978734259571871  0.9377119704390977  0.4967596656841906
  0.0997968712708635  0.7525670857106018  0.0998651541500595
  0.2610704304471618  0.9064852220416216  0.2120524784862364
  0.2499403402391386  0.3394653425657261  0.5651494299679448
  0.4615038116758624  0.0177092676456307  0.7427594130250029
  0.9369671427985039  0.0404931651236441  0.8170464064573758
  0.4167890867031991  0.3968306076556879  0.3923347703513931
  0.0626064842577720  0.2644364970329138  0.3171480320844625
  0.5178766069757674  0.6274465086391988  0.5885246010504037
  0.1230619539523072  0.0520274392872686  0.5938576115826160
  0.1571352532468548  0.9097973099559326  0.4858926701524441
  0.1585992565810631  0.8350060767214218  0.4170398638841605
  0.1478554560747365  0.5131576882124845  0.0656302685887740
  0.2088309222875068  0.5574219188993279  0.8770695606993711
  0.6093517218955014  0.1093425775923985  0.9291236746668456
  0.0137942711824623  0.2184223607005162  0.1930994595899241
  0.3643844982645318  0.3304143670140452  0.4532448502857024
  0.5185078743111831  0.1784420891496418  0.1561251725738873
  0.6842025993428895  0.1830287845105201  0.0073243490975924
  0.4200551877556771  0.3905739406590381  0.3365328013864091
  0.3423238701823022  0.6588553718313428  0.5804974978716448
  0.4786591598174063  0.0956995184001761  0.4664107208959861
  0.5505178530449579  0.7905707205647224  0.5489156846178700
  0.8739718282675549  0.1806361398968075  0.1309173268032010
  0.0091892300479001  0.3641235427274908  0.3259072143289831
  0.3284752501794136  0.7492291050627368  0.3916965754127910
  0.2089245466162360  0.7723683697021503  0.3935832224231502
  0.4308805565091176  0.1117578676263618  0.3970592735851252
  0.6885868138970386  0.2734699108246521  0.9644300408003550
  0.6348516103233485  0.1030378021441623  0.9496782725788837
  0.1024457320339482  0.5451337755539732  0.1473323634999031
  0.8987782747127635  0.3871040577395140  0.9201584356472241
  0.1256152639493313  0.1646923992551818  0.4143894758780095
  0.2324930516104313  0.4868139790649209  0.5651451332534818
  0.2564265267210038  0.6994522447676833  0.2603916176284607
  0.0168543598839183  0.4263922155292070  0.8414029255937960
  0.1222209328114251  0.5651220571560204  0.7115250152456571
  0.1615780053075791  0.9209674847809733  0.1221407126323597
  0.3397254143322798  0.9156494686803158  0.2777005379006682
  0.2383169182549995  0.5463474510018130  0.9349808454274273
  0.1822820191124352  0.3921408742952429  0.2337562480268027
  0.0367728133526848  0.6092223512982717  0.7503488903388461
  0.9771897435731476  0.2302464362183804  0.3426757219816541
  0.3926888919164467  0.5733350727251006  0.8082434210870002
  0.3105586935895535  0.4684504724762962  0.3592491001645027
  0.1997372804437292  0.3408104802740861  0.6398787742769269
  0.9023934523987132  0.0594380012149941  0.1437440996086951
  0.7292421863798298  0.7341046849259234  0.6091383314645765
  0.7194236052159383  0.4798357721953725  0.3750550613245272
  0.5785431525529413  0.4973460349420637  0.5538297792321004
  0.0499884282979828  0.4720818945113631  0.6100827016640576
  0.7398275512170256  0.9913597130798872  0.2781449501008470
  0.1034213014980132  0.2219935637419954  0.2909006333532867
  0.2577464158555029  0.6689530718102926  0.2721216389509108
  0.8457207057548018  0.5184881296989485  0.6837390675056885
  0.8038833130514431  0.2963179808574800  0.1247484985771889
  0.4224245668265828  0.0966698430189031  0.5537517054567201
  0.2982274713447839  0.1582632173007115  0.6844440836833403
  0.6260515224304435  0.9419690668668993  0.6033846826640222
  0.5894459827518168  0.3251766318897505  0.5804505729857615
  0.4693686851386821  0.1742095638860515  0.0847068207743279
  0.9324616975913812  0.8950646631301764  0.9109636224409313
  0.4686922429553326  0.0237082317002242  0.5105695670691381
  0.2945447382081438  0.2265213864479803  0.8127274869588490
  0.5843957234754463  0.7510685105623637  0.5715205757281024
  0.4387445118463300  0.1469761112337068  0.9846570004924351
  0.5655652866788866  0.4960852587686513  0.7192146774657044
  0.8087393066744912  0.2186974822473196  0.3166530006484917
  0.4652020736467494  0.6399234112848351  0.4447560174984202
  0.4684567407630124  0.0663337025869662  0.0616866080073113
  0.6012766657186049  0.5525716876130876  0.3987054076517371
  0.8729467228275730  0.9496430396926226  0.5809095541628587
  0.5603952199016935  0.6154929356337677  0.4583262762762386
  0.8009643423795159  0.0063087176897522  0.2611732325899608
  0.5406771026545613  0.5383758248989527  0.5593952039967909
  0.6975772350547671  0.2018899069840050  0.0904994219483061
  0.0188392624998674  0.8614942916067219  0.0001482498483141
  0.9245715800766191  0.2449145252248963  0.0796328746399181
  0.6997660104002920  0.1475238502693921  0.2701959115360304
  0.5646340251430647  0.3626019654334224  0.0260469785308581
  0.7044137053687628  0.7835552988989454  0.7034156767082668
  0.8643014756033685  0.1850603342204787  0.3241976876915259
  0.4449537007707354  0.5934221416732588  0.3756279352095667
  0.9894915388117660  0.8793766691744487  0.6441529493118351
  0.5638895486041791  0.2132223020299385  0.4338002682448431
  0.3183188857268276  0.2170607154286219  0.8638263812937874
  0.1931687467959123  0.6333767227936900  0.2275074163975131
  0.7111363913690758  0.1882359406075579  0.8123050622100798
  0.6448445524135521  0.8425747063132574  0.6523345326596227
  0.0033426649654896  0.1675645400942493  0.0615663586355521
  0.2110229594258305  0.1136528074007372  0.6269520446850370
  0.2536662128260600  0.3904295503265420  0.5896455465172208
  0.3770546009236825  0.3408543027035760  0.4257520181766192
  0.5071603632579293  0.5683495092118933  0.7571289706301895
  0.9690227275127377  0.4016063900645127  0.8565940397401839
  0.6837646934594839  0.2734687474688267  0.3589313814916337
  0.0877290937112505  0.6024623962037112  0.6867896523214493
  0.8987609693331798  0.0109855168458607  0.6568696277416179
  0.7736406039033425  0.2755953284613054  0.7206279873254837
  0.8137929518177772  0.7346723197647763  0.6278089185700649
  0.5525416773494590  0.0582253514837335  0.5484589319605876
  0.3189199370165592  0.6147565254682799  0.6008544446280272
  0.4678028422531026  0.2817478961276888  0.3897110490011549
  0.4055137113653099  0.6009426484184861  0.5796374106122077
  0.2179559338750293  0.7716742977651078  0.5101869121231061
  0.9386960472219397  0.0158996434651597  0.7961043690382646
  0.9543337482167117  0.0742295303085952  0.3436201402786851
  0.9637126919648148  0.4915316732626300  0.6139337213255094
  0.2160827041663119  0.2663101673121904  0.5748468488291469
  0.2433291921753108  0.7685862731068379  0.5613688205389133
  0.4867832895768149  0.9258485203019109  0.4191439438853657
  0.8988130501599301  0.5083978374126261  0.6078913039964420
  0.4878153062460176  0.5578008495666166  0.3663561476004642
  0.2369563074411623  0.2589110868966047  0.5509648876049320
  0.8262538299030078  0.3286193236301559  0.0729636514140068
  0.0690131616158800  0.6742397168614513  0.0822351066919427
  0.1706954402950713  0.2431369637191034  0.2968147401612218
  0.5035123363250080  0.0803148265625130  0.0205830221898479
  0.5099853025404470  0.3679259372341800  0.3985400528556987
  0.3982277519571958  0.2050655932573118  0.2460238923108916
  0.7757299053562441  0.0120117423506161  0.2413536568556700
  0.2479850307562025  0.7759718754262261  0.4971567361530530
  0.2543428304110151  0.5802152669738629  0.3120792488784869
  0.4813783013556682  0.6691905024801320  0.5791107424401618
  0.2792802927386425  0.3344284647242954  0.9237082203532854
  0.4740161525016798  0.3211195772310884  0.1288607882526624
  0.2333667389648774  0.9448175957871411  0.1833550911069557
  0.6047533400746088  0.4203271433920742  0.5730303257562677
  0.6125998991786586  0.3614206159600563  0.6347227879225168
  0.7760369178270641  0.1040303417574498  0.1505680613561892
  0.5146646564092454  0.1836115810238055  0.1880650175765469
  0.3362657855291268  0.1714588797951989  0.7251211596667914
  0.3753239547550405  0.3974847448967687  0.2493799286339224
  0.6655876775077818  0.1635866700084122  0.3129254954953335
  0.5275195394423718  0.2888943215909335  0.4907588023479278
  0.1074097612585627  0.1298091572230550  0.5374053362578781
  0.5451159490719675  0.1913755147916703  0.4489765775072819
  0.9189899463300241  0.1167922206404245  0.8931373534695722
  0.1996581042404980  0.4804310391180742  0.3234029054531348
  0.3164553439321506  0.3762095633658337  0.9346792829506254
  0.2905255461889635  0.3732746429455023  0.5512060555915027
  0.1661289038486676  0.5542811268191729  0.2462522778009709
  0.5912813499120668  0.5073995630440222  0.7000479595516746
  0.9003392731150515  0.4078007681440834  0.1220726642186784
  0.8743978395112095  0.3491327518918500  0.8845485212952072
  0.4210151765069789  0.2839662136334462  0.4517955497163970
  0.4123192344536943  0.4502176194805980  0.9660255029529058
  0.4638062124926275  0.3937929245576780  0.1956825593527191
  0.5916082327636468  0.2920999035362562  0.2946249755199452
  0.7392812771105371  0.2702880435157387  0.9386026275850576
  0.4133695552021853  0.0111601927758895  0.6002421651074146
  0.3703556545144418  0.3772117867575230  0.4201923811504405
  0.3939436304261291  0.1871256257205562  0.9861419321848216
  0.6439589251145207  0.0869341301618348  0.0336786994647580
  0.0870734965947187  0.7783662742363074  0.6556867669858472
  0.7785917739074656  0.7500491201691134  0.7342428645971469
  0.9099466292481782  0.4088996770187553  0.9809089714276017
  0.2206842468943251  0.5659901642776954  0.6412128789237220
  0.3445388829939598  0.5035641966011587  0.9557459640252745
  0.9296364728985046  0.7621945955681412  0.7930957802546963
  0.9271646730624259  0.2124523245806167  0.7097643929776273
  0.3877950476027178  0.0687954974126166  0.2315881043794122
  0.4482105041097006  0.1615453914122559  0.8885014390517854
  0.1617275062409426  0.1425514296455545  0.3726495379452152
  0.9316844683463126  0.1648945584757450  0.1938798853967604
  0.6466509437574004  0.0251652598339902  0.1669527576603055
  0.6756926616230488  0.9423404592837584  0.5007863467595288
  0.1636076987871416  0.0311966169936271  0.4441990180952265
  0.5463355822001005  0.8208218545298932  0.5371189726068631
  0.3510867762732843  0.8788360060209395  0.4360221505976944
  0.1711804707874050  0.7348102568330581  0.6291030037649351
  0.1149910326239297  0.0299515718950983  0.2050862817478611
  0.6316725118287712  0.5833677541512079  0.6926430691827747
  0.5672738326715032  0.9364609283596350  0.4505393653908942
  0.4281232071301673  0.5112995863123272  0.8724964410685943
  0.1358553414586106  0.1311493440843044  0.2818541392489090
  0.0059694574329334  0.6386761265472306  0.9977656235664706
  0.7928884093373317  0.1894567567117450  0.5074604704386730
  0.7022410650799786  0.9847055699576874  0.3191609030984298
  0.5982243936918107  0.7644479397633290  0.8316512114697693
  0.8733409684925912  0.3699909389821836  0.9997649952014160
  0.0251430485768630  0.2208797294804394  0.3237508797752872
  0.9741229362833805  0.1473839613273244  0.2276708085844772
  0.8149895298239713  0.2037711781177570  0.3443935168169852
  0.5284520294040450  0.3764975678021116  0.2609117765987457
  0.7734528281860829  0.0308755295715668  0.6089535841944668
  0.3320321534341076  0.8451325286051861  0.3294760113094352
  0.6812555695483066  0.8667690412244752  0.5608853760317635
  0.1744079188868659  0.4827083311104709  0.1182155460169279
  0.6955469207147950  0.1779474383912542  0.6716920512639785
  0.5382333853641845  0.1873217543106599  0.2391436385651418
  0.4690920389423998  0.5843588936001556  0.5744406581486686
  0.8772281311435963  0.0998686442682176  0.5746914800006238
  0.4642924112582539  0.3388263613718428  0.9813140283801169
  0.9039925735110833  0.3653585501431811  0.2865052021045734
  0.0465861532561199  0.6777167631194649  0.6796387857271160
  0.7445101410497020  0.2684448067802480  0.0436891786365978
  0.1356614526604718  0.5640419702712016  0.1894768929841577
  0.4143488989407229  0.2661999201696728  0.1692158149514606
  0.4120103543793219  0.3763110048487689  0.9669207953285531
  0.4721417186144616  0.7550441735789782  0.5343387051833074
  0.1185642917126906  0.3977311395254327  0.5463559971391432
  0.5245167131352175  0.1608043531291224  0.0939102599326517
  0.8555623462933732  0.8385123172995010  0.6143850801861179
  0.7209685745756153  0.1110357281436276  0.8725409129794298
  0.8051726605425972  0.7966613852225830  0.6101802915929236
  0.3100661725719778  0.9237038617190729  0.1964988954774622
  0.6360691551468589  0.2017821986591495  0.0304089503753889
  0.5148329006150285  0.1389014915372904  0.4739350443525117
  0.3507820938360815  0.8739498751341288  0.4679340344332396
  0.2057790090818745  0.5468364306930559  0.9328038816055183
  0.3493512408217359  0.1275528997473861  0.3830628728050336
  0.1645206165621248  0.9054573602782090  0.0947944003187512
  0.5339316330543762  0.0803345959616499  0.0084362843358577
  0.3057479853614707  0.4717078420573009  0.6006311987047148
  0.1349456722594274  0.4140014849313619  0.2215599624130120
  0.0329745716216183  0.4484268549750357  0.5952632578994351
  0.4698360526663243  0.0134444410793960  0.6139431896717726
  0.0520321198917085  0.5165535324760374  0.8955614218899327
  0.2081027740740646  0.3848331362647012  0.3236265109628921
  0.7651391199253899  0.0879695248912891  0.0363779550397388
  0.0146271369226539  0.3485140213653359  0.8082298461261143
  0.0201256241083513  0.6525193093876160  0.8526282639052503
  0.9363846744766648  0.0582575034198642  0.2872454463020305
  0.5146550017303593  0.0908569820422689  0.7858694600562758
  0.0865876561404244  0.0105971592363557  0.5963734547090161
  0.9016872632903974  0.7037738229688938  0.6592766604678549
  0.6473268362846837  0.4503204946263996  0.2320178307943370
  0.0278610924092651  0.5928293955165189  0.9743439810893135
  0.5491086637587493  0.8424926067422736  0.8150261146785579
  0.9103474182923117  0.4843632976705227  0.5898751573496442
  0.7243535396104400  0.7653313940946624  0.6012729299584189
  0.7100831708836637  0.1285522922622133  0.3234043346374765
  0.2596613598413346  0.6427804235647119  0.5746601478823651
  0.9670637218874789  0.1615140855711826  0.4112461727280859
  0.0727398068537332  0.7886326067247388  0.0658193519675305
  0.0424190590606714  0.2852342932483720  0.3318756507551357
  0.5927866399788244  0.2520767208399884  0.1020048989426309
  0.2340656290933196  0.4356993497109721  0.1643694920754812
  0.5220841884446754  0.9688331555484965  0.5694450427679775
  0.1172755754432152  0.3519842595079827  0.7273591776024739
  0.4990914130189298  0.6522547306118912  0.7422391349560230
  0.1641533587291616  0.3597176517646546  0.2825774347859045
  0.0943948066150540  0.5025607417599086  0.6510964994333305
  0.0229036768726550  0.5096697847615151  0.9775703166429822
  0.9258716545748320  0.1701204113129188  0.2502363719313603
  0.4622174257945724  0.8967489119410611  0.6683127471785654
  0.9205874026771543  0.0560143523921549  0.2316439754095878
  0.1883051134885727  0.4509251727652608  0.6563651829280123
  0.6105481167163376  0.6333733998927279  0.7076172633788496
  0.4568806109000260  0.3010742862790590  0.1785088451870562
  0.4923693079801591  0.9366979559082160  0.3889079527576996
  0.2932973784269273  0.3167048871063221  0.9471164573561611
  0.4394851051099393  0.9443002645245311  0.6492586851783361
  0.8625234128559003  0.8171587715266611  0.7089191747322058
  0.9518636509355450  0.0633130387493810  0.8658062482270450
  0.0108807821353433  0.9480414942802675  0.0116275213666485
  0.8576549599795611  0.1375811874139747  0.4294670523221810
  0.0031734421576249  0.6931708604786564  0.0133951256811627
  0.7945154970298132  0.1886702666825238  0.0972378073897342
  0.5266183024689359  0.3714011959758616  0.2939193180416273
  0.0464518240968218  0.5668980937740045  0.9778276637292151
  0.4691233837864484  0.4117772647145128  0.4725446564108269
  0.1511079573396071  0.1836600124819450  0.6586345123687180
  0.3308405727332671  0.8385842187272236  0.3619777154001220
  0.9925906964478411  0.3206367265494524  0.3506156815613261
  0.2085802404344821  0.7839394245918526  0.3373763797344128
  0.8820529743111134  0.0679955782129753  0.0506226076593661
  0.7431128204274983  0.2438834200775771  0.2258792250073952
  0.3996494950226666  0.2340016524551782  0.1124140378638053
  0.1979098082899599  0.5624486663637381  0.7900060944211789
  0.4196569550493257  0.4172616367178706  0.0406825336811556
  0.1670770229270967  0.8115899572080035  0.3943131829063544
  0.2007789422485830  0.7790940575074149  0.2003259808819107
  0.5814530232485100  0.1499751795821041  0.6635710158605101
  0.4714525031441132  0.4794447679607283  0.5238368731219248
  0.3616482573778427  0.3544525080057402  0.0049842108790061
  0.7702449171168622  0.5751420166600869  0.7064502793952842
  0.5549660738776918  0.7870575998611253  0.8068444030706371
  0.3732099236707018  0.0061940401888167  0.2485646843235633
  0.1773924109728830  0.4296658174141899  0.3229155306890454
  0.9529651164200243  0.7619239209485189  0.8167768677874082
  0.4471835595499218  0.6288606481680611  0.7541630970517034
  0.6460478290697933  0.5224483007165789  0.3833907927392128
  0.4965975553515380  0.3112477692231204  0.9309146968768087
  0.7872814931928613  0.1485711319412418  0.7338892307966162
  0.4181727447630060  0.4083866794778231  0.1241542572410623
  0.8478726278902681  0.2781844052237953  0.1583907707898959
  0.9549651564928660  0.3524358016432512  0.8340571791788285
  0.2976541191221412  0.1377412607621206  0.3835577943037475
  0.9584989271343261  0.0998651443084154  0.6022832144145789
  0.3410963366237303  0.2650153457585037  0.0159002240897454
  0.9221151871166590  0.9900718231269464  0.9787473484337700
  0.8543747099617158  0.4213159802252785  0.4647848496400638
  0.9100947306651335  0.0368879568382375  0.3510964280249593
  0.3017894622416838  0.6074771719676946  0.6275902923019082
  0.4436086772569010  0.4037615274644364  0.1453548799147640
  0.0601693466062953  0.4545245248790624  0.8205196152831842
  0.6029261484410171  0.4262176888396237  0.1477714338945691
  0.1435992193398044  0.9226944966307075  0.5417449812197181
  0.3774095143909080  0.8058112558497065  0.6222321748486176
  0.4444666081696699  0.0670105923118897  0.3614539949207806
  0.4762480679563040  0.3944941587686002  0.3118103606706234
  0.0556239870600602  0.4982896540607641  0.8688085889098377
  0.7036539510372838  0.2593177997354693  0.4739103771804615
  0.9866736321545032  0.8258831498051239  0.8606641070959443
  0.3942517012528592  0.6655245472592181  0.5751116143898711
  0.5579565547848847  0.0303196399646173  0.7489175599303491
  0.8478528732860569  0.5046506153215915  0.5786358341029498
  0.2859799939336417  0.7882804253998250  0.4188209344820013
  0.1463075261545461  0.1058710047810302  0.6220091854455717
  0.1576376056839209  0.8852155237692036  0.4631776768792779
  0.2070163971348619  0.5766351315424972  0.7342051286336653
  0.5275738465369594  0.4255269584268900  0.3126118193070206
  0.8264556053780960  0.0816968737847498  0.0508303164707901
  0.7835094577502635  0.1989528775309427  0.4232317454949037
  0.8710922115282157  0.5994854090364526  0.6305073468671863
  0.9920806120443323  0.0406898364504960  0.9875325858082110
  0.4963361117187357  0.2429569679210591  0.5015427792180862
  0.9040639923381222  0.9811323973521091  0.6691245193038894
  0.9283244389149485  0.0669215234270332  0.3925394116843096
  0.5553300861310642  0.3540301246411383  0.4309155856210465
  0.5003241646270127  0.8307603578448560  0.6171894032557315
  0.7292999274258629  0.2954658105485910  0.8579957122832328
  0.7735363413509665  0.2739616637654296  0.0284461237169738
  0.1130513654145725  0.0235457539312426  0.5830447784728419
  0.2442213561655713  0.2611468737671249  0.3424028233542679
  0.1137706233158507  0.5121802036888388  0.7881463110376511
  0.7752002600063653  0.9988220111447261  0.3826818004974312
  0.8473819074980846  0.2680496513351700  0.1028574488579176
  0.1806279763214216  0.8193378130050211  0.2542012499453614
  0.1730607051928012  0.7711505419797169  0.4348249109648455
  0.3952964228712315  0.1956868555766655  0.0192733350659150
  0.6956401286626518  0.1897410671248153  0.7835037889326436
  0.4036882087074253  0.6586454360701518  0.4331714385863257
  0.9717583239171496  0.3058944394454719  0.4277089906760965
  0.6025854516098132  0.2205642067572679  0.7799784561048374
  0.2344059831517965  0.9150573401458429  0.1017880538870743
  0.1913792926255953  0.5513920962540272  0.9037354859874100
  0.1891972830474445  0.2494347622741299  0.5848483816276585
  0.9553741083420618  0.0762315428957602  0.1355370781538424
  0.5490107234442457  0.2286253529471051  0.9657430855913469
  0.7474083366595460  0.3362997549373788  0.1682418656748988
  0.9509966512991117  0.4433030182775303  0.9623797544732392
  0.3656822496154741  0.4477697027357918  0.5084850329960922
  0.4290856432790537  0.7869905262240680  0.6120940427178644
  0.3579854004198882  0.8560253327283364  0.5319444709860786
  0.8668840512014562  0.7464675734352080  0.6451387635668638
  0.3588438076959679  0.2384665987627295  0.4894100966591809
  0.6647349261859317  0.1896998040910297  0.6701408617609846
  0.1586483860485675  0.8602733898056232  0.3221608251615675
  0.0196147243118097  0.8676557980273892  0.6498288633102184
  0.9327186315326919  0.1763276406731120  0.9945747038420879
  0.4987630665454369  0.1225838530930418  0.5868712638030957
  0.3351740259465395  0.0994215633112887  0.3731495554938651
  0.0654083204850679  0.5881065119030290  0.0844000589523754
  0.3753375586545334  0.4413677508356023  0.0210058073724950
  0.2644073475536180  0.7096529031445332  0.6367866927273494
  0.2323102128875310  0.6023711016687523  0.6047323073030747
  0.6474385556837633  0.5766083192289627  0.4826875479086666
  0.5918501758066342  0.1425474550605332  0.6932894658988247
  0.3356624925398188  0.3498367641450646  0.3784047922877943
  0.5975788894593341  0.1803467437062227  0.2167105315191614
  0.8132835597885183  0.3398330696657843  0.2250612670790746
  0.8448359305396347  0.3972635958217851  0.3821673399416365
  0.8529354443713363  0.3648902537684180  0.1095208941938632
  0.6743325273584241  0.2770260098734831  0.9932142302861178
  0.0407285810857967  0.1329107039624491  0.6079572938349852
  0.0314017899944626  0.1777957367093032  0.2879662293146306
  0.3534910533370439  0.8969037003260040  0.3390817745632927
  0.1544426857625564  0.4152824506001581  0.6838718190339337
  0.1288259515166177  0.8025220710146760  0.1337942455662905
  0.1248454860417589  0.7159089926760751  0.1344500322983080
  0.3517503470460719  0.5317197849499802  0.9080893975987114
  0.2322669034934042  0.3250595495627876  0.5928003381105059
  0.9257845391667135  0.3024890031581662  0.7139869158245992
  0.5621850390237672  0.8469787273162102  0.6280867552125802
  0.7747227420658517  0.2346943170605546  0.2291075808871982
  0.7592927226917892  0.9487184938403214  0.5273369341227672
  0.3874302915785629  0.2481768525371359  0.4775719222697503
  0.7911848762615692  0.2728217890983928  0.7483965077198507
  0.8982167038253014  0.1513369661984080  0.9386006968119807
  0.0053007672566981  0.2953392508481503  0.7952474493460462
  0.7664751944524411  0.4861899790599365  0.4958903711794756
  0.3933298909702653  0.0584839328668247  0.2627229150363892
  0.6814340650385957  0.2155585705702605  0.1152992708609950
  0.9814328316017672  0.2207607658171326  0.7252167638539518
  0.2596406595763940  0.3192084884166798  0.9019104633903452
  0.1049372545870300  0.1553318126801210  0.5566524915983148
  0.1834306186827104  0.1854147045026382  0.6642887755985413
  0.2312383447995978  0.4052908837722427  0.2121287353194081
  0.8339208022029113  0.0869362299612322  0.9837961505432771
  0.8470417770295006  0.9291518200870966  0.5747302580776880
  0.8077247416411241  0.2377477391787080  0.6382482810754895
  0.2761805219603423  0.7557143722251564  0.6056820827510274
  0.6730044667245328  0.1102149501710453  0.9076178515092775
  0.0043024628214902  0.1012047558023055  0.3509299532431147
  0.1496658858449726  0.5622149860416437  0.7317350675037469
  0.1363737654887287  0.7784048968267864  0.6273156163555330
  0.6404088693815664  0.3410229831345042  0.5771613808053756
  0.3402918938676877  0.4407875146611799  0.5279813954850211
  0.7540244303921015  0.1175056287149983  0.2478306034835794
  0.5482285919443657  0.1711689137667758  0.1446853762195701
  0.9159709232123504  0.0135130535796575  0.9960804022242590
  0.4070118254959563  0.8119743073945433  0.6101659493615978
  0.6725926438856449  0.0788115310356279  0.4370936861385469
  0.1455627984778629  0.2150618352008874  0.5973747609558507
  0.5863782352069398  0.8187606917334560  0.8439420960319262
  0.1745019889238855  0.0404137213300420  0.5738555766473777
  0.6060513452067444  0.3530270473883698  0.5187770200277247
  0.9690839680928773  0.8708514256798265  0.8201197070588742
  0.5299395261083105  0.2522299806171478  0.9536969740416479
  0.5430709434834844  0.6039705710642300  0.4331106203795829
  0.0294581418350240  0.5217989784046031  0.0078571031442490
  0.9789357753788536  0.1481363293111123  0.0123803343013428
  0.7614540767493276  0.9246069429144232  0.5488378833952727
  0.2057716774263564  0.3305322650022738  0.5267761235613292
  0.4625366040932148  0.0469175860348863  0.0873144379196602
  0.0141830157706770  0.4820979110262425  0.9188919905110634
  0.8983324840759073  0.9217110436031076  0.6941362163947662
  0.1577901507313217  0.8538988503042220  0.4719018601399453
  0.8033054504225975  0.1488444818327238  0.7629134018627173
  0.8502848174690278  0.1476188342919121  0.8509570045946837
  0.8185108518611810  0.7034954616598680  0.6355070207649502
  0.2814229767020131  0.6293259899957121  0.3058177769840321
  0.5324235541941392  0.9180603069855330  0.5903317084552887
  0.9417091530091138  0.2523452959425600  0.1644768105354520
  0.2955021969856425  0.5803734376078609  0.8029307878834537
  0.9354421450524839  0.1583671274252141  0.4026929212888924
  0.5252044291366111  0.4887702349999269  0.5381398957830020
  0.8347503523872016  0.0744420404283254  0.6375482235262024
  0.8550723570216582  0.3394347281291325  0.9080420146409237
  0.5294511595867806  0.3136775803963691  0.4697050068359487
  0.7921720904391156  0.1866437192215751  0.4518215063608579
  0.5889418961939997  0.3558933440317567  0.4897181889509797
  0.5783555243321925  0.1084492218618459  0.9406630373012600
  0.8456945277653763  0.3572878940647241  0.1661277371793634
  0.6326730118134836  0.4437228210638457  0.2036212058692772
  0.8573194702991962  0.1978261957340889  0.2955909163254030
  0.5155985189996787  0.9334114585156039  0.6804959665203200
  0.0237005039151338  0.2004823292790192  0.2174749655777444
  0.5413986905989173  0.9376158536841197  0.4301203636336273
  0.1888149554847887  0.9330759195720253  0.1366641111672325
  0.4662210002824667  0.4405473053772132  0.8991039324141525
  0.3246527583791474  0.4117618010662102  0.5247098848801437
  0.3882690366287219  0.0787428723783457  0.3762609837103233
  0.5433795018068491  0.0217847762881891  0.1086104907131987
  0.3643924724675969  0.9124179282172689  0.3930283141182001
  0.1317759206345905  0.3946847758129622  0.2481732939463150
  0.0982217591664243  0.6063743766120462  0.1256308653088746
  0.9235961974798431  0.3703551569930721  0.4585373581001305
  0.4680032416730085  0.9369602369559061  0.3683226182208785
  0.1060721490587316  0.8621091359015404  0.1213260154888904
  0.4760072935941114  0.1471930538430206  0.8407643275519180
  0.5021594679874724  0.1106878890767245  0.4840085150532445
  0.3988324245153289  0.7188420977734311  0.5621023608540500
  0.6389527095399293  0.5036361091625426  0.6664615434818064
  0.6538476977875970  0.4476662853783213  0.4219897522369982
  0.3839641700355514  0.4135912742095089  0.1314638313209937
  0.4151097044544919  0.0039010026891764  0.4458677144934880
  0.0418382066726938  0.1210476029740803  0.1621891616541110
  0.4027037688958435  0.6837655645643884  0.4840121704670414
  0.3999547216563377  0.5266357077651843  0.8786276304423685
  0.4939360684026028  0.2733719638859889  0.2959746912572412
  0.7621985599913029  0.9973867476032552  0.4454782640507547
  0.5251892041621073  0.5969878621675110  0.5808808376351740
  0.6454972663870439  0.1611243091280124  0.3739687804490731
  0.9380851134401906  0.9651494530579044  0.7551457689334682
  0.3190813628381701  0.5017144932270859  0.6009426921804035
  0.8303161038461949  0.0801457230287618  0.0863095493214977
  0.3141521464946039  0.3390336682302851  0.5088949821565459
  0.4697973917570479  0.1764326592220700  0.2823144121887765
  0.8641968047151717  0.3383777984961206  0.2542609000687481
  0.0762408515704651  0.5037680253089548  0.8432201357745319
  0.2283252989036124  0.2090525814774455  0.6906151321838729
  0.5091385298143346  0.5470726756299267  0.5609240189776158
  0.2597686339410303  0.8562889015947055  0.3322584866395699
  0.4257526667363061  0.0981033713601963  0.0771849431927357
  0.8859628384138017  0.7994308591044608  0.6429775207727126
  0.4185642988770672  0.7432248838517137  0.5178244572122340
  0.0158668316547715  0.7839957611500068  0.9591816292778008
  0.5397266717835082  0.4597242491116436  0.7543101014872529
  0.7762134261578804  0.2167517869594136  0.1760930802361064
  0.1101392701024452  0.7939272784689410  0.6392759401989822
  0.6260446469441210  0.5515247666046321  0.6891300332952413
  0.5209499538569596  0.4131468294441440  0.4984849362530008
  0.5304352400427325  0.1348225553656592  0.8745768273005462
  0.5426390592537934  0.9007488478370196  0.7903139599673848
  0.7793002645317915  0.0997332014122429  0.2366388670366701
  0.3253111072200131  0.7838333645666362  0.6139771877685147
  0.8657655414153907  0.7480289443783563  0.7564362216181368
  0.2642372495520725  0.1830591210834648  0.5236601604330177
  0.9522202250632672  0.8743139911919274  0.7914348985631232
  0.9900611073876704  0.0763348371578382  0.3010269518096264
  0.9667032450542745  0.0763186283153451  0.9513396031809229
  0.0013834110483782  0.7087040446848104  0.8641196274751656
  0.0620914788540169  0.0315298768745532  0.1838352906327351
  0.2340677027531616  0.6180931489730944  0.2757528573897710
  0.7394531290858343  0.2554340722749210  0.2804973325585334
  0.5422190098760522  0.2844981653963932  0.2623002933167011
  0.7584031644614958  0.4650280018405521  0.4128350065801805
  0.9992244042474893  0.9963979164351567  0.9417791363673287
  0.1145816378808917  0.4094150801761214  0.7327125975283852
  0.4952338811139150  0.2883703457871205  0.2216887426868822
  0.7118392587068110  0.0463390930188796  0.4131200830491443
  0.4637178487025395  0.8169512918124656  0.5109756615545166
  0.6343102989617129  0.7945708512511247  0.5740257572309286
  0.1620242774923080  0.3578878071418001  0.6798014722543114
  0.9795773733728911  0.4623304308007083  0.1393378585501466
  0.5547893153735000  0.3504889995429955  0.2959515265610373
  0.7865550460156313  0.6655836098715628  0.7384939253237609
  0.9570850818743409  0.9309522134339715  0.7952745007823585
  0.3238533109041858  0.7300750906242607  0.3415166305770009
  0.6270735654682821  0.0408134999594318  0.1163844690835031
  0.1099856440904936  0.1279965899298375  0.3764549015799585
  0.6300223952435662  0.2162743676763232  0.4892411872251646
  0.6905615596476568  0.4929667835521686  0.3682261276645832
  0.0063966302439329  0.8259150283578433  0.9192391815302593
  0.8814313663929684  0.3801058513948491  0.2028752254663977
  0.4822441994224656  0.3010221120606413  0.4416367333488020
  0.8446792107882836  0.1785933733206050  0.0730472126617655
  0.5556305107078762  0.2185449629212347  0.5751984877265344
  0.0347206218029051  0.5909041241934063  0.6733397725497390
  0.5890494673275865  0.1276784012735043  0.8466802780992680
  0.6903256066809444  0.0058622444528568  0.2375560323457509
  0.4582481841835229  0.1865624064861829  0.1784905994959974
  0.3324162398673470  0.3939686132713444  0.4980972081606280
  0.6534912906235891  0.1255481730531293  0.1402526776149333
  0.2427060941110047  0.4871580566707616  0.0644555983876892
  0.0076226567830447  0.3235220995563204  0.4804033883900571
  0.6986962709843838  0.0703726227854512  0.5842339537498143
  0.0103123123354569  0.6535485665512184  0.9125716632479761
  0.1680211957738726  0.8197534890585950  0.3619768542249417
  0.8315526672032570  0.1566971885593017  0.4269890047086101
  0.0418675978450938  0.2693941162250174  0.7611197617718207
  0.4105956020094316  0.2598905130847977  0.2688846852904989
  0.1611805255229112  0.1088649237359945  0.4741858158165574
  0.5078709500611257  0.0010527138209550  0.1463154699823068
  0.3766022428970565  0.3272213783722011  0.0618323909941277
  0.6939722263531947  0.1907028163622530  0.8394970647574080
  0.4355818739140382  0.5441360873006709  0.3489496946583789
  0.8552971402499533  0.0733959486447603  0.1607553876610401
  0.9166155516416580  0.1402102657605432  0.0532171965526304
  0.7307139091449601  0.6784304061360122  0.7287495220273278
  0.9617528868575843  0.6810984179590491  0.6722337487752067
  0.1799885300438361  0.4204007850432002  0.6646487353720715
  0.9837096896669045  0.1351935405219780  0.4017036554620644
  0.7231254482218906  0.3555408344001083  0.1579945818804134
  0.6719256711132487  0.1619331998515871  0.2807789299713835
  0.6753785500378474  0.1191700578692381  0.3878566410914249
  0.4466821238029433  0.2680692742658606  0.4663583449544408
  0.3650472937744560  0.1869587480163143  0.3702358425631292
  0.5367484535671414  0.0465113782575379  0.6581759022298633
  0.0092440628756466  0.7382167894402517  0.9143361401910812
  0.1701622202469077  0.4178062024397608  0.5546541666576708
  0.2700957981187616  0.2435147797085538  0.8261078268347575
  0.1706695618215010  0.9825192392180201  0.4030054179420517
  0.4514780677336911  0.6783048558471175  0.5699937877154544
  0.4979222780913239  0.0638348049205099  0.0475660305759884
  0.8423927575092603  0.8385392029335057  0.6951535780618486
  0.6559867933610071  0.3084968613826432  0.0502436839380311
  0.5395294739339646  0.3435627004113250  0.3467701083748174
  0.5600641210881591  0.2804846303378250  0.1505145855840015
  0.3807598763390831  0.5323971157584252  0.3433849226461522
  0.1649333599372407  0.2890631960982630  0.5001334339706393
  0.2467977878111469  0.7539730327186948  0.5908212086730145
  0.8018818827614331  0.3619461201880353  0.2452505615797821
  0.6990157974176577  0.1853522208790208  0.0363735951113530
  0.0104645904942235  0.8471148921542998  0.9450565377768964
  0.0684032278085818  0.4808734204066417  0.2081412255758638
  0.2836029949105649  0.4881508964853087  0.3562811675528065
  0.8320326475742310  0.2448555550072071  0.7201311671187264
  0.4397784767952524  0.2727359192170115  0.2228745181541804
  0.5736756637924075  0.0302833163241326  0.1007241610469102
  0.8454317570750740  0.1335928409582974  0.5466210123490552
  0.4950541839703666  0.1151135008182770  0.7985330181776686
  0.8974024814138849  0.4132013598783543  0.5006613366464676
  0.3831958036236029  0.4654932722475355  0.9710713459179109
  0.3809701164111806  0.0217591650030007  0.6553023622051404
  0.1918220024979110  0.2724334710119299  0.7678879367743695
  0.8185516054949336  0.3917721516824408  0.3233559599540157
  0.2857710920835957  0.9212636071278100  0.1274345287001467
  0.7633089538532705  0.4476783067582245  0.3594556058500699
  0.2070965485806509  0.0437543568405922  0.5772733015137695
  0.5550998367831598  0.0999009054535725  0.6642987546949780
  0.7222164474488694  0.5421908875407161  0.5643054576781033
  0.4403550037980259  0.1093717311876209  0.3171059948257988
  0.1801635996000844  0.0356516446884461  0.4173870778069516
  0.9832926660231704  0.1209746393502879  0.6042023799494292
  0.7786495536075229  0.0923818367846880  0.9723046449710715
  0.3463286914643336  0.3552064913545209  0.4647795291348947
  0.1155620017489151  0.2695857217075101  0.4795270143840601
  0.8632223381543961  0.0378099692147570  0.6202085780810097
  0.3754756903418105  0.6729936911754641  0.4237607360915049
  0.3076604929873803  0.6869113377086741  0.6703734752547412
  0.4254230180036869  0.8528663764148263  0.6639316741936944
  0.2236526156267705  0.3512221606345848  0.5438650318978692
  0.4177283258809915  0.0047621626442623  0.1746332579841936
  0.9292907107880176  0.0555271249350398  0.1997671063613765
  0.6864271079386962  0.5112540539450338  0.4208842873101892
  0.2764352713942458  0.7522268469287771  0.2597048831005123
  0.5789197702664358  0.3011344052914193  0.5604498046193389
  0.4984928655033455  0.3162615877675738  0.0187985189843845
  0.1635696820416514  0.4731396055376601  0.6570197470661171
  0.3277272020243605  0.5195503085293876  0.3516548359992588
  0.6327569920529822  0.5696085068540462  0.4540150638375027
  0.3030621323181641  0.2868225659547561  0.3600556548508360
  0.8104112251293399  0.8341750201865697  0.6985818042266482
  0.1184284105037254  0.5994045080115975  0.1500703776838921
  0.9852168561827570  0.0553082403104328  0.2162746570921722
  0.5230846809249775  0.0479183931311521  0.5378956381014365
  0.1206624343654622  0.4398365907998427  0.7221572008288655
  0.5333227925459113  0.4589100665290300  0.5282469145740279
  0.2645131039830457  0.2427339537330307  0.3601207491588060
  0.4764523976602676  0.4025342008582912  0.1360010834635867
  0.8324478113291832  0.3169040893436653  0.9007684626484439
  0.6895694139748203  0.9854223148303334  0.3820272730050787
  0.5568016859297304  0.5827555446832235  0.4132760153061099
  0.2112370189334918  0.9255465752466412  0.2505402247676841
  0.8296765878380350  0.0107143051523699  0.3952375055889408
  0.2149437540642834  0.8320506012672326  0.2079321759879757
  0.5391318923002252  0.0191387232267950  0.7736906359144436
  0.2134589901199666  0.3815686602112423  0.5479878691370126
  0.4477197480881746  0.0909020794890357  0.0529984667602232
  0.4163073278500863  0.2193035573259142  0.1364806776473444
  0.3766113574000282  0.0475438817471170  0.2091278139724110
  0.3923943847547851  0.1068581947461222  0.1907109826694253
  0.3777099168469650  0.4250976327798380  0.0756408272360892
  0.2866956636605826  0.8686801512140141  0.2473180347647499
  0.4693814636565098  0.9833885610105521  0.6262059371672040
  0.0743991002274315  0.4175600473699323  0.2982945231254033
  0.2624571430402809  0.3775587164030480  0.2638330110701513
  0.5815936938690187  0.6434948166479941  0.7188080974241073
  0.9701786731277303  0.4528218453908668  0.9381015541806681
  0.0291244785319401  0.0976185240072703  0.5672371430600069
  0.2391052297461879  0.2281408568814704  0.7148539726480612
  0.3818375482194970  0.0853263684713933  0.1694023493891053
  0.9868381161226415  0.0257585308805820  0.9342379535743630
  0.3455958213895382  0.1509118730054675  0.5287504707281391
  0.3643760999899810  0.3961304148620496  0.3625307730945785
  0.0555438045521889  0.4361820786288064  0.2790038761480065
  0.3913659479220243  0.9821902455092761  0.3074458836308477
  0.0696159452699857  0.2457689533821011  0.7218365344632919
  0.0746926082569698  0.0588963968002185  0.2307063823839318
  0.0917975345242184  0.9163433546619070  0.6093583227870083
  0.9253780642952781  0.4281252986180226  0.1278859017609842
  0.6271160942458861  0.1710393608839211  0.2061995545102800
  0.0740556358739724  0.3300210574093350  0.3149119998904854
  0.5155940642442782  0.3926206486948043  0.2110870131594154
  0.1409164102554755  0.2031702503045109  0.4532428049946494
  0.8049148226009205  0.3885938437349200  0.2940227186126000
  0.0264773772069170  0.3383424207766708  0.5032463257268320
  0.7582378189001386  0.9855612286525980  0.3307524057673588
  0.0316951476062550  0.1432920487907146  0.2150793807555054
  0.3800915394581204  0.4045626698338705  0.1909673426107043
  0.7020324707649405  0.2870737531893571  0.0732380140391993
  0.0135815101695088  0.8897305910014089  0.9114262361282303
  0.8161152477024186  0.5133306028499317  0.6705649126650144
  0.3495064417127196  0.8045338703527577  0.6038726804059015
  0.8605666274344554  0.3504778122803276  0.9385223229995030
  0.2872931994992928  0.4598837809869976  0.0865430290292255
  0.1193149805461235  0.8684833283389828  0.6024542744961862
  0.7236438821266007  0.4151973980629928  0.2194626934829527
  0.5247682932947715  0.3035921752058669  0.1128868963292453
  0.3576614481458971  0.2704594357088050  0.3580729639042880
  0.5229652497698470  0.5141932802056781  0.7561081573913075
  0.8663530782916014  0.6311710590465950  0.7437463243622428
  0.1182185484513995  0.1937158862419937  0.2833718070499412
  0.2696646931185107  0.2149805650457565  0.5279650056722828
  0.3864593084542430  0.2520393924802173  0.2897773631715550
  0.1261329860002624  0.3170872836507679  0.2938972802023082
  0.7994892969673665  0.5035475844758046  0.5493640270749882
  0.7090482816624366  0.5402951935867369  0.5325749817684851
  0.7220566507746500  0.0859939004835539  0.0722173586060885
  0.3138498781104251  0.5917466032077664  0.7788510770181235
  0.4715397940620254  0.4066120340750701  0.0534891854492145
  0.6059915819988975  0.1978453369821297  0.9734610681068818
  0.1040114997587497  0.5383023773034424  0.9807230835584501
  0.6170691075531369  0.0126199313934656  0.1737360041446518
  0.4998187716095421  0.3689901570871278  0.3142964886725874
  0.4189839967367160  0.0672640821286961  0.5672350038642135
  0.5397637273883038  0.8770399519432343  0.5051328513481367
  0.9982253567842599  0.8968165870643243  0.8621495495385043
  0.5623029609075464  0.0882309580515203  0.5421973203542020
  0.1167779891376905  0.4363756101092940  0.2110189086319257
  0.7407689453534739  0.1436979891711258  0.5910825341137368
  0.6217434857598466  0.7899909186752681  0.6787050107307829
  0.8397682217048239  0.4403913291518902  0.4868369235435896
  0.9380606224306514  0.3761275873298134  0.4874256421358011
  0.5806387161343380  0.1109858977398493  0.3889551066795351
  0.7443518835503249  0.2241889010386109  0.1732180647617795
  0.7309719587976984  0.4813018134549912  0.4053364496682755
  0.3551009334167642  0.3836973738781308  0.3310032436518306
  0.9663823044915453  0.3611891909662393  0.4943626761844568
  0.8926287550725294  0.1578715862569710  0.6161935824199517
  0.5548870678111693  0.9501275830182656  0.8516247978493867
  0.3048228706883706  0.2234227364814059  0.2993549252286201
  0.9691889837086632  0.0729865895556008  0.1652023290953995
  0.5198893874892840  0.8105464223716621  0.6341214082228686
  0.4136247460514017  0.0338929741566933  0.7013699596483970
  0.4941440917224471  0.9422380245510557  0.6572064984008085
  0.9949692421038294  0.2903400104949859  0.3615943229583239
  0.2354558294748407  0.1711396411783332  0.5111502968873375
  0.1543801408550232  0.0602888100830390  0.5901399755886374
  0.7850271902027368  0.0959956357894598  0.9405598107976109
  0.4013166846746198  0.4031948522059773  0.3619062905384335
  0.9003378890747561  0.1632586121606751  0.3599206152534286
  0.4191622398273652  0.4790117868049216  0.9182464114533627
  0.3680942648603559  0.7465246549865370  0.6772254155760822
  0.8136424314422650  0.1647243451677166  0.5096824535673432
  0.3006862355794319  0.5998247284859893  0.7501716898033609
  0.6785798977901123  0.5027686561168868  0.6253295906455213
  0.3118910245789184  0.9163059198153968  0.2281164516238630
  0.9782865091789832  0.1692671184834186  0.2748837873402892
  0.0726438464826395  0.2138317448972267  0.2972750199721678
  0.3844799436416173  0.9636075922355775  0.4043150798720299
  0.9446287485654669  0.0582185083894420  0.2555379862152472
  0.3475960860702908  0.9573517450335937  0.2367134480137796
  0.7734907027400604  0.0919978112435182  0.0962898328514735
  0.6612193808292287  0.5959893942494533  0.6962095529001098
  0.5426542394765730  0.8670328158113771  0.6114780299112310
  0.5934202137106165  0.9133863089003825  0.4953069020912881
  0.6821879461480118  0.1956140244265466  0.0623197735454395
  0.0505135164194998  0.5659275868946115  0.9206597518297228
  0.9650602532826288  0.3386127015435766  0.3451156832067364
  0.8537801452794868  0.3042335389645808  0.2083553483100928
  0.8570979050992926  0.9995937098253060  0.5577136586816118
  0.1914628885071893  0.7480349920275807  0.6069607652781133
  0.3274866451776624  0.1535549384064427  0.6991786513048027
  0.3189589700366134  0.2143193275482262  0.8313570239506276
  0.1500608408053364  0.6779026045007680  0.1679520795396503
  0.0069530096215010  0.1133442115095002  0.0488846606377102
  0.4106719059057133  0.9651774282184402  0.4857662194032436
  0.5184506014701221  0.2335126372486857  0.5236136065853768
  0.4679407039209393  0.1082535481295453  0.4385187821884255
  0.4083732206907968  0.0012732638058353  0.2045734404762485
  0.4856877709541545  0.5040146697695976  0.8082677218015268
  0.0413933481627777  0.7696277645568455  0.0202189884393182
  0.6904110572777620  0.2710661780550922  0.0213086923257884
  0.6534558814924698  0.2286811823652402  0.4696109074149941
  0.4599671069877735  0.2975311629271337  0.4169983648599844
  0.5645296384041026  0.1186079152765391  0.7970822471975503
  0.7117669822316043  0.1837725616664090  0.7561350622446106
  0.7021580457416761  0.0541014540001971  0.1548985102955131
  0.2229396301739341  0.3472460537609892  0.6163703775618017
  0.3010775320461938  0.5764626948019743  0.6364721553638564
  0.9121780547826327  0.1878074145894775  0.6612446816616655
  0.5645587595838044  0.5583346872516328  0.5695167722474822
  0.0478869426810058  0.6804332902860253  0.0580885223673658
  0.5173010109052826  0.8765117045867828  0.7448560195830884
  0.4179105078083435  0.1502885157165354  0.7767405015573143
  0.6519109625171338  0.1882954470359143  0.5832604318543393
  0.9163490876302703  0.5919722488639937  0.7305028792749544
  0.3849930615298836  0.3126849801305104  0.0895704491487824
  0.8597544665319191  0.3785659478404567  0.3597361015999900
  0.1347639545910382  0.6825393599917901  0.2554732079768912
  0.7354498100805921  0.4632405861153558  0.3521080637932372
  0.0003293173807032  0.0103241507541150  0.9954337718915379
  0.4265728250902017  0.1868758983451442  0.1882909017649924
  0.6457599972872393  0.2614672144034344  0.2183581923394306
  0.6142201878993604  0.3623106714421362  0.7467731604401214
  0.1751788408404733  0.5813822951543197  0.7249543985900065
  0.9037605934945363  0.8395567884528206  0.6822543969142875
  0.8027240278447438  0.8817027669542813  0.6698417980664210
  0.4830638850495651  0.3588751460506953  0.9028085522949685
  0.0098598443516042  0.7305680781599481  0.9462505067763480
  0.5587878252008633  0.8972290262506740  0.8193445875569780
  0.9681873234082128  0.4602595928474111  0.1088053577078198
  0.9583428101827356  0.3851592486808094  0.3091372912341277
  0.5387952130384963  0.5689688889947769  0.3896617398510094
  0.3715872708239200  0.7316348215914830  0.4814845800866536
  0.1011867463761433  0.4889628322571329  0.2117099586552853
  0.5677463415276729  0.3031829988090611  0.5306540595278815
  0.4080402183063083  0.9252251764909689  0.5249329979626037
  0.9641812920903304  0.7891039151531201  0.8290996662191426
  0.5648213451588308  0.3602046517079033  0.9638975299211688
  0.6941359076122012  0.7754583475100535  0.5935166938581503
  0.5842010022027965  0.1929804456988904  0.3127947778063438
  0.1587429101142123  0.8667020217069838  0.4082123876994178
  0.1787517089802680  0.7071841283842684  0.6442408418584855
  0.1792052028622015  0.4694508861681858  0.5764592710939570
  0.0165362965636583  0.2718444297848561  0.3465813827502182
  0.4851727343794902  0.4019029491353498  0.1052740023796508
  0.7932317694436323  0.5111753753407443  0.6197522537209578
  0.7052478660801884  0.1444238575490430  0.2377835681124476
  0.2647268066665678  0.0892410424109844  0.5144298260409008
  0.5033937390721103  0.3024487101570776  0.9626987534570808
  0.8907311742001225  0.4701756670092551  0.5664221896253071
  0.2507745617573319  0.2929075961018821  0.3355097802409481
  0.0864469312858539  0.1825709541116901  0.6360540021355954
  0.1204254950037551  0.7467515148622874  0.1249901704428543
  0.4410702319380460  0.1613153291454069  0.0376517716980204
  0.6522556824578810  0.1901403024023019  0.0048286413462780
  0.4455574678589770  0.5176624149915743  0.8454585797170856
  0.8136969697145957  0.9647432191207487  0.5394052850634232
  0.7649324658277246  0.9869397636340546  0.2991082306045232
  0.3488854425301305  0.2395797667102073  0.3610753847496641
  0.7146578784678655  0.7318267271275662  0.7232995016078640
  0.5752842634773143  0.3783402619763992  0.0798644943466782
  0.3461491780338075  0.5930143828051736  0.7830751687613680
  0.5847280083303037  0.1119438561026537  0.7464574664450699
  0.4007164247742278  0.2525006711577190  0.3236916602394906
  0.0093878203118489  0.4106452303940994  0.2973773944620748
  0.5191142151392617  0.1821119096174675  0.3998439568218389
  0.7403655284518857  0.3053093954717466  0.1215175216099491
  0.6920906111648594  0.6283272745218367  0.6042944134660950
  0.8996633356674345  0.1759881665030533  0.9907219618302757
  0.1954247697261721  0.0634051932407437  0.4118067336403360
  0.6373313965541290  0.1890429417151633  0.9758726838425218
  0.9335668546733255  0.9081039195546020  0.7490568573061076
  0.5911561080414559  0.2891437993180817  0.6223283745292537
  0.0965950985274386  0.3075295962439935  0.3047898086620041
  0.7259150362460198  0.2621949828464638  0.4997163182752417
  0.5491487291518302  0.7228153560595361  0.7313429144367779
  0.5071499862587852  0.2972528293804255  0.9017695192460905
  0.5692955238627435  0.2279625052550897  0.8349363153584086
  0.8268673825505681  0.1837558402103224  0.0995210897006468
  0.3494476589294954  0.6259273195083577  0.7389860228091845
  0.6484337692309572  0.2954168418328191  0.9951212569155025
  0.8417401579675975  0.1864546475637835  0.1283440242822967
  0.8178827801623842  0.9378544139893714  0.5591692302552881
  0.9348241719513292  0.8696443693806128  0.6310825729514548
  0.0192796081125143  0.0637665059089541  0.2077009160966965
  0.8724024321755022  0.1120011933583077  0.8012247632057053
  0.9967694959517345  0.2865118415399314  0.4387774004241931
  0.0367928177935671  0.6347220926871182  0.8289473298266262
  0.8603162444031393  0.9792551139007658  0.6417591365407582
  0.8553479509416838  0.4480043605085729  0.5146427309909721
  0.6937848700412175  0.4510412362956162  0.2642400125379004
  0.3684532942602632  0.1775507675339587  0.7717301545841788
  0.1077757322924919  0.9608074862905902  0.5807929657017592
  0.6200967969916514  0.5673835268723947  0.5805836474546993
  0.0667425827196005  0.5230828323088620  0.6576145374014211
  0.0537027115974758  0.8233650703670736  0.6557766933717529
  0.8361085527081017  0.1732590647146282  0.9324113414677899
  0.4185774259031621  0.1695765348254164  0.9370479452837930
  0.2990301861460511  0.7129040860564262  0.2951694145915211
  0.5929863520838657  0.4017323059516829  0.5472769094764017
  0.9794757490795746  0.9559509255029081  0.8399592845028692
  0.5560902521484158  0.0937898631340013  0.3842609392576699
  0.1878106116259369  0.7829982480188508  0.5587885473088043
  0.2468588124332861  0.9390900284890951  0.2120800846476250
  0.5674632803736611  0.2655258753117713  0.3648199439198218
  0.5522453271153910  0.3385313889991705  0.3761543949588962
  0.4520453246247184  0.7276424127008758  0.7007969781164599
  0.7783226676728804  0.4294735421768167  0.3370597100462048
  0.5234540646387966  0.2736605872482770  0.8402977286390513
  0.2738839041149694  0.4773477419350202  0.0624106092040755
  0.5716166505549548  0.1805312623234952  0.1960866797772257
  0.6075064486167193  0.1127373249157537  0.0691887548287307
  0.9304595254508446  0.1659970173719136  0.3713801038898785
  0.3394161326971386  0.5746397829455823  0.3403696780778134
  0.4628166293348829  0.1870247767923861  0.1471266855502670
  0.6824175719527696  0.1414615075205084  0.1865582044763966
  0.9350708915319741  0.9429797721906831  0.9453099683483470
  0.6279348870295917  0.0953941297894536  0.9805840197993627
  0.2534469193926991  0.7746764063125733  0.4650572695823100
  0.9195743524821869  0.1076555712007520  0.4246838105281519
  0.6003303340365490  0.1291143508295177  0.5494213685159769
  0.9837383625545411  0.3722621278436980  0.5199640125920730
  0.6468730595110831  0.2007159647611857  0.8091735040237841
  0.1231691525503283  0.1931993041168674  0.5884871994794122
  0.1690164392454392  0.9702186482683131  0.5249992076756609
  0.8060746839483331  0.1097016440053400  0.8805570384650004
  0.5877957896361802  0.2643886330150785  0.1562291067986286
  0.1555635122594524  0.5390966533866823  0.9567265837449076
  0.3271459514093049  0.1505060609084727  0.3866205592514453
  0.3905647068794073  0.2776699824265357  0.4634003960199002
  0.1673974659123405  0.8162342305796138  0.5138042784675783
  0.7344377122437256  0.9058849392919076  0.5536626562785112
  0.0654345615747843  0.5797602976285803  0.6791749581492706
  0.5518475657204879  0.5464473257896305  0.3708027179965810
  0.7466717319277533  0.6391649293507897  0.6168474846441547
  0.5728076986793860  0.3804644453956802  0.7106085210119163
  0.1062260705572213  0.8076157576295715  0.1093361810501102
  0.6763439307259346  0.4639906764375434  0.2885227340001675
  0.4713272512272093  0.9881031922374375  0.1867456012344012
  0.9827545378831102  0.2247014966695062  0.2498100650232016
  0.5414751831879777  0.9289488450934738  0.7748081412612587
  0.2626121701168245  0.0902883588569016  0.6236930050877559
  0.4245814212131306  0.1812494559216981  0.3037337582418786
  0.7909807935885256  0.1748544424776728  0.8448424730057119
  0.4111281783142995  0.1343458683521362  0.7490884619771494
  0.1553111451334444  0.8299738848123230  0.4494443376324262
  0.1529196057231023  0.1810607131714516  0.5398911298673520
  0.5177383603167108  0.6725467180956269  0.5227392755800734
  0.8686261033939816  0.0958019554339140  0.7468068745322829
  0.8980195862055115  0.2919832604637800  0.2421729596831018
  0.8071866373463619  0.2068930805512387  0.5595614130969309
  0.2193655232715210  0.0670069845663537  0.5965175000000634
  0.5840474134988521  0.1183706572382852  0.7124975270925830
  0.6861192214406413  0.3209459528770448  0.6626815868052387
  0.2301529785304171  0.0816143473018124  0.3282766256097144
  0.6369701638847282  0.6016693412294810  0.5007271432562489
  0.8244595660638391  0.1961216102250743  0.1540799412992720
  0.9388009180963607  0.2348773402094685  0.0529937332741994
  0.5968949530347947  0.5395185146916448  0.6979567170155894
  0.0583478229023926  0.3314194543793719  0.5040647261526122
  0.2931804470163384  0.0881262057838622  0.6350268514719165
  0.8779922822010023  0.2575936605244266  0.1053502937972513
  0.6962801422610403  0.0945513052563204  0.3897950410655396
  0.2706525717595034  0.9157473384339146  0.1556109573155975
  0.8133977513027296  0.4329278817588983  0.4278875631369354
  0.7209063877159660  0.0143682180181190  0.2295700663143637
  0.1445393252976337  0.2628002159113952  0.2910318503406522
  0.3003609343468682  0.2255556485788629  0.5194201667236132
  0.5942412335950057  0.6902694166271900  0.5941276174859260
  0.8414393911325172  0.4176395488394167  0.4350333840692421
  0.0165029170854611  0.6899918413808157  0.6786852357666714
  0.8245146675332393  0.2330667661792583  0.6658367013392165
  0.6415011343416854  0.6776554124864627  0.7212067062080230
  0.7387491521606155  0.8672215380768529  0.6653166225315148
  0.1533644788363702  0.1577337967856844  0.5155078341377620
  0.7669948942964506  0.8006565305265327  0.7128539116148996
  0.0519597754388300  0.5503516674943100  0.0072540212723077
  0.9680957316034483  0.2327557823438908  0.7524947945952796
  0.6531060233579875  0.9892286913250952  0.2766699058905162
  0.3910082997743721  0.2649906015635128  0.1172742446701701
  0.5929693942545080  0.0133447992893651  0.1513720840500711
  0.0281064488507061  0.0451315823840377  0.0973862240609648
  0.7747995745049699  0.5523287271449401  0.5845835931633392
  0.5684837159867543  0.3744734615384439  0.8331983470364093
  0.6855568486891098  0.5358166054471136  0.4715587780257316
  0.6009956751907167  0.8084480090104865  0.6619324468513988
  0.5741239610503253  0.6780421343586653  0.5444727100862025
  0.3235962302662719  0.2817730096133541  0.9938222359958627
  0.8752481677264703  0.9320285843161348  0.6715298800676753
  0.9106093925730662  0.0575992004249921  0.5914956622932068
  0.7697502197258629  0.7190377418126594  0.7372240721326320
  0.3918879483129890  0.4959846084132213  0.9248878929286019
  0.4161311243194414  0.8377209076379524  0.5939476020985884
  0.9473328844576528  0.2719088620533668  0.3480597296589794
  0.5108027930392463  0.9067785125340607  0.4662313880357860
  0.4940801048573336  0.4985339524969548  0.5373739697842266
  0.4995994961547173  0.5307271325780177  0.3525037966921389
  0.4275347707184189  0.4533310277206350  0.9371124395175684
  0.4925864576596699  0.8078125791018419  0.5235336203597958
  0.9886011112374741  0.7376179477797843  0.8540034095043172
  0.9336845133299591  0.2718977086296809  0.2815492007821719
  0.9491539725397553  0.4493910207670038  0.0476968449181499
  0.7629190079258721  0.1646842022356615  0.5758043519501264
  0.3300800770209390  0.0340016213133943  0.5832834041603433
  0.4140268236335874  0.2336952923944363  0.1671518189903189
  0.0121941829417961  0.9298931598147996  0.6331406098551925
  0.3314639375290231  0.6991121433394141  0.3513415354299075
  0.4776213537055664  0.1439308708851941  0.3965444351200095
  0.4132328749973074  0.0732166491264791  0.0949441751731783
  0.1999383252497784  0.5201232807270285  0.5968309906692552
  0.4964969551305312  0.2693097358264795  0.3825795244929837
  0.4918827443693942  0.5977060152469891  0.7606358637734855
  0.0421405014332969  0.0639631164993698  0.2343675404024614
  0.1307384746509187  0.9485921745246266  0.1581437065017722
  0.6666995438074049  0.0634442798744857  0.5805723880472899
  0.3403520471328708  0.2910863306066596  0.4843285217952758
  0.6485755836087562  0.7021182335202799  0.6036167579232912
  0.2522946996579490  0.7609687578084142  0.2389729311989009
  0.3970300326487649  0.2204777660558346  0.3389060627614965
  0.5180376139176962  0.9802351995057353  0.2302066602916602
  0.5295237852987367  0.7644371148013925  0.7620707465296009
  0.7404356016382534  0.0907463135512892  0.0119754921387436
  0.0182563560222051  0.2481128671226328  0.7545450374055647
  0.4364447964389745  0.0811421110179839  0.3328860268256766
  0.0418770059687809  0.9166266789032455  0.6344174600946609
  0.7232402595355203  0.5205157100749261  0.5109723176296147
  0.7087722962849162  0.9887146577627707  0.2878524969318548
  0.4700868192440916  0.4980580379159413  0.8362787683656610
  0.6125038370592638  0.5974351483955638  0.5904930986389949
  0.6060698088602734  0.7218582489529964  0.7202173762511281
  0.2444354600405274  0.5686142752564646  0.8243328944004351
  0.0704422742047672  0.1507350903557211  0.4077411737121145
  0.4195098633790208  0.3100962062918060  0.1353851776167431
  0.5283301823888589  0.2859612929833555  0.2312234241749075
  0.2935835236678595  0.6883764610592938  0.5646384828236566
  0.5675747734653013  0.3996175412998966  0.2295074822404296
  0.2669724628723692  0.2221775118519509  0.7312746548519486
  0.6515615929060700  0.6367277350454977  0.5429959412351517
  0.3779201760283680  0.2809508939464954  0.0923802812201537
  0.8316513453618500  0.6399441356725772  0.6347095977420305
  0.8518178675085640  0.0278263659129277  0.2745256873386908
  0.1199416860794823  0.4625819053637202  0.1959673648721514
  0.8529981288401700  0.1659053571971962  0.9057692748548900
  0.1291541164637915  0.4926097410055718  0.1496121362929204
  0.8335278434967726  0.1772884131895379  0.9881668550705928
  0.7098230706341279  0.0171859853059688  0.5947495371297661
  0.8301582112290847  0.1795564178638789  0.0438068360084861
  0.3474318337280163  0.7203221472111054  0.4341125564752858
  0.2158440977027760  0.4236062536922424  0.1887270837872655
  0.2304278137404612  0.3702604322751756  0.2579567341304383
  0.4286158759401670  0.1077702214068732  0.7422625378496170
  0.1659879904898042  0.5512824864330583  0.7872216745758100
  0.4585580478304319  0.4355518102371074  0.4914829521890250
  0.8235078766010400  0.8784905330451169  0.5888031110586184
  0.9595357408307792  0.4390852050726415  0.2188425701680857
  0.7889688366638035  0.2879509087678432  0.9187022685800722
  0.9494016525484572  0.9610195850581342  0.7848693631192688
  0.9577223685720853  0.9202692703846309  0.6222605890488454
  0.5231351541353909  0.0491682569712921  0.0628745558806160
  0.3792198312920229  0.1894921728076532  0.5071696314251523
  0.3296533542632420  0.3615523771094485  0.4920799504309080
  0.5006597564553560  0.2705342828264002  0.4857470513844053
  0.5508101163897187  0.1603824529739524  0.1138822776450327
  0.7551960998401667  0.2910652041761745  0.0956686097059640
  0.1325163111600726  0.6541343314365579  0.1539156659496763
  0.2419710979892820  0.2319024871023835  0.5333884304369790
  0.2230554457746561  0.7373991068578966  0.6072857787460593
  0.2771768337522810  0.1250995935803958  0.3235410805527276
  0.6483965082927481  0.1861735553463604  0.6419867455989596
  0.1908960898332088  0.6500978819617395  0.6732882028147453
  0.4799267408348606  0.0524416024165253  0.5012348472514542
  0.3162823195679835  0.4358496636543143  0.3616027904174761
  0.5708923840061406  0.3968195384728725  0.1065426224412134
  0.6071617252175396  0.2351732698574306  0.0783699003145768
  0.3171457308744463  0.3075314147305279  0.5010653675179169
  0.0127503509719190  0.2312882474808760  0.4381540378538543
  0.8652396317896044  0.5157882207086110  0.6059928982802976
  0.6498962983255739  0.5327520317564560  0.6781764301085361
  0.4361242575323858  0.5418659503960727  0.8255788293670777
  0.9528838755858634  0.0381995260570077  0.8452444562957488
  0.4875603613037682  0.0291409110655522  0.0999878102316042
  0.8173874844839871  0.5886863662623677  0.6161260672019671
  0.4388203459395031  0.1372190563870290  0.0162410599109545
  0.1113601790829264  0.5097773807789397  0.7044639673903322
  0.3437518319135338  0.9674924563311906  0.2050649685782948
  0.5383482729885342  0.0074322602187861  0.1374465348546797
  0.8887320030619029  0.1810669894214577  0.6388603040758357
  0.5938074597634752  0.2012846018100010  0.8890426120706830
  0.1260715550472351  0.7040120681675942  0.6646201700081151
  0.8941879906608075  0.2593673824006637  0.1338137791265084
  0.1373933108314250  0.4681146691606531  0.6754692869934342
  0.9998280601179117  0.1859404415160495  0.6603086873069557
  0.0318816784900928  0.1597187789607601  0.6254296793566254
  0.3115673872966286  0.0629204286454867  0.6261899000698320
  0.9018910512314436  0.4461722610428638  0.5472527622159630
  0.6961437970674805  0.4310640297649799  0.2114198230111737
  0.4308097189033371  0.5138764158445466  0.5422336111008255
  0.2902471233013735  0.1639382043648862  0.5294063884687212
  0.8813581968591180  0.0433155619053338  0.2691751166200247
  0.9617937076367282  0.0609261234252794  0.8969892022411708
  0.3394279545974439  0.8563104483695215  0.4150569118366270
  0.8419343512190285  0.1859364749081641  0.3476508432253438
  0.5015933305386697  0.9094357576188327  0.5842373892890972
  0.0455604322538216  0.7105483865277855  0.0452945637717770
  0.3205760682218642  0.7917265795659572  0.3191734244939356
  0.1337613983741781  0.8799916339099096  0.5761879551050004
  0.6803796803409944  0.5456972887068585  0.6786333224777494
  0.9055889764400256  0.5396527301271334  0.6902382329113192
  0.6032964192305911  0.1608833044300545  0.1546628852080212
  0.6909764560800550  0.0995114630321848  0.9631434931786712
  0.9666841753408228  0.4393602178109910  0.9086827793629094
  0.7577361967222535  0.1627283116749850  0.7315098724844816
  0.4482622286303331  0.9453006316502044  0.7036372529594878
  0.8664066827286934  0.0302942494453470  0.5626440721074354
  0.0346236899605377  0.3802737529134603  0.5420142862730145
  0.3467682170590833  0.7756652489492710  0.4560182076945807
  0.5506368649702794  0.8191936469477749  0.6402719396828046
  0.7746885064704528  0.4483512116056629  0.3899522834081517
  0.5493065032086411  0.7381881185970649  0.7636923852011268
  0.4182888425181008  0.7279272083788215  0.6964798290658435
  0.9773112010236937  0.1466606344046106  0.6235169657645481
  0.9183192159778927  0.0655781318665538  0.0934537757055052
  0.8465028120686555  0.1795354552442555  0.5890388211184485
  0.1212570343915455  0.1130270262508061  0.3506790535189357
  0.5465654314549919  0.0962169979729655  0.7817052978602798
  0.9099074998311092  0.0311783779551907  0.7063450305041773
  0.5271727841715887  0.1515034556756144  0.0629654210848898
  0.6342196649438511  0.9774350702008265  0.3710213946526473
  0.3697841488545766  0.9642504975929971  0.2874475796912705
  0.5872981397855787  0.1242687245681445  0.8790906518136621
  0.2946208969987953  0.3460091639958459  0.5339108293788764
  0.2793303077389208  0.5872881384680194  0.6868727648877776
  0.6913592210982081  0.3101524235631190  0.0927391965897419
  0.2601174726062345  0.7976691922936162  0.3212496033354458
  0.1510690042232931  0.2712841235960954  0.6598736083218284
  0.1381371003373916  0.2688758690372818  0.7293817276757804
  0.1518050664200477  0.3267947181774760  0.6869948502117296
  0.3503779567610438  0.0785210417534169  0.6643605829502699
  0.7340869703341806  0.0393240263893027  0.3926792885210271
  0.4877917922036050  0.1868607865112571  0.5318639831717622
  0.7944498077615939  0.0517396836407296  0.3051724452851599
  0.4146706843938465  0.6296586111715791  0.7501337362557244
  0.1532697993180095  0.0709927854682644  0.2724621581528197
  0.7807487043924773  0.2353988126305115  0.3133097788869856
  0.5982827354367148  0.0267077764147530  0.1222966295439165
  0.0667032354990183  0.3770113433274995  0.5386767675067178
  0.1694903071415805  0.4532168938788006  0.1674767575635086
  0.6461367336419609  0.5483041358268058  0.4334013242618918
  0.7114657856080875  0.1762998530308741  0.7003904713663676
  0.1564806740167530  0.2570755487513803  0.6310555146440638
  0.8340086095609865  0.7378848046634735  0.7494245058165526
  0.0202429103519209  0.6095745879974351  0.0011275269569053
  0.1787847838250191  0.2655468047874617  0.6108374049011761
  0.6787232119809090  0.3718066919671009  0.9824215683726526
  0.3170831237935740  0.4292070249148611  0.1360806102430476
  0.1047047476291820  0.4887904832538743  0.6216313333834570
  0.7776582671416902  0.6288843866436785  0.6212709521837748
  0.9516016293702704  0.1828355509124231  0.3521152715546524
  0.1829538841915143  0.4303086008799548  0.1896175554141912
  0.0328325399369714  0.6096014876791188  0.8894115179885056
  0.5456747665681394  0.5194995114207596  0.7329024843652621
  0.6895436736949530  0.2174010925465264  0.5117377420396548
  0.1782421697760655  0.9439163879216359  0.3274550507456369
  0.3423640783672180  0.5698931692327640  0.8329341792595204
  0.9820916688382575  0.0479231229912483  0.9574188998790109
  0.6654983195156011  0.0104174546366192  0.2170127346095216
  0.6021972789704546  0.5167983521747980  0.5647460587200377
  0.3587634052876897  0.9348157181251406  0.2975803363482261
  0.9807226844760338  0.8980389955305268  0.8349608199149329
  0.5720059200652065  0.4363838784256978  0.7117452791208720
  0.9049909612401047  0.0592473194547124  0.1769720785360434
  0.9683471319129577  0.7353678154707559  0.8278656846388445
  0.4389282146988028  0.1972922946543272  0.1265393343518870
  0.6578459902408309  0.3379357261551210  0.7189689745672805
  0.2401920123396093  0.9273316527985966  0.1565771679254069
  0.8321853500154643  0.2772922955263908  0.1294593620328605
  0.7379762801446434  0.4200108168755531  0.2484310006189928
  0.7376474447054761  0.8772436589593339  0.5685889224112320
  0.4012607583585302  0.7008809228243559  0.7052939547449333
  0.0503905478942300  0.9264052479890230  0.0952915026978017
  0.2973667661925200  0.4228539938968122  0.5741546861491318
  0.3939793399239011  0.1824759427057409  0.9190134940836967
  0.1747332020216988  0.8982887986551416  0.2831293129452074
  0.0163516247773573  0.7520698480535541  0.9701074939203370
  0.2336069277426502  0.8868897802906162  0.2144058579374227
  0.8234819692894801  0.9395794823140325  0.6470710322485387
  0.4894135146748905  0.4050188304591499  0.9583716871497348
  0.6296124430822955  0.5123479970286867  0.3569715437523946
  0.7316486410022557  0.1820031116521623  0.0382433344586862
  0.8105910185349097  0.4537185409418077  0.4802611479023130
  0.3999182540376259  0.3970341274380181  0.4199752092605800
  0.1498274013963055  0.2947463898148791  0.2879002005399756
  0.5111721377742595  0.4406622377043785  0.5129049894145653
  0.8752939587739814  0.2396130664364366  0.0501797141965862
  0.7365616151544871  0.5412489153462589  0.6756200155535661
  0.3689907818667924  0.6964564693757956  0.6972479286158051
  0.0317159110927056  0.1011133672332882  0.1092914734612800
  0.6831612580617339  0.5112922777592558  0.5944562703351522
  0.9909046823223693  0.4849419008063042  0.0290313682918626
  0.0146924163873787  0.2300549102215523  0.7275831037625643
  0.4831895020473305  0.1586145160978217  0.5470455052924726
  0.6959866092816451  0.1855799489897573  0.7273714608005896
  0.6282424085542890  0.7436380813422464  0.7091727495963064
  0.7309583940883376  0.9536591761680906  0.5110027198619076
  0.0711189499198145  0.8426849371482807  0.0804842672365384
  0.5729039369667432  0.0381823699034483  0.5640038379423132
  0.2129891179370509  0.0087000409317438  0.5345204337595675
  0.6833431948187568  0.3151350891907097  0.8307608502381724
  0.6540597826599008  0.6702516238568269  0.6082385476939070
  0.6800660487599907  0.2355918689204828  0.1681291944156895
  0.8269169303764718  0.8482017232500879  0.6011830196050296
  0.1366953762971858  0.4889221990252196  0.6125103957235410
  0.8037403956308440  0.5373067793447316  0.5948320793965736
  0.6104730227053530  0.3275440567846370  0.0094105680049097
  0.9046124745518300  0.9088800897871815  0.6036440361051962
  0.3407184413671846  0.9824336477641575  0.1417338675469690
  0.3117076744789151  0.7387037680505139  0.6464126729847062
  0.5033811969351430  0.1503614449321031  0.5714455206465719
  0.4847460397345637  0.4156853674960042  0.8882334303419782
  0.0140335369761791  0.1377875989771576  0.0695292236427301
  0.8419037167039224  0.0335555559580140  0.4453012925512215
  0.5383699189608483  0.9015637511170704  0.4838538539458136
  0.5918310744101162  0.0982923679089776  0.5530942325620226
  0.3799261270071215  0.3837878977698616  0.9598931317536183
  0.2863759720710887  0.1329810702275229  0.5298805020511792
  0.3231409268942025  0.7153582800905139  0.6670393256073012
  0.2371607557855964  0.4304303171915527  0.6352418154551980
  0.2799264745506138  0.5690755500197050  0.3298115283661484
  0.1708227610595470  0.5820160163095808  0.2301168736176852
  0.8497817876415008  0.8987399233809484  0.5875817997471950
  0.2789757203080971  0.6839890988129044  0.6528137926799262
  0.0462914793974109  0.9828281919577505  0.1128926345959913
  0.2122708312184613  0.6856736004716268  0.2272631337510286
  0.3407428307810785  0.1188679674616538  0.5355850157689116
  0.2429321571318264  0.4574135322020771  0.5652167963125605
  0.3249854849426747  0.3717187331087894  0.3276021032787363
  0.0339559718952428  0.6002863341404721  0.0297058109183293
  0.5607656966393308  0.0058324783606414  0.7273230952785670
  0.1920202943312974  0.0061922726725150  0.3130202774434256
  0.7981961505650116  0.2933093465376397  0.0365170659802322
  0.5939708827420381  0.2191624939687512  0.4457216674282187
  0.1779869828252217  0.3792907063064878  0.3101509791645372
  0.7343714655145919  0.2800236541801343  0.0719133731579484
  0.4520815853626276  0.7021257929370645  0.5455805409543973
  0.0014490516557833  0.1640994083162145  0.6359490097647549
  0.4428825258153345  0.2406154803961659  0.4821950404488888
  0.6413211902595233  0.8802428756162852  0.8678879766096765
  0.8803370982290436  0.5693341040540161  0.6223863252058752
  0.9700884768580382  0.1993566346126224  0.0301253887502128
  0.0742705672105681  0.8710612621173569  0.6360953064792122
  0.4182064405197801  0.6648772310967964  0.4621362023071495
  0.7463677577695239  0.1171979856324805  0.2795437230487412
  0.6359577297810958  0.8909048383663525  0.6250095197734233
  0.0767562070558811  0.5480092387917864  0.6786403630429195
  0.0952229639971063  0.4858337523621751  0.7916660485171455
  0.4040156387114060  0.5544367626324999  0.3458273368462824
  0.9080318569882455  0.6717617086676099  0.6588157485176808
  0.2232141616417785  0.5323304767013536  0.3201194781076653
  0.2576102588227138  0.4220700604643183  0.3537729833886472
  0.6037406673053830  0.3389358509925670  0.0585807167349970
  0.1565893004592262  0.0013869820960505  0.4530693491969823
  0.2676065927962515  0.9189015319814735  0.1000259112783938
  0.7468189467986822  0.1871293321358675  0.0666786149265758
  0.4591910139903548  0.3496232161699508  0.9515752033034960
  0.2886351128644809  0.3656683154988692  0.9195767942659351
  0.6917856101622438  0.4706717534881416  0.3166171336183797
  0.8555259005992072  0.0795801577710992  0.0354392191246813
  0.0382717313410806  0.1554814430230594  0.4129267583826252
  0.6829333540910310  0.2864580109611937  0.4692412159038556
  0.9638871296028588  0.7075688033420234  0.8110704691037893
  0.2229368550401852  0.7761934229360044  0.3648878599507228
  0.4444762404116449  0.0095294705864386  0.4937634150673663
  0.9016702814430744  0.9395139877827606  0.5942641526881012
  0.7248145847794097  0.2803185997862194  0.9112747219747823
  0.9341609054377744  0.1559237685816089  0.1375975982653737
  0.4223073943922630  0.1716355813173042  0.8711310294974952
  0.5789711170157902  0.6738318635320965  0.7283521858767608
  0.0669076978568905  0.7296002612942893  0.6727390891193853
  0.2187637969208621  0.2448379923037800  0.3290242997334603
  0.0220616830046064  0.0199577377829180  0.0773047919806145
  0.7065160486049392  0.5118200255861213  0.6405934259970869
  0.3347583034845982  0.1808019155671798  0.3801984163461743
  0.7917442083423816  0.1106101639020461  0.6545038169060550
  0.1555383784169440  0.8704075101617645  0.5257355170354595
  0.0381643801312894  0.0951828133264435  0.1409750334174170
  0.6440634425899695  0.4931390733742782  0.3353512484259252
  0.3895899814306127  0.0937460986261194  0.7026837877423454
  0.5318406592463564  0.5739548789123559  0.7377264853973416
  0.9095026005351893  0.0365814054062191  0.0130544281747651
  0.6399127031420652  0.1864954674632737  0.9196136827963937
  0.6043714043249833  0.3729978772551188  0.7175298157099379
  0.6109458456840263  0.3549674403074130  0.8037937701573266
  0.7989867285904885  0.8076433615255034  0.7136062420395535
  0.0550028955444502  0.0798560583646101  0.2864977240807346
  0.5314555622326331  0.8456840033822033  0.7883956624787932
  0.9591791314387217  0.0691844295677338  0.3109016284653020
  0.3087125075499277  0.5865575532085451  0.3323838288547619
  0.5407975945797410  0.0953723128774695  0.9810114123379349
  0.4952022056179465  0.3716308790402080  0.3693964578634099
  0.1681950542571991  0.0850251587243006  0.4547068898346682
  0.7435907863654578  0.2866891654471018  0.8856616680878524
  0.7532943416167229  0.4825670668739941  0.4661881254347779
  0.1031146761821874  0.0697539070193537  0.6124435790652106
  0.4769447501115999  0.4714737704698808  0.8541054954089244
  0.7216472672131028  0.2618369348753694  0.0206090215724175
  0.9179099600088876  0.4060546033491034  0.2380741941225328
  0.0940434236089247  0.3501891860999310  0.7508102832645199
  0.3202231801672202  0.4705447348232455  0.0312520546189716
  0.5257412793739020  0.7689074194791579  0.5481646734403007
  0.4880170257901946  0.2991568017516985  0.1907461706079390
  0.4039943332524003  0.0201611539903766  0.1488216374849071
  0.2804820946760866  0.2069555207901968  0.3060061682161412
  0.5866336331244042  0.2947591398890351  0.3550488991614306
  0.7196506094545930  0.0890200962718444  0.3682642598602622
  0.0392203089717340  0.1730843180145452  0.2051345261098650
  0.5027794882143529  0.3148341500028396  0.8742195747319709
  0.4847418109160958  0.8654693511422237  0.4933892985816316
  0.7416655028676559  0.1860870691349398  0.8702335979260546
  0.9671318632182063  0.1075879012409885  0.3903274649110640
  0.6169292679415009  0.1885379934873212  0.5368698731052683
  0.2427110852014467  0.0694412520019168  0.5023742094991862
  0.3040436919135645  0.0525579140595703  0.5349850629632454
  0.5246155570867900  0.3913327177641909  0.0634974729760278
  0.8622259116479210  0.2314261683479825  0.7180784644623148
  0.8158856296933644  0.0865488017172888  0.1959597927145363
  0.3564575597200570  0.0249245140806261  0.6006606344052895
  0.3487207556536328  0.5425282790010302  0.3442413201363997
  0.5311787200219766  0.1313205535731307  0.8422693754719849
  0.0352525562077047  0.9801671849396102  0.6201425286931190
  0.7480552465190476  0.2962799727242367  0.8312890094342672
  0.5975237638240504  0.9849548042198464  0.2648145538046718
  0.5262192161522717  0.2817427412501518  0.7842285273961380
  0.7916506576727858  0.0079536234336399  0.4355483324716148
  0.6386207579291781  0.7639261553909642  0.5845898069087219
  0.4176120340420058  0.9402932486648713  0.3517156793999564
  0.9966308193333141  0.9799963143836153  0.8885762582262851
  0.7382143639049309  0.7098536596003570  0.7308718882589553
  0.8481516557203234  0.1793144019754183  0.0171723609296429
  0.0076478091876149  0.6853835329516534  0.9165197666688393
  0.2642902224035486  0.4038242532442126  0.2132951599971783
  0.0836645059311789  0.7283639244035819  0.0845401790252742
  0.0332472771861851  0.1184870358485868  0.1939680321733178
  0.9135419927507136  0.0893448858973798  0.8319380583866434
  0.7880006975343088  0.2910901125577148  0.0952250114995593
  0.5618574393986883  0.2112404646264539  0.9422692778857206
  0.8863265465678922  0.0667457262280969  0.0822030219615451
  0.9337299368693576  0.1089351982947697  0.9206574202437295
  0.4890714486468238  0.3251089434947070  0.0743830744723858
  0.4456181779694253  0.1590866371286605  0.9209962812253446
  0.6188138766609821  0.1255220083840860  0.8316141053551559
  0.5958368198331203  0.9501271909086616  0.4422186633153908
  0.7825400507411036  0.1309336469465528  0.6794296369666606
  0.2208337394147301  0.5451409865525738  0.5898340866226987
  0.3341950120166792  0.1062126802510990  0.6697254546737904
  0.8881033716586774  0.3642255517627779  0.2578923773182343
  0.6870673261522015  0.1791240892232636  0.9510119580898864
  0.5658785464416179  0.8666246846518002  0.8292543708434044
  0.4042620289991243  0.4297524898358260  0.0159595795354759
  0.0952059552086490  0.4062988912561578  0.7582939116130616
  0.8464261492006618  0.1313735425416309  0.7964159907740865
  0.7196593358663619  0.1324473035945812  0.2916821612811249
  0.7623915480805360  0.1031961345810685  0.9174212956934646
  0.0960820329583944  0.5413921009289344  0.8966162423869948
  0.0949701310344185  0.4472016989364485  0.5843526768259882
  0.4707940192633264  0.1626744747492755  0.0543363486679418
  0.8604465209747436  0.0835064503007336  0.5508741504317555
  0.5963684303246354  0.3583280301816531  0.8331553684399819
  0.4653338293182301  0.6535835298291260  0.7425250909230432
  0.4147708240655198  0.2163732335155047  0.1941583402073106
  0.7749561124445745  0.3787920176188433  0.2375920390877937
  0.8287831137645398  0.1597431560249507  0.5388683034024503
  0.4325754693171983  0.2619760951615285  0.3156344021872673
  0.8073232355772312  0.3129282435243145  0.1765330839522775
  0.5133897938214178  0.3832617208195681  0.4523623289547489
  0.0966333041764730  0.9921015246946641  0.1664607142273669
  0.4942130112353832  0.4784816700232313  0.3321692198772064
  0.9415894396754104  0.4418702905056988  0.1030697940441217
  0.9379096020277112  0.8489748871551764  0.7757538100945888
  0.1274765166764461  0.9737753488959767  0.5597977071984391
  0.2353653125198991  0.9108815278018942  0.0468478839962339
  0.8847413999715052  0.4353570131180471  0.5211825892142272
  0.8530548221174282  0.3446680528745177  0.9939914614994931
  0.2944652669328975  0.2349464934185457  0.8770950340779731
  0.5673696512910490  0.2712819821777478  0.0957264021187425
  0.2323767052655882  0.7126901133722252  0.6275948707305923
  0.1908082150451507  0.1363488454074167  0.6387571325408151
  0.5569645884374643  0.2740976031624535  0.0652444627951478
  0.9797985489471374  0.9726388304917498  0.6168127925684774
  0.4283040281642167  0.8821295109781672  0.4666633429705255
  0.8821601066299727  0.1832731321906066  0.0200508380304475
  0.6775377982425934  0.1068893936300876  0.1344923764651477
  0.9095710995987040  0.8232345140631326  0.6511091170239361
  0.5636431105859386  0.0640789166299921  0.7052971039892759
  0.7012007758109421  0.3142108222014514  0.7474696473189141
  0.3969799966466841  0.6078251077806069  0.7655302498440305
  0.7139017633056894  0.4964534670060523  0.4283976376542457
  0.6509627145721496  0.2048811554240551  0.0590982287367826
  0.8729561483418882  0.2167530016162112  0.6909827371774870
  0.0623334176829270  0.8186967647382883  0.0599441801262869
  0.5592131275122375  0.0706255373509008  0.0263165561369377
  0.0101284215332778  0.0956199083316606  0.1979777203842558
  0.9272646359163378  0.1111463751796193  0.6020309839915177
  0.9554867165520808  0.3014732012662861  0.7094168011455150
  0.9153860262951851  0.2277273523789611  0.7370175756085028
  0.6637425037449275  0.1971025055874513  0.7820110906311186
  0.7885360737206515  0.2348878523873943  0.2584068310029503
  0.1303030375804991  0.3720175338033320  0.5300206514406798
  0.3749035980914804  0.9409090755003107  0.3831853222961495
  0.6985718858537651  0.0860294596421458  0.0486583671620182
  0.1342621526844879  0.3482747479757990  0.2945916026913525
  0.4697853999598423  0.9489187304328757  0.3383695162688329
  0.4762860310765238  0.7805283697147466  0.6457475044820153
  0.4117022333272766  0.8039216984413031  0.4980315779085298
  0.2662780556861780  0.4359674122888001  0.6197357219059292
  0.6648490037555006  0.9823593663126244  0.3608824494442637
  0.4630667721374690  0.7789479859556973  0.6777875385135261
  0.9910138462825759  0.4250169751775082  0.8606303288737164
  0.8466222636712089  0.3353885588576063  0.9631952827881790
  0.7428862834920085  0.0035316580413899  0.3924236408815594
  0.8980905787376667  0.3145024008407809  0.2934897977590595
  0.2320634244062762  0.5386224237062749  0.6548175755473107
  0.7381031638801263  0.1789451661716512  0.9259785186160688
  0.5185063956109434  0.1146792412138612  0.6118159312322065
  0.2287219936007757  0.7644646149332399  0.4459527463810957
  0.3792183324097517  0.7900524506752620  0.6506705566923356
  0.0527690256048271  0.6083107552559057  0.8377236874772011
  0.1679750359843976  0.8194094979795070  0.1741918028671935
  0.7311339149308150  0.3003465071921881  0.7477900846485352
  0.8872011640017071  0.2867471161318259  0.8112989004010591
  0.1275025194660974  0.5186812257039560  0.7595337771269712
  0.5212771152165054  0.1764549994507200  0.4320041156295510
  0.0378968348511886  0.5210033366033563  0.9506875217925398
  0.4139384853077387  0.9826579380944105  0.6799083129452861
  0.1938075404263531  0.1171647171944050  0.3047574161072867
  0.5788389347200982  0.0463730273968294  0.0730109003857625
  0.3711959531177462  0.4487459224997263  0.3574300210503970
  0.9091973051286785  0.0596689628968386  0.0336951641722527
  0.6082816868604254  0.3549901580849374  0.5762507155366178
  0.4968159792417337  0.6325071056380926  0.4493147376388831
  0.7035076123458001  0.9372662776999652  0.5180432758705906
  0.0080827459910121  0.6409952927933259  0.7796377811584810
  0.7823645699164059  0.9909793637726725  0.3524323764111695
  0.4983284460810704  0.7939333339754115  0.7259984177515637
  0.1926355413342826  0.4885188278728153  0.0916114208127589
  0.1708865356973104  0.6074449684219430  0.7058793866712311
  0.2337593858106383  0.7660684542564264  0.4146185438952263
  0.0386920723170673  0.0387480103329848  0.1272417502843736
  0.5088886632311526  0.1459374190693549  0.0107245840915676
  0.9421875685319847  0.2008817419691554  0.0129580072224955
  0.7074115997946355  0.8589719989858046  0.6611620500708367
  0.9998509075053329  0.4863482704877155  0.9733164204512803
  0.6041450846990790  0.1459173033321958  0.1255955131515832
  0.5636459282861390  0.1878784060318761  0.2599327761632944
  0.0499670773933654  0.4020905815928644  0.8035349572409997
  0.9224131909919013  0.0017186166218888  0.7153170787626573
  0.2566787671628407  0.6092277924564800  0.2978454660761142
  0.8149877005600720  0.0164760027927632  0.4568250532565732
  0.4485687852666982  0.1544529918178024  0.8241751894051995
  0.5977997358787227  0.5192886176907415  0.3534765284135790
  0.4792161385801264  0.5066850497477661  0.3421056629484669
  0.7714634447600889  0.8375576350859724  0.5901992752870172
  0.8453022957390594  0.3741009693620101  0.3307561894412888
  0.5116797564682890  0.8588204173433046  0.6059162124627876
  0.8479538336881023  0.2565133342059094  0.0488664685410643
  0.9859580410722321  0.2353815102664893  0.1945805143907481
  0.1695660886167510  0.2668806544875051  0.7401809789535900
  0.9842469820458384  0.4749931066527200  0.0843672094709335
  0.1581700053302643  0.1326473275994381  0.6367160878143698
  0.3101991271982685  0.2014872200923439  0.3758771492291376
  0.5277423486450122  0.3880722377047269  0.9911408548446623
  0.8101216800659318  0.2970884065601716  0.9810705379689910
  0.5162899983025711  0.7344442128875793  0.7182855267052459
  0.3513708919251300  0.2808675227950584  0.0426530408311913
  0.2431323674834345  0.5382547872343937  0.5681175389373242
  0.8659942546377215  0.0079225357123105  0.3545445826079582
  0.7039872513204101  0.7132978427390509  0.6099370691538618
  0.3063559740203571  0.5240434970336864  0.6206001952038507
  0.5600089032581382  0.2467479388164141  0.5592492348037453
  0.4152927503942038  0.1695736449072044  0.3541961135681491
  0.9169678134118723  0.5242679587782870  0.6319084422396357
  0.1479362328626694  0.4711207000627696  0.2961630069074860
  0.5420709413012518  0.2764797537787134  0.7562201399394087
  0.3883155219400456  0.1638940396401355  0.3711686968349346
  0.8275866166095294  0.1823723791777170  0.5623441907545225
  0.8185271931782562  0.2214662884260912  0.2622501252817348
  0.9311110794076169  0.3262320969697904  0.3526680521156069
  0.0147575380515988  0.3624678950829738  0.5226464083725415
  0.9267641344879103  0.2615969362241468  0.1925385303878629
  0.0587000929925224  0.6186546001765264  0.0766431151310147
  0.7416982043872206  0.1631827059052984  0.7028807975973351
  0.7859558700993220  0.9668811470800107  0.5211710870287085
  0.5165390335524018  0.0850259774655154  0.6239768699565326
  0.4229863542846337  0.1689085747870414  0.8386983293584823
  0.1497722784280306  0.1871404959274139  0.2856435803042566
  0.6145128124104798  0.1868463856964797  0.3014820668598507
  0.8945858301497925  0.8221557113571437  0.7075237663224493
  0.3952462451012377  0.1821214615046269  0.8862032258871498
  0.7956626918912075  0.2946963911111900  0.8626997030570872
  0.1200096776297969  0.5302650023313271  0.8143123951347232
  0.3025299508408652  0.1072239929844835  0.3699902816669957
  0.4397263932453775  0.7950406974209044  0.5109714106472441
  0.4100772598999333  0.8814036371295910  0.5602536696816866
  0.2866529676813223  0.1364559272047751  0.6630063185589635
  0.2156898190958277  0.2997526091651833  0.5221998501054907
  0.6941383541199465  0.0723310131571745  0.4146635654923470
  0.7941672610027803  0.6820208684118064  0.6315216417428691
  0.3459964871237526  0.5961519386168564  0.5939665731465077
  0.3817259256319623  0.5188980429671888  0.9044096578933811
  0.6140879276027310  0.1164679988431328  0.8978525692954433
  0.7288706705945588  0.2171300376994127  0.1454689088990978
  0.3381268772965579  0.3996709642290557  0.9277132987576138
  0.2103904290655884  0.0557451005307107  0.3302809352597890
  0.1840308116851725  0.5219276074010054  0.0121258996591814
  0.9448063722094778  0.6285550451253664  0.6619446178218978
  0.5026014950715163  0.5383935013165647  0.7679877094158597
  0.3963231526508119  0.1113246056386418  0.5402499719454354
  0.9677166270758250  0.2202833613428941  0.0548508071624128
  0.0987467802129365  0.4617059822244473  0.7695133041511969
  0.6435072696293450  0.4661123891438080  0.2862230183596857
  0.7985047591291273  0.0065468214277831  0.4041404605717256
  0.3567272360169466  0.5561150838024257  0.8583701517096600
  0.9559362606920087  0.1322006990188029  0.1433711321963326
  0.4243629297645428  0.4342705238435627  0.9909105042261133
  0.2957453915754279  0.5190606469643484  0.3536853977501727
  0.6207912383958722  0.9303812745731919  0.4892711978059792
  0.1028489237615401  0.9636088196100725  0.1531344948598516
  0.9391140794377516  0.1225794037631840  0.9771854698228878
  0.3221564319018633  0.7553994012484742  0.3623131019063424
  0.8483278311892984  0.0102872390037054  0.3018906715792651
  0.7016610018838758  0.0381908280192578  0.1822609128428344
  0.5789140110883348  0.1465669311087907  0.1046604665968405
  0.4128637693771592  0.2286309022889473  0.4847336680718122
  0.7774725656273800  0.1987463153251507  0.1229358750704314
  0.9704830826910796  0.2413999929354074  0.2235908958892762
  0.8031432043493678  0.0875565166533078  0.9955066809061964
  0.1335924228906067  0.9182784086198524  0.1422933655033650
  0.6967607323162731  0.2229003927863782  0.1430449020894086
  0.5161342176923061  0.0952146660780601  0.5090178530738138
  0.2381206262387056  0.4622349199859586  0.1148733439234810
  0.6289368869192257  0.1733485809011870  0.5640697728122278
  0.7395059931435024  0.1521825874680864  0.6479611552827451
  0.7992335760204861  0.1322092445618522  0.7081774074456667
  0.6751106589890589  0.2870600389996311  0.9383112732406445
  0.9692189736937465  0.1279427319983793  0.1730852578068340
  0.3978314719335177  0.3475419093599773  0.0479870075885038
  0.1194597709353301  0.2962341499540704  0.7285758509358656
  0.8054759344412451  0.0934740791388701  0.1407234250560020
  0.0089368504930220  0.5713357523546738  0.6687052369283841
  0.3213299329792155  0.9543047177760579  0.0990826926716802
  0.9316498499398442  0.0843915352531410  0.0438360360310660
  0.8419219694560289  0.6528600064203437  0.7465157148684292
  0.4434614323930276  0.0943040014329971  0.4213177080750228
  0.9911889933116548  0.1189029858783404  0.0204730325064703
  0.1938125046216525  0.1427281075721599  0.4397183579879867
  0.0628011359480116  0.9639791298688546  0.6137139246836369
  0.8682473743396312  0.5089552228860365  0.6621732323479294
  0.6686526265977860  0.7545570173186116  0.5945319712980679
  0.8878571447071084  0.3850664155673180  0.9750579777666504
  0.4960253911041457  0.4233632572120386  0.3170548396458786
  0.7610012765231265  0.0651280030128598  0.3452086695129634
  0.2197758917040938  0.4535568380264504  0.1404458966958783
  0.3356706633671683  0.2599470348827983  0.4921488421549653
  0.5337472303076607  0.7897194854828014  0.7818345588806136
  0.8250540303005723  0.7064462949150762  0.7500312083117296
  0.1736208973507746  0.4607469249195221  0.3155299617930717
  0.1447926856303889  0.5324768856765327  0.2349499055373594
  0.6525579800669574  0.1227486338819994  0.4103061862767295
  0.6840499928270466  0.3185403503417651  0.6063278519085683
  0.6676602960041810  0.2817359302612490  0.3857846879632325
  0.3314409297149893  0.2339364786010011  0.2930084580923101
  0.6113073229161795  0.4903604724949434  0.6799548438893317
  0.2298070266769666  0.7840759815894318  0.3114487953550684
  0.2935588430173177  0.8062571816645520  0.2632767445820046
  0.8651235752167085  0.0636636332865954  0.2164769634035561
  0.3097687239878563  0.1103537007565153  0.5332901053027066
  0.2969319657854625  0.5105304459165996  0.9859878551190687
  0.5611063340157912  0.1269208762830961  0.8284183712950585
  0.1844571046594965  0.0253594423763780  0.2548012256546228
  0.6008109966136636  0.8333388332162140  0.5497712759015657
  0.0352157202542346  0.6352372525510825  0.7962291569864524
  0.0976103322414666  0.0680597660662293  0.2526093859476194
  0.4806491706515162  0.1006359858005748  0.0093069459561712
  0.8326723073079936  0.0695862260411324  0.2184479625228170
  0.8962912616119885  0.2646829859926023  0.7886959377735440
  0.0539721660657068  0.4854688154010341  0.1793845247560461
  0.5512414852126870  0.2859692721293056  0.1197453066871995
  0.0346361156923872  0.5933323877810598  0.9181904281955705
  0.1794233885088926  0.7739416029375724  0.5894189933147589
  0.5835814017115611  0.2508055067379917  0.7271874716394815
  0.4598352862249992  0.8719551248314409  0.5866900276541328
  0.1602687411299008  0.8379312198622189  0.2991690900377375
  0.4387303495279483  0.2663602751729486  0.2850183510909075
  0.3828754509937095  0.9454969342708386  0.3503393977825666
  0.7489805720461201  0.1101692875150568  0.8657121350639332
  0.9893416754077082  0.4447164871424877  0.8860592401454502
  0.5174765917816210  0.1126592140986599  0.9669215465664763
  0.4399069372071165  0.4877410733589939  0.5247537979432558
  0.9512302631738558  0.2758670294527891  0.7976335252826583
  0.8795570548641990  0.0620097195019841  0.6698727843403919
  0.0901084964074941  0.2951294914905224  0.7433390114055985
  0.7319578839693762  0.3017728426747366  0.8033971073724588
  0.5020386046469133  0.1422601876212606  0.8899850698199635
  0.5766721446344162  0.2453579787057939  0.3887293940390178
  0.4450079457244663  0.1431171174938520  0.7939189629511580
  0.4788291749378025  0.8007748196712685  0.7008250533434786
  0.5243703281864479  0.9573302497178399  0.3469987114490513
  0.8601974282582158  0.4812843414106783  0.5604379726220491
  0.9236034246897662  0.3451505977771092  0.4074440201773921
  0.8249960796010319  0.5619924692581320  0.7124442075229147
  0.2283991817174406  0.5832232880998800  0.7106942514591780
  0.7234555714683013  0.6187166724393615  0.6059094192564457
  0.0336417043854342  0.0127137715770085  0.6163494963540411
  0.3435628182592924  0.5101879932555473  0.5810144274350040
  0.8843691652887011  0.3836047872331433  0.4199269582565335
  0.9682590260757808  0.0105924763829119  0.8523838413177990
  0.6649863902870835  0.8232949856928601  0.6695210103117928
  0.6840882892534772  0.9937700585823224  0.2669685544820149
  0.6555702868045250  0.1435415030843368  0.1671825611119648
  0.8565727050827499  0.1152457463430044  0.4529523553422474
  0.7502104375095556  0.6255738155481527  0.7217734648331391
  0.8966879345253317  0.3868128056412954  0.4501929004156666
  0.0293863428683399  0.9887614427386054  0.0854522079740913
  0.7262382994605089  0.4992235861619536  0.4584098675277071
  0.3843651569820133  0.0273992691959954  0.2706342497027573
  0.6926439978061505  0.2883773261045726  0.9110898304120225
  0.3333763946421008  0.4334457569500766  0.1084724418124155
  0.6350187211318622  0.0008713231451048  0.2251958263880903
  0.9075844204080390  0.8239540705882664  0.7369560954878582
  0.8510782968925429  0.3098982965704914  0.8482641327097623
  0.9361473211239683  0.3486392582729420  0.4376286179277477
  0.5011148459531146  0.9809617315763184  0.7606579084838831
  0.9945512786895694  0.4739460041735316  0.9435210967859747
  0.5455469606867467  0.9493250974070659  0.3999027526411240
  0.9408411202226763  0.5762873910965318  0.7162714211874964
  0.5371869341096794  0.6792984748630979  0.5848875307429652
  0.0475414212233717  0.5948172891828710  0.8656252319525961
  0.5513091826738795  0.3814454447512775  0.8591533149541968
  0.8568778061005713  0.0526797649407811  0.5429859461061983
  0.4737309565766674  0.9781444597430418  0.5422819605903314
  0.7204406102820018  0.2637564492305702  0.9641045967448189
  0.6464831214368026  0.9836403998689338  0.3078025750613402
  0.0563230612425895  0.8717941878991002  0.0772501552251852
  0.9305794955792567  0.9957563000769475  0.7455115685757876
  0.8881738426725199  0.0239462228071759  0.3720142471824866
  0.6171744195159315  0.1293093006967259  0.7985372324391889
  0.0948181969675545  0.1692441503302956  0.2818293621396018
  0.2833426368902796  0.3406118218435951  0.3486567049972672
  0.9756046068840568  0.1932344923872074  0.2982535417224791
  0.4645229907660436  0.3896284266818147  0.4224093369399602
  0.7206363646099420  0.2623287661037761  0.3063471867164258
  0.1024412267111513  0.2987780191383148  0.4897387976059571
  0.3432204563639021  0.2051359956162254  0.8824133496634931
  0.1538360264720401  0.3179006319451207  0.5063424841163583
  0.5540446372945940  0.2526265297521429  0.0138014628072289
  0.3266206482378620  0.9553332142744859  0.1526920468719987
  0.3766296419951920  0.0133386038580118  0.2158218626342154
  0.2431595739948449  0.1615445139611902  0.3052544745114344
  0.7949720247826394  0.5545066778408828  0.7013679097766250
  0.2721434693478822  0.7870329489823240  0.5164109389297382
  0.3083109485261339  0.2553307726740215  0.5092267155393290
  0.3148389328131840  0.6441113935597207  0.5860921201395197
  0.6308203044928711  0.2542979015384970  0.1904894744418822
  0.1944126427842277  0.5582053040575004  0.8473601621618868
  0.5076463065477214  0.6890459497670341  0.5762331347369282
  0.9187511873183600  0.1768197826466481  0.3076484934148683
  0.0023291731179676  0.1902213923373647  0.0852305020885215
  0.9231104380058555  0.9925875776365707  0.5988678302956183
  0.1880567636685223  0.5393592035694740  0.9589112821109219
  0.5838444420993215  0.5402236869541991  0.3737607974816143
  0.9760189343896165  0.7661298689182692  0.6691674864485190
  0.4696914250271000  0.0711620727820269  0.7569687989177490
  0.9643644376301058  0.3252835099124187  0.8195347652695142
  0.0428397929407786  0.3481345972452313  0.7919675995421498
  0.7453187313642258  0.2042419851055355  0.1204275385973640
  0.1472347495866515  0.2652040820762733  0.4868376633297152
  0.3874759882449310  0.0753332598655372  0.1156327394201518
  0.4167007547846196  0.6770760466357242  0.7215634411553464
  0.4843701371354845  0.0072251595782306  0.5337312445791288
  0.0350761489365407  0.4726829791929601  0.8671912629852915
  0.7764132388022609  0.2884799242246850  0.8883473299209991
  0.5426718969975479  0.3757665010235149  0.9424289548805044
  0.6702545068836032  0.2779748547917320  0.3296994106868355
  0.1066120777120419  0.4258903824030108  0.3014244253817647
  0.7859432600328886  0.5984350833148889  0.6133206287272664
  0.3809109796714217  0.1335564109538926  0.3808775239769151
  0.4165984298945069  0.4084861456997169  0.4471324716346811
  0.1262373458545560  0.2470473856586700  0.7068354239621164
  0.0518056411954014  0.1806532140144007  0.6405579895545651
  0.1807236508576689  0.0119964884886759  0.3957779296602750
  0.4307043505040792  0.1546422574927327  0.5255000176887054
  0.1853319034216896  0.1622292506112683  0.3863769772259386
  0.8177990514042274  0.5152021217271466  0.5733840030736295
  0.4880216719665509  0.0106656160752836  0.7603005688816460
  0.1720361319341543  0.2101330923718883  0.2965029512291549
  0.2138963974957380  0.2135813209281795  0.3349621094720869
  0.0734343571701226  0.5919684805084221  0.7894859698062867
  0.7108796343983035  0.3190927767976817  0.1170331419588458
  0.0831386792770195  0.2186960852496918  0.6793146792415407
  0.5424950422667622  0.9478953669942467  0.5834422245606660
  0.8637228876938678  0.3662844922427606  0.0547532559406229
  0.0692237111036411  0.2693002943008210  0.7436036693194251
  0.2628422379310184  0.9194569843742981  0.0454317815010896
  0.5081953285262119  0.3020459194119533  0.8443295767654708
  0.5683126840999696  0.1836606046610129  0.6184536885828630
  0.3635588197485550  0.9063202613945451  0.4248651749372480
  0.3747660066419170  0.2044695469175459  0.2683661914115863
  0.4082625885947961  0.4158323623582533  0.0700975587223051
  0.0029398293351670  0.6810004770094031  0.8437702045498124
  0.2525925714787123  0.5353291534435899  0.9622407708767351
  0.3922824740960941  0.9998440838692125  0.3628237994014426
  0.2459860668242711  0.9603428061692143  0.3862658123361868
  0.2699276410106791  0.3927869476279573  0.3558292406830365
  0.1596793546447292  0.9459253566411395  0.4434848885770373
  0.4489455619908027  0.3908144984212925  0.3935114356846574
  0.6993468358211777  0.3114609472594508  0.6346477259699077
  0.8313518556718578  0.2791049399421169  0.8006155894126044
  0.7855131873583290  0.1761408058377257  0.9570488167163942
  0.3253697876908634  0.2035168480875348  0.5173419403006904
  0.9386642892855152  0.1167485795176332  0.8698315665384677
  0.3684675219858047  0.1965121378314353  0.9337841554808638
  0.2169573934452557  0.7821522313456323  0.2819375335294586
  0.4433810768984230  0.5793460640974213  0.7841311573417862
  0.2799835796676458  0.7888505807219049  0.4514291494518914
  0.9393096490989811  0.0827064377949550  0.0755331636189384
  0.4686422500993633  0.2794377190776957  0.2399139826674349
  0.6798338536245270  0.4466795975619425  0.2350301597350045
  0.4994712420695667  0.6616427748949577  0.4982587105719506
  0.3614715705120648  0.4383614838421832  0.0503964797766675
  0.6232790591369308  0.8819881722517521  0.5320539730748175
  0.6728212803341351  0.3015127510239302  0.4956162861458571
  0.8173672820908405  0.4138112468626552  0.3749230175173744
  0.1488067179022960  0.5439399700421413  0.7586744113307835
  0.3770767507757762  0.7005163908183573  0.4738804696658254
  0.2971936186404447  0.7745701872038802  0.2717334665287907
  0.1185700207454900  0.4551893579019515  0.2896764064141920
  0.0119812319408201  0.1949063596566331  0.3085772891696009
  0.5456011642820727  0.9525996055648611  0.7241583612345975
  0.3730979620574069  0.4881921180739270  0.9504774866629494
  0.6992614511113356  0.6691725763443372  0.7223621880060697
  0.7076891041922412  0.1011455626302640  0.5805483163687154
  0.3326975249440124  0.0488031173847145  0.5535927865709380
  0.5166293267075538  0.3092227894989822  0.0816415011596194
  0.0978830690612041  0.5316659996775166  0.8403042813576431
  0.5408126903384003  0.2894993576634184  0.1751494738715257
  0.1945857212794580  0.2792147534698535  0.5095729881243567
  0.5973969655017557  0.3674174603227173  0.7752938784182900
  0.2593211389784090  0.1207412608637109  0.5177544271794944
  0.9314581179214595  0.4337476704915653  0.5531441143020487
  0.4816002722775277  0.9298310482514102  0.5687920773008189
  0.6212524699611160  0.2923913197988849  0.3550528202569320
  0.8171272576038193  0.2222670187621676  0.6115803814975428
  0.7251215141706621  0.7625220212309327  0.7176774087678844
  0.6309943342197643  0.0572910597035017  0.0893541153014710
  0.4195111822073068  0.1776349554087986  0.2486324239967811
  0.2725461468877438  0.1765151310296382  0.3086555438833835
  0.2117733166818818  0.1695544510742896  0.3006870349722718
  0.9225318794059595  0.1142860103292350  0.0334673272232788
  0.7194225265352686  0.2501158580312293  0.4457114844897846
  0.5567432869563937  0.9539616690166817  0.8191274294092747
  0.7053180858291419  0.1803461949388453  0.9240361402874646
  0.1672900314518997  0.0254876443850446  0.2268886425624762
  0.9526803517545422  0.2483888092541529  0.2948090471339960
  0.7433812027754390  0.1822804419990696  0.8141243886830138
  0.7665579368036896  0.1104799754055781  0.1820577994087550
  0.8381073919482179  0.7561044062007151  0.6322987217925160
  0.5875897814966226  0.5733865381444121  0.4192924049895711
  0.2412819525228380  0.5596204204010053  0.8801171657573940
  0.1306993204378332  0.8585724126007227  0.1440239004635363
  0.5692391151974707  0.8000136560586378  0.6589816896457568
  0.6322759897050464  0.1840848843849282  0.3553710267763791
  0.0052674275648134  0.9742096972718858  0.9190898981869857
  0.5911249491205633  0.1980752366893693  0.9444552313687528
  0.6785533487076175  0.0818436436269959  0.1108875851597912
  0.3713555124137456  0.8831177188791508  0.5196689753495487
  0.9694031448333869  0.1914033755233040  0.6737836717093849
  0.9565290051196943  0.6560017441170275  0.7715235412517140
  0.3181165670498698  0.7040115191788009  0.5653803142402624
  0.5437634565746395  0.3708694441046083  0.4562483750843680
  0.9634701114882132  0.8597216641190263  0.6443260615555739
  0.0519278275990024  0.5073085097543831  0.1287637434293628
  0.2513731376490007  0.4902903614849461  0.3465138034021669
  0.9112429714231173  0.0474569179564548  0.7587383467168356
  0.2560388846156214  0.5530620629090811  0.9087005181974060
  0.3736149563653859  0.6442933887607131  0.3753213522646929
  0.8914018897313585  0.0016012340962244  0.5994794501926887
  0.6763407624030651  0.3939585183994821  0.1356190844765217
  0.0085374140582791  0.6359805490929319  0.9412190655920163
  0.3896336495784012  0.5435258564314756  0.5688674667748397
  0.4682470282916399  0.2265710916541779  0.4974087856377119
  0.4790188350385302  0.3392294999291992  0.9282250658506106
  0.4803928474301079  0.4516290795215053  0.5097046356993122
  0.6558413623789414  0.5239787561563485  0.5798974855166312
  0.6857801838554192  0.5757088906406952  0.6915877929041677
  0.1878730813406870  0.4632707497830094  0.1422454060620857
  0.1234326579162579  0.0784844717756173  0.5036566665387640
  0.6381722398171439  0.2861880165767497  0.3276322970883127
  0.0599012667466707  0.5654745050421053  0.8659744064231381
  0.5215875952255556  0.2675095243578071  0.8969238972201247
  0.2523586582086307  0.5117865348574462  0.5612467558281972
  0.3605568028065523  0.5789828174080373  0.8083308166256343
  0.7334798496597157  0.3905201254384880  0.2008319288584705
  0.8554491277327327  0.2914933981296413  0.8203930110798958
  0.5944553530606853  0.9345951490307726  0.6007513349327137
  0.2271972545798972  0.0251895929713996  0.5604524431135081
  0.1095395186447786  0.0890116185997353  0.3024823012184290
  0.6337865679233997  0.3063745587068983  0.9687040578004563
  0.1791807952860863  0.1658033869507375  0.4218980485321034
  0.4160980357491005  0.3628428727365681  0.9965707590364458
  0.5126800254821459  0.0184508548585559  0.5458303619192416
  0.1975616565317791  0.5097167121359591  0.0391852274053085
  0.6499494710425072  0.2234920126961941  0.1122781162489461
  0.8907132925015629  0.3430029306110103  0.3119709400670588
  0.3367064497985547  0.4757375207147885  0.0035009978724047
  0.3867084321643159  0.0259503065829838  0.5868885743403617
  0.3013797499265701  0.6821786809894836  0.3065986407076090
  0.1910104202501433  0.0184831503011512  0.3666029292582229
  0.8607931834076032  0.6007623123029128  0.7327013930896044
  0.1459935081636916  0.7088071111292600  0.1585536762754617
  0.3212572624534754  0.6642824579689790  0.6922402590729505
  0.8004049014999536  0.1918450268193143  0.3968177803675024
  0.6667894189599163  0.2077520240661867  0.5316035189062200
  0.5086636439046370  0.0335912474410938  0.7719414402500682
  0.0604546098288491  0.0343888086820855  0.5360155277771524
  0.8353371599334596  0.2735516679720136  0.0723177533092248
  0.4946535218070320  0.0330838710078542  0.6222674257720182
  0.4136439155947508  0.0533199908938492  0.3751132937153699
  0.7500594913304472  0.7860040789377474  0.6001109847658015
  0.1585899947937355  0.1553673493452127  0.2849547821623790
  0.7980920572714185  0.0859716643262423  0.0287669295654422
  0.0087167703744797  0.4762199660747078  0.1447671789292879
  0.5242562882278435  0.1128789953534174  0.2880532332017866
  0.3257737039261679  0.3887671856395929  0.2728480356346989
  0.1553327849267182  0.0564476239468552  0.4621122703405058
  0.0117525324081888  0.9023535150446781  0.9643546421648962
  0.2750624102335563  0.4158475191679110  0.5965877224230030
  0.0344417897136725  0.2944530048826575  0.7802004033943009
  0.7264922257569270  0.1060310433684985  0.3407540759874416
  0.0759359627183991  0.4233844695323269  0.5715062289160577
  0.8256967828530570  0.1720839863787000  0.3993493697156153
  0.2412744769184075  0.3354852715992271  0.8795866887174631
  0.4797343027821006  0.4487130993211998  0.3283576356260017
  0.5956978899778013  0.5479731897460011  0.5706259361049190
  0.5619169954842181  0.3703046482247786  0.8877808186547114
  0.5538679826001478  0.1366243256754223  0.5152578230730775
  0.2779516737737444  0.7215133337271437  0.2711044628029495
  0.3030858545466606  0.0447647851516401  0.6001363367553486
  0.4833885445900012  0.0115011590786018  0.1268127132676649
  0.9014040023653056  0.0529690698860750  0.7286912277967781
  0.4367327055374227  0.4867603184115841  0.8917994834717233
  0.3198956172281188  0.8272753963500065  0.4582565531516749
  0.0864206941930880  0.5394134288864063  0.0077052944734701
  0.9043340804675986  0.0897008484351685  0.5899284677578744
  0.0137462397883263  0.9440302340072775  0.9276354196627928
  0.6037647137591658  0.0472621658837933  0.5709994273225041
  0.0364271991026192  0.0514928924351075  0.1802505449627886
  0.2949680034427999  0.2219267529912845  0.7804785904618229
  0.7304670914555197  0.1042393708537326  0.9248720001238798
  0.8487651055531354  0.6842568086824191  0.7536138482251317
  0.9746553477106474  0.0943410410153970  0.3612833127484944
  0.6485606210611446  0.1714150002125335  0.2592183237044127
  0.2835320334580398  0.7351654970653175  0.6300633675449572
  0.8527437749211645  0.0598865237058038  0.4614330894182604
  0.7891944483453134  0.1797968531629718  0.9009735666339838
  0.5112974105560744  0.3016831641785772  0.1679790434842289
  0.3125305686006540  0.9392556404589339  0.1272573549618678
  0.5563851081125910  0.9932639380404275  0.1895948868098598
  0.7565714403387219  0.7713212426084672  0.7226398253873065
  0.0636631624229606  0.0280975591655424  0.6122309466679224
  0.6857661221740629  0.3206408907316405  0.7752624432338530
  0.8805042240455421  0.9614581962558928  0.6594121398142905
  0.6262509623830859  0.8542455261533687  0.5489516890695532
  0.9207021662065441  0.1583133555060001  0.1076052716161571
  0.1588979339676256  0.3803469986987163  0.2549802378644899
  0.6794619324451703  0.3118466608833788  0.5502584765983315
  0.2513889655785805  0.0672094653329488  0.6035777301970391
  0.2879447925051295  0.2004906792408199  0.7195548966305160
  0.4186438577088949  0.6400053844064483  0.4115274059737720
  0.5840060438022452  0.9050578121403540  0.6087040907510343
  0.6961443361706765  0.8317330738886852  0.6745738388733394
  0.9787356249742039  0.5844134310757754  0.6787904983999353
  0.4520472439254213  0.3432685918085729  0.0358245686786908
  0.6560785113677089  0.3358965508904725  0.6056701545586377
  0.1651990827813933  0.2109944554878820  0.4745534253908905
  0.4400882380657630  0.1491762702123388  0.3559715361394091
  0.6099835250672252  0.3811280004865080  0.6628208200509307
  0.4488881592559086  0.6814507155684535  0.5157519475266777
  0.8056592402028240  0.0252016418869142  0.6185204754665197
  0.6322846342450285  0.3196490285002279  0.9153432433378654
  0.5651607578614661  0.9258416744982930  0.8325512700835814
  0.0867771428543603  0.6981754593870652  0.0957008813296986
  0.9951747234719486  0.3226477069100813  0.8088653979898284
  0.1339917103162601  0.5233346160735887  0.0373697872144111
  0.2410372115634564  0.3965371606016250  0.8923252790167914
  0.6363756059853718  0.9717784118892645  0.5957323120777094
  0.7670455285477861  0.2348014005064050  0.5300445879880425
  0.2483845709281562  0.1855859172383937  0.6806814352536791
  0.7812723986140033  0.2571409128725046  0.6372556117744119
  0.0012951787927380  0.4540804280052978  0.5971484253375434
  0.2276901831548067  0.1979192026021795  0.3600505794141356
  0.3181679767098609  0.2323241887295043  0.3689977452067703
  0.1633024660796198  0.0152991710287025  0.5569452109970029
  0.9396699409073024  0.8191776434795718  0.7896967309798454
  0.8549828867052708  0.8662457619673204  0.6832244695283226
  0.2956058983284743  0.1509111516529176  0.3163080816659414
  0.6194026136997940  0.2163680999176909  0.7525295851564163
  0.0784270363059937  0.8400201199721649  0.6429973713186884
  0.4527096920386316  0.1664444159942447  0.3065324699306636
  0.1261951124662745  0.3820075895729401  0.7178114085420689
  0.1115258220031499  0.4891068790980920  0.2446126002578511
  0.4984234126098373  0.7059968695977941  0.7255653451213775
  0.5729640935825532  0.3012587214846819  0.3218427056757822
  0.5831731324382302  0.3373390601254429  0.4343677895596801
  0.8314057306500682  0.1324707584016872  0.7668156797702678
  0.7112929220282103  0.5178253345111599  0.4805062805012160
  0.5263420598886773  0.1814255979204558  0.3360057026267730
  0.3294984349788604  0.8847242875114508  0.2874425409003225
  0.1861270335108952  0.7246985794354674  0.1955877352620117
  0.5915797330605050  0.1767638251754645  0.5205538786544049
  0.9839893479198506  0.6598685604593313  0.7896543135215011
  0.8608858025455648  0.1987536682760116  0.6393049246987310
  0.3966039809819346  0.1773133499784345  0.8210450604032455
  0.6870026111472891  0.1260328314742152  0.5775826970201362
  0.2399298201376603  0.1490803153565442  0.3865292678112645
  0.4061893631606419  0.5545064289949627  0.8307135291200918
  0.1409200490369479  0.6162196642044709  0.6980869514387199
  0.7854454111337812  0.0757998374544426  0.2859045782235674
  0.5744792779378450  0.7601043464352172  0.8092747081399755
  0.3793069815568523  0.6945266118073536  0.5701680382678757
  0.3753404486079936  0.1603883193469832  0.5208212666767815
  0.3924962190377979  0.7506413830071947  0.4986909701245066
  0.8945975404694381  0.3980231475507587  0.1780808218834719
  0.6509979879571071  0.0399582700385741  0.1386899149252757
  0.8720159377051657  0.7146891247660474  0.6505612263805609
  0.1052722807500769  0.8246920183796627  0.6323976813563759
  0.4775028991287661  0.3900683757080558  0.9070220442543458
  0.0599998724120607  0.5615387510029566  0.0639773417738922
  0.1425723285222809  0.0973446339587561  0.2938685568035448
  0.9669315623625168  0.9847704108809900  0.8321885527171869
  0.6275690682313941  0.4731231685100109  0.5873339278783040
  0.1952263422749395  0.6227678305701581  0.6904570217950021
  0.9921242027639599  0.6690975744184930  0.6756648195665322
  0.5018044292465489  0.1323146188309088  0.8258974298283626
  0.1888139076698936  0.5132871564068989  0.6274030577013576
  0.5229645812806589  0.3770362283211619  0.7457910519867991
  0.0944512154775107  0.8374262487828593  0.1037554209542054
  0.3384376857627384  0.8397963634735467  0.5119861704659098
  0.7723244038632818  0.9487042585862530  0.6254290311848808
  0.3538923536169431  0.3133700838135614  0.0421613061387161
  0.5316890344900114  0.2571589758252272  0.8667671983391048
  0.9327391362305464  0.4355347875065772  0.0722891286249568
  0.8292523184285425  0.0463121144002286  0.6197254129977214
  0.0208481177583124  0.0692670926421574  0.5566216793916675
  0.3284472847101543  0.6411042659151153  0.3367449138720857
  0.6907705223426305  0.1851948024526213  0.8951594454709744
  0.3089786805676840  0.9437399200153298  0.0721336631432618
  0.1207577919854720  0.0053512518268678  0.1849727816567378
  0.3733370204252202  0.3889492177131061  0.3051147007408954
  0.1734914183892404  0.8683850567843746  0.2024702349343087
  0.9317073783322182  0.0585592315262186  0.3615008396440806
  0.0319423573738988  0.0718338694488641  0.2636781186364086
  0.3435209471014269  0.2086685960187802  0.9150091531751344
  0.5272242843431716  0.1704484192676377  0.5812727387625957
  0.1954953686349220  0.2921078383411163  0.6172036859377095
  0.2628695354177191  0.7729456894956641  0.4011998542394843
  0.6291267230542097  0.1601504454576772  0.1755596662681607
  0.9229709939460545  0.7919068919450490  0.7797088991119936
  0.8388298410792314  0.0979609973514824  0.6875489202450947
  0.5597131519890626  0.4642972823096441  0.7274646921752854
  0.4462385956963204  0.9664140048947585  0.5292095893268075
  0.1692944497810968  0.9136954819277255  0.3361627869345780
  0.9780326511780562  0.6122598143445900  0.7380762210059663
  0.3712662489357116  0.6436105525463838  0.5815907437304049
  0.9519432315872957  0.9873371998411281  0.8040278288679413
  0.9433931048009033  0.1782250613262161  0.6559777686148940
  0.5555685183455827  0.3851049323186664  0.8061338327711449
  0.7716872428046864  0.2760820810115588  0.9429659800583080
  0.7523844167910440  0.0914593441607291  0.3278072622329047
  0.5400957196121665  0.1478974555579941  0.0044578645253765
  0.7184279387509553  0.2801931993212138  0.5245527249904745
  0.5802023742900917  0.9926633793703022  0.2119938168820194
  0.5052284893082761  0.4017238007459978  0.0099520805696066
  0.0932958530301019  0.1214008887195941  0.6347238598107730
  0.0591735555109023  0.9516740593408346  0.1153411652012246
  0.5357585906634235  0.6065158607976823  0.7335107076591616
  0.8152220158618875  0.0924502371802349  0.9304631822717528
  0.1248352999099724  0.8381137613465339  0.6107036479051010
  0.5435384795847658  0.4533655910496812  0.3147926813208358
  0.0018459680854635  0.7860598511531995  0.6681122765903381
  0.7355360832817808  0.2757755289549455  0.5523307618286546
  0.5613327267778240  0.3747777523974668  0.4846177392342551
  0.3837949488098067  0.1411576469904182  0.7319682283934293
  0.3638461273840249  0.6947312602710386  0.4443932611959139
  0.7453231426837101  0.0039333621935791  0.2488053736249939
  0.1505345583362733  0.9926172471376129  0.1845027263623166
  0.7626037349701805  0.5266250994027941  0.6629300747808412
  0.9277774738037921  0.9665671145234475  0.9621546945851855
  0.5440225584771170  0.3995587224656473  0.3053359425996260
  0.7213686751540503  0.0478852463098492  0.5927568602157030
  0.8511223708486861  0.5018569867505613  0.6343212352200700
  0.2236940518855530  0.3192891342704036  0.8584742256463321
  0.4563082086857805  0.5656663615710189  0.3623477825302220
  0.5935524571587307  0.4793830996235614  0.3139347538704278
  0.1721006140001904  0.2060769948181685  0.5474535213894900
  0.0045809141346212  0.3756161143956502  0.8223169314011134
  0.0896491132089867  0.0433546506893624  0.5285677069093752
  0.6113535736867025  0.2392202781528328  0.6697895549657279
  0.3736328838994556  0.8268545002025762  0.4707657616545318
  0.2210605520107744  0.2594836168912955  0.7574640777125483
  0.2199389123459322  0.6026402933788533  0.6860986554344306
  0.0964815031610217  0.2462251591222441  0.4651847395414977
  0.6334650778564453  0.2366394116823208  0.1370999551324401
  0.1926044211461549  0.7722901688519830  0.4878927128627295
  0.6047524583648753  0.8034395129412376  0.5622707709896906
  0.0070768930198700  0.0026647120345242  0.0261685602047512
  0.8505271249878065  0.5429826134222905  0.7043453725742915
  0.8882409853414391  0.1109172069332343  0.8304769326911268
  0.3118943692228672  0.3950541074006550  0.2434515093693354
  0.4342383684423297  0.0635919109170505  0.4280696032020904
  0.3519419068900790  0.7443330968120473  0.4568714765537213
  0.3025111328824238  0.5352630601028409  0.9358777433450993
  0.3417906079860433  0.5635913416201858  0.5984889979596282
  0.9769887682895796  0.0597519368861258  0.2473216237581206
  0.2970154037394163  0.7898620515706493  0.5663826213742078
  0.4737380536717180  0.0636597809804932  0.3732402560212893
  0.5915627891275431  0.3514636589573110  0.8905913234046743
  0.3539745181673848  0.2356183376731160  0.0084666671229982
  0.9473896668256933  0.1111938883058646  0.0913541651118709
  0.2504378295760148  0.5773378127055726  0.7690240764862544
  0.5866717865553711  0.4286676475297530  0.2875455704330527
  0.8396661086596494  0.0973435161409303  0.5012494689066416
  0.6397204260216021  0.3062605213264509  0.4389665772496181
  0.6290044378860691  0.9719688446510093  0.4025666331552181
  0.4958613017580440  0.3801721806841901  0.4246559437238498
  0.1532739239244722  0.1208757804678654  0.3459635101716531
  0.1980504479755492  0.7638493474926009  0.4565964547630584
  0.2333617340086371  0.3630475142694554  0.3260892589748571
  0.1476911649400137  0.4698499850205360  0.5874978534900007
  0.9850488916104355  0.2275522425683819  0.1376792463758238
  0.8430497850378628  0.1155500332624743  0.7414938977748082
  0.9024710197342657  0.8909786385619919  0.7047514395753558
  0.2132501146861214  0.1943874962537608  0.5024248127024616
  0.0028903413042834  0.6986039935410473  0.9456167711677349
  0.1806869748383358  0.7828946931223568  0.4050286024449457
  0.4023133236857673  0.6304196938326343  0.3846587426415793
  0.5534700683595931  0.3767500553961255  0.0554024697988847
  0.4129474910962322  0.9873782671816280  0.6237847087926507
  0.9089459457195604  0.8501405450833825  0.6298415874517389
  0.7239779901799490  0.4395616824585825  0.2702290530383114
  0.2088848924575770  0.8994822290638099  0.2310928393267701
  0.6371553056874750  0.6171992994705652  0.5995799923949782
  0.7687778706993614  0.5146697334635564  0.5443876094878092
  0.6491744432992996  0.3174280500501523  0.8869536644748386
  0.5182352313248351  0.9932591640456117  0.6544730802812719
  0.5934506425180115  0.6420437368157546  0.5083780205281535
  0.2242545952583814  0.1082710501165645  0.3111015470768844
  0.8212911224073924  0.2591559314618817  0.7476595478979479
  0.0372851230204398  0.4514442137381247  0.8429951583394211
  0.3943444560202560  0.9928141485070642  0.3945025246376649
  0.7017292594363094  0.1774972787160777  0.9802947840375074
  0.0529868174748332  0.3211508124754660  0.7775324345884603
  0.1205492432394081  0.7339370214144557  0.6552981891700916
  0.8515271528767395  0.1735028117718511  0.9612211463344451
  0.7100898742568974  0.1268808341921401  0.1754218869426933
  0.0269770219243318  0.4935519940226562  0.6245361917842814
  0.1580435987115194  0.4042881389873775  0.3150734839789319
  0.6425749464559853  0.2780335346931648  0.2719010681675200
  0.2899001715353575  0.6175395715899201  0.6809642900739067
  0.4973213584054194  0.3514467005722280  0.8214677920601906
  0.3178819803932943  0.6205090225161063  0.7306211763442573
  0.6293879995324717  0.4532292718590413  0.2590744868360819
  0.2706316657543952  0.5866925627384081  0.7443782574579122
  0.2977115481415540  0.2427249643170856  0.9086212671772316
  0.0126728115836281  0.4669585515723971  0.8903927057173002
  0.8199528492641380  0.9965374341572907  0.3113053524285754
  0.4712128079845885  0.0734445525166269  0.5909196139698700
  0.2819401133367991  0.5673266069942678  0.6614906548225130
  0.1892928205696379  0.7987260648992818  0.2786842999935654
  0.6615357176444262  0.1951605271830189  0.8377023481975362
  0.9926828556757299  0.7670547771321103  0.8716277168634003
  0.5214094372013055  0.3247329964014158  0.7366188973072559
  0.5295999963910489  0.2478269686112866  0.9209027360713944
  0.7051621552642786  0.9732731271692622  0.4647055161669466
  0.5844073127200560  0.4655419703347851  0.5508702980470398
  0.5598346946817446  0.9726485788556529  0.3057309219702451
  0.3106691142940453  0.8299819027795520  0.2793298584380303
  0.6589567131509941  0.4542790495501284  0.4502250730958699
  0.4325479607014679  0.0472975964958482  0.1014336615194697
  0.5434430835715336  0.1070882757547795  0.5231064568571759
  0.6555657640134818  0.8459361328136927  0.5619357211663198
  0.2176708123152910  0.2476670165847805  0.7279680925849490
  0.3580055658334089  0.0316231482949193  0.6335904616592357
  0.4449203254918318  0.3496196741499313  0.0048878907941699
  0.7561582942688009  0.5372399055090661  0.5636461410439906
  0.4897397957720292  0.3195088792690687  0.9872352811097601
  0.8909452694806766  0.1016541817049558  0.9566157211826127
  0.3533225323709024  0.0043387548024276  0.1626540331778265
  0.1141828166131368  0.0988256318452030  0.6235591244122666
  0.6736412934072278  0.5327661396175211  0.4415188599960107
  0.3621394304007323  0.4020446683033629  0.2190924889312814
  0.6501028693795221  0.4110056074545242  0.1288529307162508
  0.0834876496367731  0.3770962066383545  0.7658807779170498
  0.4077131817722603  0.3955716087355233  0.2530248938106326
  0.5773678624735844  0.7584270344903776  0.6940646838861803
  0.4149550667810137  0.2555426026310170  0.2369627559380909
  0.3554846073781769  0.9958575782645511  0.1940572403024775
  0.4615125490468251  0.4011698300170399  0.9353662785795593
  0.7412392450143201  0.9406176891894777  0.6211421011377953
  0.9103397261174235  0.5584012506079574  0.6299525530802123
  0.0281473296808208  0.6239759908275279  0.6763489820207378
  0.9932422189315299  0.0643387659684901  0.0096229052664699
  0.8007994626343603  0.6501811808038541  0.6305699263604014
  0.1757518512252238  0.7875595018187870  0.1794198565291378
  0.8819887537889904  0.0928677325817844  0.7764960194205156
  0.1126380643938324  0.4922231071832502  0.6770822772674056
  0.0674005970177958  0.0998961476339189  0.3377826322545983
  0.9973540605794478  0.8174474552531166  0.6611121500079346
  0.1541632423717209  0.5874259378996889  0.2026051185582327
  0.8984570969761074  0.5201811186956193  0.6642506708871766
  0.1718499186362873  0.8092303576644260  0.5455756258428636
  0.8795344875078708  0.3802709596509703  0.0302206590029550
  0.5747097575095399  0.9603391629167686  0.3905352829726372
  0.5426190993371194  0.6487092763438951  0.5933999084261320
  0.7590100668505537  0.1826673486388966  0.8429416303470363
  0.4993192936359364  0.1634368417220790  0.3814517720776677
  0.7314211030421072  0.5128916359296182  0.6187089606033690
  0.2133419743643368  0.9790769647003909  0.2358306632914811
  0.2351986610135884  0.6473894946736980  0.2621281888311519
  0.0579875547325702  0.7920766353683951  0.6618225783051364
  0.8734131650556667  0.2526961576572221  0.7688798342242883
  0.2202957213516201  0.9246601046586490  0.1305859397227776
  0.5036344456613497  0.1624816595519631  0.3494039118876707
  0.2656016814251982  0.5394506517344926  0.6569926544033333
  0.5423688621829793  0.2539970349110174  0.5324706719247821
  0.0557369960020662  0.2013240269702388  0.4433525332809896
  0.0249439802674053  0.5125982507443159  0.0675316572691597
  0.4115852318161242  0.3998055389041857  0.1956285556526616
  0.4738052122026284  0.3892195007587025  0.2518289230369589
  0.6028779727679274  0.4348779383709608  0.2594474512709771
  0.3343230604532013  0.4604888166963953  0.5536748776369197
  0.2173218996625611  0.3465061867059945  0.2754337782433460
  0.8586884175165691  0.8085003853717305  0.6271580877179808
  0.8709901021491462  0.1903509678377311  0.1859935841309300
  0.4837419253156753  0.1344366016414126  0.4268977980117314
  0.1064183597599962  0.6552196262303996  0.6818844465925230
  0.6824067446610376  0.7229671123473772  0.7199054292842542
  0.5225647861149146  0.4845076273981461  0.7687886160756121
  0.7562202916080861  0.2206332664215939  0.4770394869724284
  0.3901984795328294  0.5007294307802158  0.3457302897326232
  0.9705210393498850  0.2313197908255049  0.1090905054069646
  0.0691569562808239  0.5012239979943595  0.1558445597865956
  0.4641236717210482  0.1982019611774214  0.5123251849016127
  0.9580489961525036  0.1069879207122250  0.1222335402166719
  0.4363413745861449  0.9307647854733671  0.3772241211157264
  0.5537749866425168  0.0545007247262392  0.0535103039382215
  0.1168559616676745  0.5945758256425868  0.6992991837649988
  0.6364241006552597  0.2079361245554024  0.5202648948320969
  0.4447321811887855  0.0548452882917111  0.5842768636354559
  0.8305747159472348  0.9708154112015417  0.6374470331521683
  0.3543160691599900  0.2101670097214724  0.5041686374737584
  0.4113578685626578  0.5864166823914017  0.7857108870147815
  0.3670828045983397  0.6487912418879763  0.7245365270759667
  0.0151397284828761  0.9163768526023534  0.0183930679526100
  0.5613002308062316  0.6164060651697401  0.7180612088936774
  0.1584114912405933  0.8909697740824637  0.4308687592206226
  0.5426771556128589  0.1085820684915748  0.2635510036829468
  0.2558973003787707  0.7740042245500022  0.3690504624118844
  0.5173433689459592  0.8291398500564632  0.5236687607330222
  0.5528187350850241  0.0398743717082568  0.6855418026142464
  0.8835550999343978  0.2357656940182827  0.7421980252929655
  0.9481941866685512  0.9041380492526260  0.7782988140784209
  0.0713122274404235  0.5855656768272079  0.8196865519757451
  0.0563486277131854  0.5504514842400337  0.9503586765531138
  0.7845970421679433  0.7444267325574507  0.6166725286610008
  0.5539930016147192  0.1792379078987552  0.4781186837658813
  0.6757540198398045  0.4862351035815539  0.3399054267834565
  0.6078779526617277  0.0588698752795655  0.0674727304413100
  0.7322297795748390  0.5890309193499015  0.5952971117035274
  0.7959122086197825  0.4728272806203767  0.5022482809519566
  0.6832642302393369  0.1453074028560332  0.3343417197884074
  0.6311886667888335  0.4716597063721692  0.6200301361706635
  0.6711892700806652  0.9836411380026563  0.3292557107884680
  0.0951606995820527  0.2386143026865948  0.7031642410399597
  0.4481589093489707  0.9974299647294271  0.1667204009158513
  0.7154614612056697  0.8124606375204053  0.6923658486469708
  0.3554531154808859  0.3676682473999662  0.9761231392369535
  0.1366679162463145  0.6451066677737214  0.6851724294630814
  0.7378698738876203  0.4430656503119700  0.2995922797665869
  0.4769292799032898  0.2796616974901411  0.4647567881552024
  0.9013942966653001  0.4044257574141471  0.0359832915096978
  0.3895701649186466  0.7813648066839020  0.4910227387985051
  0.9217442064968768  0.4098971270508630  0.9262187727491902
  0.3396621513636457  0.0573549903847538  0.6419898444553926
  0.9560025587339877  0.3005168098875314  0.3990240699527291
  0.3237524333430174  0.8216885939414973  0.3083754764306940
  0.5644075602957114  0.2162815093914792  0.8881402722587871
  0.1053280082135803  0.1513711934655526  0.6419154283841687
  0.0535940537059927  0.4658698765057075  0.2316257281152774
  0.2218757671661815  0.2764754936297457  0.8183020204833579
  0.7632596867374855  0.0968392509699014  0.2983845915135995
  0.7850639110794605  0.2773437569637998  0.9731077389241674
  0.6370582360591179  0.3104592077845549  0.0218426190594238
  0.6437684284058254  0.3453444076253222  0.6341141569446224
  0.0045144840231398  0.0579352315634774  0.0394008679607926
  0.8668737229257708  0.0940652881753943  0.9369065384869149
  0.3783852876562145  0.2344070256794999  0.0594738449499321
  0.1914002851057017  0.0886723288927690  0.4313561385654310
  0.2220999256459271  0.8008741709189717  0.2122657540164783
  0.8743896837453284  0.7785096685472324  0.7471038173539293
  0.8474116595200646  0.3345728783222380  0.2233308871762430
  0.5395522662127697  0.3540029732872663  0.4019812928433012
  0.4611250190986358  0.4673206010948950  0.8822985247792254
  0.4044185334675257  0.1258150346925286  0.1424074556402981
  0.9980840496616038  0.6368957367706577  0.6738792026050406
  0.5004534081415085  0.4016524096977884  0.4753675680383196
  0.5680828027514213  0.2535759621331697  0.0428715599105224
  0.3902642860343897  0.0420571875143203  0.6795941099742830
  0.3867212846064220  0.9561645556542110  0.4356442916645011
  0.4545166183774278  0.8971058127415668  0.4556468968992602
  0.1534612452785805  0.4995560072828450  0.2804218491797723
  0.3681808904933629  0.7941311137437500  0.4701974616174575
  0.2139536263183754  0.6553910340603334  0.2386784642558976
  0.1268696739153005  0.4465474893682977  0.5763830593808679
  0.8886157143416035  0.1812727851585091  0.1601303297665832
  0.5731458067185558  0.9850852391772026  0.2429706758720404
  0.0597760104960068  0.1381453850013719  0.5797004321448106
  0.7556093056950803  0.6565033740709633  0.7305078356129596
  0.8515988030865447  0.0264414288852234  0.4145945867346280
  0.2068980846996365  0.0456018510738452  0.3608431651977452
  0.7815437063348913  0.2920199934759096  0.8323368168504733
  0.5080482540295322  0.1875349770476824  0.2502977695990621
  0.6850535030638557  0.6598559749230317  0.6100313311903425
  0.1746419760626884  0.3391097806398644  0.5199407952176001
  0.7609710717814381  0.2545823337392348  0.5540723580801366
  0.2690237569354025  0.8145052585877967  0.2427782604782515
  0.7399486570662058  0.6709336387123515  0.6193013323190180
  0.5400777209722918  0.2987571446873658  0.7327905819797442
  0.3993075261254720  0.5178197665315382  0.5503640255265357
  0.4448535075516735  0.0511974116056536  0.4563207550259770
  0.5256613307336118  0.9865683516473165  0.1986903378070886
  0.2360574684599994  0.1625655966407524  0.6612022939779949
  0.6667862471239339  0.0848374424500412  0.0560313759554101
  0.8794491285714785  0.6938778358185599  0.7621778803865943
  0.4295343842516577  0.9540458685595743  0.6789790888933228
  0.4252514926915892  0.4553706553927349  0.3452598567579169
  0.8817801270912603  0.1509127889511397  0.9105311498849399
  0.5582520972362609  0.1904703453857370  0.2921065809330376
  0.9352675638554835  0.4329508880988150  0.1586635835288000
  0.5165535276797129  0.6798095720608190  0.7342472414741933
  0.3334863010885704  0.4171248854697270  0.1619065079274495
  0.8481976555514991  0.6931205482003975  0.6443530717654150
  0.6462513918964267  0.3028173364528383  0.9401422141267136
  0.8206031337505393  0.0941115187511292  0.6588901714599833
  0.1801067203502635  0.8007279779296361  0.3362970317772314
  0.2571862815693749  0.8833464099411660  0.3442783025715987
  0.4232498768591990  0.1277010482857188  0.0894272334259539
  0.9458688975433253  0.7777955166949171  0.6622382945908661
  0.6950495944760209  0.6376686528968267  0.7140722500396637
  0.1895681386212512  0.6936953261719757  0.2052063181161848
  0.8569576086920528  0.3998006985007531  0.4123717538825751
  0.7593050332265527  0.0900220074373709  0.6029117440359989
  0.5703829440915983  0.7376914148882672  0.7867638775145857
  0.0317846818215959  0.6554284180383471  0.0443816344826318
  0.0117122102943136  0.8793896795849769  0.9408273339511993
  0.4485225770917549  0.8437676250038556  0.5967276908741014
  0.1423770103616802  0.7739029970559640  0.4441683501812292
  0.1310488711727071  0.5146328372862748  0.0938280772522892
  0.7677145460067211  0.8679744829205205  0.5789199623630715
  0.3741536333331766  0.6119199873579971  0.5846190525094562
  0.8937417349317422  0.1641482600798234  0.0490310249177733
  0.3654078062643071  0.2998602308682539  0.4657994033263726
  0.0236158229690726  0.4921496998431137  0.1210960388860513
  0.5404415159460645  0.4015786521272894  0.1176112080889213
  0.9251332473087057  0.2736350849672383  0.2489711658797010
  0.7077238834975446  0.0900710006355380  0.0180799346940218
  0.8611905245585815  0.0720374894917126  0.1014808962909964
  0.4557782993160854  0.1005608981379947  0.7595057454167835
  0.0906240858844716  0.2751008685410419  0.3045901213767333
  0.6273730761351710  0.3202828774488277  0.4658566210879471
  0.7407902887199371  0.5670865553011405  0.6948473524130603
  0.2793233797128832  0.1902781076561567  0.3776596421402414
  0.8969131095067242  0.6409436439672285  0.7504784239119632
  0.8417374238982659  0.2628037196873343  0.7731952929895776
  0.5042488592286958  0.3107388990012925  0.1371447144833955
  0.6563945254714827  0.0327747674106321  0.5845022281413259
  0.0793568699192261  0.3220267863896016  0.7578980390022290
  0.7201262117186902  0.2131281630631852  0.5212877006837627
  0.3785684051435474  0.4934407615383859  0.5412727915392584
  0.1606091545034109  0.9218199702831502  0.4214155316205599
  0.3085312905560536  0.3764722139743934  0.2982799175027325
  0.1283781051925037  0.1772424523029871  0.5606734765495223
  0.7591123942678223  0.1741833799105420  0.7868872614723864
  0.3209909485325927  0.2284911942599882  0.9277990841735042
  0.3417964047127365  0.8616993319767404  0.3827479987586908
  0.0369890183995486  0.0632981797800229  0.1497639539190050
  0.1261279763291743  0.4010972596724710  0.3085551940712938
  0.1827937496733932  0.5482632770913297  0.2736453899468330
  0.4620425747713503  0.6154342488731264  0.5802064206607339
  0.9177323969631737  0.7321795806908580  0.7831919335801506
  0.6509162823771211  0.3289400880850572  0.5494962655627004
  0.5469467739146783  0.2827324787328624  0.5171416094243940
  0.4556755590172206  0.1413742692151166  0.5418666313753610
  0.4275954149640399  0.0261049662312741  0.1263544249243230
  0.6237747562575184  0.3063395252000952  0.4104184161836590
  0.8840911790237628  0.0355670607424030  0.5909034142569721
  0.1088707851231868  0.5160414969171956  0.1944977456073840
  0.3650145943721410  0.4234991357871773  0.1056059011263914
  0.5810866087804488  0.6078020729281152  0.5904617275846243
  0.3704638010775660  0.1903556476439696  0.8355497308973442
  0.1625567667521162  0.3675356585474592  0.5298447472486839
  0.9548451461593023  0.2486289978125404  0.3273837426922841
  0.4354503076108205  0.8800747873025357  0.6645069369237152
  0.5079749591324426  0.3086946604075740  0.7879790712757262
  0.4986452332844566  0.0647218889743431  0.7721401037446326
  0.3572649167286435  0.0767043907039669  0.3691372441341668
  0.5463330267374437  0.5036925588567257  0.3356249601309417
  0.5099735517793167  0.6216778422959679  0.7469890039214593
  0.5932238485412976  0.8553649046707448  0.6327606346298010
  0.2737994405787723  0.3245046276389796  0.5451861662386921
  0.8880926946408096  0.0989835214231125  0.9888914263378419
  0.0153381744451460  0.1102674178051499  0.5984114211922642
  0.9704013514284380  0.2170798298455409  0.3942281991162966
  0.9280441685344227  0.2581763997215752  0.7827396058974643
  0.5301471665473111  0.7387109116699033  0.5600025294697578
  0.3268861735216783  0.3597174760444478  0.9611692696912755
  0.6021826653060981  0.1301885350005327  0.3935020818563703
  0.5983422798824665  0.2124682866519744  0.8349891012743085
  0.0842458275619156  0.0402186523599238  0.2063351062320765
  0.5495563063336762  0.5505858165329941  0.7249194156386700
  0.5608769885208970  0.8136488414075492  0.8240599614176561
  0.9411440992223539  0.0467571198168620  0.5986523624332422
  0.6792920170329602  0.3030074798402068  0.8852899015109872
  0.5635920820477421  0.2294238883776624  0.9937432185923595
  0.5189053383904845  0.3908417290951718  0.9599464490329273
  0.0961428796953469  0.8856339034336280  0.6173670412498854
  0.0450652141623149  0.0894186698566961  0.3156061620543631
  0.9408218392475707  0.4409400345118423  0.0172240692313876
  0.0530849431558180  0.6128730479743920  0.7775431191156297
  0.5134419048395622  0.8577108382010142  0.5081781042069305
  0.3651609656205531  0.4027474526617115  0.9381411476257221
  0.7069749291029653  0.5310294703822275  0.6665316307735341
  0.8665414790467817  0.1977620832640404  0.2411908100033080
  0.5535910859780017  0.2328346495777836  0.8627574888278232
  0.6535982795835529  0.7960907718540516  0.6824298957126480
  0.1790112309968510  0.9665451930419944  0.3506320690837048
  0.1076912575004560  0.6918786126278944  0.1201193109453175
  0.6039718680192431  0.3381171390074079  0.9194531835625416
  0.3559682895704614  0.7696303198817518  0.6581030779585070
  0.7268290589902103  0.0991967927467115  0.1256065785655411
  0.4034930009197739  0.0283283877898240  0.3541636752062413
  0.7576775944672923  0.3712295813126315  0.2109026412792312
  0.7686173551226637  0.7538388608381975  0.6695432199280760
  0.4703642642545807  0.1451689311454077  0.9373759637034318
  0.8700759604392873  0.0856399250886088  0.4487557960108151
  0.5859695553340097  0.3185569571983968  0.6110573366742603
  0.6005797765773727  0.2104643497497989  0.4765793491637726
  0.9635400430672169  0.0981281130269311  0.9754814148543283
  0.4231428043992853  0.3955734277653676  0.2259377086506774
  0.8105769634367818  0.0059013861816310  0.4873032109675615
  0.0220801459877643  0.4579491961469391  0.2275837978262427
  0.2169569004845968  0.1700646933638197  0.3759405944782519
  0.2075409889227390  0.9638201638043513  0.1818359290753715
  0.1053602066713079  0.1399275234755882  0.2787986141276597
  0.2234591778023753  0.4005658578787749  0.6353715047727623
  0.4680630817639292  0.8302346807886685  0.6933779356160746
  0.8751377556075084  0.3308634471374316  0.8571949819811635
  0.0083986940753396  0.9567143362606265  0.9807721270268912
  0.8452877442239838  0.9195983291964146  0.6630349984408960
  0.1015162832124762  0.6860881552801030  0.6752447836627443
  0.9425465984411830  0.4089065979375320  0.5343344817603493
  0.2470857191886155  0.5220064267204657  0.3384779487596751
  0.5902604716806227  0.2639710800699270  0.6028503372068590
  0.3099755122903474  0.7857386135917588  0.3512482170215498
  0.6662647784543628  0.0961403728160062  0.4634038796567329
  0.8946784246619085  0.3834201785422072  0.2331828565205113
  0.9691645841468126  0.2239350758372083  0.2800164876094408
  0.3950317376230108  0.1697443055346938  0.7893782610690533
  0.1396282994116032  0.4686019001896629  0.1700455952575610
  0.8547576469519300  0.6611999443503678  0.6436967440504784
  0.7905046862675051  0.5302017001248652  0.6799668339214285
  0.1614504385762074  0.6630634271936223  0.6746230380862279
  0.5737111980989070  0.6384560113448352  0.5982470191857868
  0.9175464049019971  0.9446078764533091  0.7080848929535012
  0.2508351541123695  0.0882949429684498  0.3534089971630777
  0.6303727190108299  0.5040747667919895  0.5756344851458299
  0.8364516672181738  0.2109855106658833  0.2371548964887372
  0.6318367506740038  0.6587058630418532  0.5446209673484103
  0.6156588394066841  0.2104851160604470  0.8079065389760121
  0.4904204795641374  0.1383187310269493  0.3301489006140742
  0.8880012699767575  0.3627140803324088  0.3666243441197520
  0.6653631960698125  0.6268979659297003  0.7064076351913471
  0.5947725613723386  0.8889696716910395  0.5166805737948058
  0.4660134862414077  0.1381327393392074  0.9686166943268555
  0.8932281948042001  0.6197614965914912  0.6427792351874693
  0.5717898062800242  0.0974060179672877  0.9701931693989702
  0.8750671123694519  0.0662230406878667  0.1864654094151897
  0.3162535615693172  0.5547781325150120  0.6175052438337923
  0.6283138821349566  0.1403612221783456  0.5633616463263454
  0.6784521443583368  0.9265223800432443  0.6162218569082488
  0.4556416623782085  0.1392566047785581  0.3272226296420802
  0.5228215486276250  0.2964499891203651  0.0265748569288755
  0.9746431108924674  0.4376857532762403  0.2479272910107937
  0.6741494790300484  0.5850444539704212  0.5412870009297319
  0.9703975167818824  0.5896409184849742  0.7147831524412865
  0.0120342154759259  0.9341638589765943  0.9579143160953814
  0.8965800267456696  0.3724186543063187  0.8909685639407967
  0.6748201720298911  0.5092140277368313  0.3909174890082031
  0.7823678352144976  0.1776727854580018  0.0130532809107770
  0.2991723828655708  0.7769313947710750  0.5957135334199899
  0.5543872379621404  0.9661298573714751  0.3372807984508476
  0.2885395262726103  0.5492392113321638  0.9099826614577294
  0.5814220814975739  0.1321642178793460  0.0753427809192252
  0.4159919917493341  0.0629060858336314  0.3145348990662938
  0.7857933394443407  0.2994603608341241  0.1533730298491160
  0.8303485177669885  0.0132398925621215  0.5122520514317210
  0.5397411869900478  0.2670059193705689  0.3465912312961620
  0.4094202899039225  0.0756777546716176  0.2859818824381483
  0.5797328383774234  0.2723830414313223  0.7037637059990477
  0.6897284874821356  0.8061127434654521  0.5834603115298098
  0.9994445752587624  0.0695762189460554  0.2705565080295076
  0.9040998530892063  0.2054330627163079  0.6875213007996209
  0.9658240834584914  0.0678838083195973  0.6038261815268892
  0.1854790925164927  0.8397636609036015  0.1938149305716852
  0.9819761497209155  0.0083342851840575  0.8815483999707910
  0.5933927166008451  0.2340902833998284  0.0492607358389079
  0.4539916530281483  0.1081892476075715  0.0256617379979619
  0.5628093234441786  0.0033349840211559  0.1591169524089249
  0.9784601061853585  0.1922572333120671  0.4145087898669400
  0.4763821679526570  0.7253796763209345  0.5476349865744049
  0.5700934448900122  0.4153551084549323  0.5275383506294768
  0.5865682465623847  0.3388487136038397  0.6368135723866978
  0.8579182181591866  0.3535186458174150  0.3090694736886862
  0.6040965202742790  0.5833847107095180  0.4460723168902926
  0.5743932740019048  0.2372927911119049  0.7803561111960333
  0.3896372338548544  0.2745532917249699  0.3491227725467249
  0.4050298449248704  0.4271720264125004  0.4721412691304032
  0.7204889055251272  0.9625515720748010  0.6085150444761019
  0.6907206890104355  0.2983453120615498  0.5233035697783441
  0.2807520924246208  0.6598943297360951  0.2941825376096742
  0.2816425446836575  0.4644658257899221  0.6217019818132675
  0.2606371287441667  0.5819571016104176  0.7140578024518000
  0.7974145431405475  0.4499983104701160  0.4506845764749380
  0.4132760227837338  0.1933005526742214  0.3316608310645042
  0.2699935268875006  0.3806592998954516  0.8979458945748794
  0.6314086000940955  0.5416325440817171  0.4049101015336455
  0.8067673320057470  0.1750200865644744  0.8737486859757196
  0.4464759046725418  0.9946889766640531  0.7253811131821600
  0.0901443228066187  0.5415440478777709  0.0634376801632429
  0.9312922155695826  0.4228683045531144  0.2138003159674154
  0.1200223499806092  0.4985366900798215  0.7338949292111064
  0.1856665079138313  0.9025989651055141  0.0758545807643632
  0.6078780891083083  0.1928724725238298  0.9173132434023030
  0.9231519091858170  0.6084067201959997  0.6491814771588550
  0.4966136814650556  0.4477714930860319  0.8430968044950001
  0.4668757814031930  0.0668547430828246  0.4752341637576108
  0.6118789661739249  0.4533947146412454  0.6378691647349187
  0.7050340545647535  0.9134803967036096  0.5399821602065473
  0.8719485761704981  0.0128270463667185  0.3232779938255330
  0.5080614796579405  0.2660175912091334  0.3532435393008608
  0.9889683530185508  0.6817722953793411  0.9680956673103117
  0.7154828501969543  0.5866179090824117  0.6998859372287406
  0.8812737220511553  0.8590086532037093  0.6149733636100203
  0.0643371733085947  0.8961236710305072  0.0973368182576474
  0.5013015752537273  0.4199249141749066  0.8605709787874271
  0.1491576016944182  0.5457375201024369  0.8151036067026197
  0.2874598030680658  0.6586746775739840  0.5740496754554152
  0.4215119963409275  0.4895077600037053  0.3436592046506896
  0.8988591295829187  0.0311385367510756  0.3205213125243332
  0.6304675751164437  0.3708911372756379  0.0945908853846476
  0.7438361774995935  0.2337932773758698  0.5054178155894840
  0.2102030015806152  0.5976823292849164  0.2670041764436580
  0.0236225265076182  0.8364378836265260  0.6571293087042036
  0.2822470364391600  0.4149678311920977  0.1884741151813305
  0.1554379016630062  0.9653746062123113  0.1677069959544411
  0.4868690023971045  0.9589733908366319  0.7440995710920143
  0.3387781471959720  0.8754185519271811  0.3183496944015481
  0.1625661259886441  0.9764020232739622  0.4333029349975528
  0.7018619626444184  0.3571021283540478  0.9719426513582859
  0.1603455223527501  0.8467939278332470  0.5038870996102558
  0.0478499506468741  0.5712036237677589  0.0341185918694565
  0.0870216150538161  0.1949350544271193  0.4410407405747491
  0.9367344655643453  0.2377824319540921  0.7588615130904817
  0.6639560107196691  0.1809957474142582  0.6136381183641832
  0.2804307913551390  0.5168690292824178  0.6392968443103380
  0.6300517437557682  0.1438023962578778  0.3986705644123314
  0.4161094547016441  0.0866342218035777  0.7207016132226727
  0.2377592670639793  0.8542709860503241  0.2173154296691071
  0.7067907436706716  0.1556029772012571  0.5868320436866438
  0.5512467523548351  0.4000519378876442  0.5042491367398724
  0.8991026659231366  0.3645291721981164  0.3977088997081009
  0.7506771178496424  0.8934348187736358  0.6503508820524351
  0.7043424391802597  0.3465476620625777  0.1324550934251811
  0.8827022097778507  0.4067637315319461  0.4720216848790492
  0.8842464531662257  0.1679698488116473  0.9633350542683584
  0.6508657533188850  0.5561166917599938  0.5796032430288610
  0.4042035844367642  0.1331746466719688  0.1750399275788480
  0.2589291008432250  0.5654120034178483  0.8537025616196861
  0.2378754535919408  0.6466910142136103  0.6431362060418234
  0.4866162730549849  0.9782063544213982  0.2403057395022067
  0.6076139947644459  0.6029892095882251  0.6978831300545123
  0.7702536066769199  0.2437769073850145  0.2839580406020715
  0.6741524396236426  0.1942694369750860  0.5605588440554544
  0.2164502926895731  0.5116061568604222  0.6477028691491082
  0.3976283129307580  0.2207367385314017  0.0821126785011704
  0.5232838558277977  0.1234071036874764  0.9375620279302667
  0.2036828119937334  0.1618720986187462  0.6544553483178539
  0.2968828228711808  0.8034563395094785  0.5036322032087113
  0.0049248884909507  0.8728380537820312  0.8850168746234677
  0.4318221078866385  0.9228241256481505  0.4073880781460712
  0.5796208833931612  0.2008826098842412  0.3444130856487397
  0.6540658978369077  0.0825753392225098  0.0873644850236438
  0.3178560869472064  0.4483679508677095  0.0835415268470536
  0.0592483609554741  0.3756168837402028  0.7874306149135490
  0.7082982758311032  0.2594110821540969  0.4172099322400948
  0.3494313255849809  0.3202301547343912  0.3818563984425927
  0.4256203940135924  0.6572172167251864  0.5751801488178431
  0.7940356653399321  0.8882414387600467  0.5771375450338317
  0.5785335818276344  0.3192303449921865  0.3794395835908380
  0.7526265632833029  0.1756099206029750  0.9550517102470157
  0.8843717498710074  0.1883059273118443  0.2156061792490082
  0.6103883695375876  0.6912197481194233  0.7263372100223930
  0.5953646645463233  0.2791491393978918  0.2402125081275109
  0.4303745048515810  0.6244634312243180  0.5789080410417603
  0.8245978553015985  0.0281213530265294  0.2564868546808292
  0.5966895882386697  0.0910172289586327  0.9900749833629073
  0.1466396412510526  0.8204092790431382  0.5941181285264271
  0.7936156713329799  0.0778523479441677  0.2551246610648583
  0.3477768280480503  0.4273047177949851  0.3625003319261738
  0.5117044899900011  0.6127333695298277  0.4282951234524079
  0.4278132908810254  0.2989609285554813  0.4237562813422349
  0.5016142526158789  0.4019672248872285  0.1571541294150850
  0.7241346462677267  0.2892633200346978  0.5793502980136291
  0.1940709925623869  0.0391019884499049  0.3067573740742698
  0.8261161835317313  0.3067326030858028  0.8695165848452273
  0.0905873286223101  0.8910003412215054  0.1164692833869562
  0.6035767720951934  0.3619696607607174  0.0786995508444107
  0.8613462511736139  0.1019489350339779  0.9053851380462475
  0.9617268726443808  0.0561367955659916  0.1924505787499368
  0.5815271553786143  0.2754982688365346  0.2109713637457198
  0.5715625593969692  0.8417942335443860  0.5366968227012365
  0.6518047759283652  0.1027771523783567  0.4342803940210460
  0.5032194127450956  0.9678411201603090  0.2939249088092201
  0.8959175753292732  0.2726832727558985  0.1890282575900566
  0.9915997706671293  0.4111479733906232  0.5614496015192485
  0.3221060230495603  0.6738905955484096  0.3316040438905198
  0.7173086442217048  0.3834599935533002  0.1733418616714021
  0.3739279703729240  0.1736919574616258  0.2810648470022918
  0.4186220596594185  0.7149358461791608  0.5350082322401684
  0.2175537067379701  0.9079171285798436  0.0736432363556719
  0.3667147493919618  0.4114496075138324  0.1610024411844740
  0.6511934858895067  0.4374621185823648  0.1777333356369336
  0.6444096871868814  0.3184114758945111  0.4944193465501056
  0.7689893311426742  0.2267850119783524  0.3668711143257131
  0.3700501376494262  0.2013788024080078  0.9666061823831956
  0.6782931754267638  0.2563652954834797  0.2204834421336962
  0.5912047515466997  0.8524367235699432  0.8474658805766958
  0.9303597519025392  0.1380754573190779  0.0834032482232104
  0.5020013277606072  0.9900392500678018  0.1764407765086128
  0.5057556133226068  0.3300980772257935  0.7640507898205416
  0.3865390607871473  0.4712676086358162  0.5185164091791733
  0.8163616812610732  0.3054442877278544  0.0125368329413145
  0.4052990595500029  0.1257422673057245  0.2399378321811358
  0.1864899516129866  0.3644027954106470  0.6582832811553255
  0.4685084602600920  0.2730973528922073  0.2731496118536579
  0.5751769195610544  0.4539467894753071  0.3053201322478469
  0.5893964902400470  0.4352698774124529  0.6831093698009123
  0.6137275904974538  0.0779678168426250  0.5664286415680800
  0.9829122003656267  0.2718744790770817  0.7904487086891330
  0.6608381534282622  0.7466135329332473  0.7101557489994826
  0.0662107344822366  0.9327589863678983  0.6206810861214428
  0.4500624006886639  0.4145758298762687  0.0320040096536998
  0.3098253477553017  0.5727165445141073  0.8310292208247839
  0.2087808091484866  0.6945759945680970  0.6421079811995289
  0.7005205855607880  0.3134397502414891  0.6911968376952287
  0.7854970785421167  0.2636922408794097  0.6928953728973406
  0.7768622489836370  0.2492504367910950  0.5820149435078035
  0.6506394791013348  0.4921282967990732  0.6380635475475368
  0.4089145767868012  0.0139127865136007  0.4155357183657452
  0.4726368780285296  0.7483116723723456  0.6868207073062058
  0.3632167241626160  0.6706944448574100  0.3929474896210340
  0.1734877479934880  0.1596961978457530  0.4906580402711242
  0.7644114008991562  0.4025700027830676  0.2568535755956678
  0.5894260336519247  0.0808102954292203  0.0196139771227086
  0.6006240007848292  0.3700879673211606  0.5463903708548469
  0.7508513446679999  0.2325822299938593  0.3928383448283804
  0.6801155638813154  0.3648511040940010  0.1207192096984989
  0.7467630179581753  0.8211788604634700  0.6972117821618316
  0.0881631984420689  0.5498078583100418  0.1174983774206893
  0.6045040979259977  0.8835775328017542  0.6217880855891313
  0.8813917384011798  0.5531628452776276  0.7083305614965323
  0.3631726375547922  0.5964793130256106  0.3466535428173131
  0.8346838836797115  0.1480637874690809  0.8218100404835385
  0.7299852919789944  0.9930762391754733  0.6021656548410421
  0.2163197847346533  0.0860385140339112  0.4912512708715938
  0.0322995835012068  0.7738070725836784  0.6698337840984541
  0.7936792639851311  0.3294971125651828  0.2017580178663203
  0.6553907470895329  0.6085313599156293  0.5285500230435071
  0.6751356461630649  0.2718633352365760  0.2742685784498481
  0.6805230871418726  0.1520941052446543  0.2171026868764900
  0.9504861550668291  0.4478787266396241  0.5762800871071257
  0.9578808016303341  0.4536253874613940  0.9927200600253272
  0.5231093077972673  0.4277945473254243  0.7974851580831933
  0.7946893134719607  0.2072433376425288  0.3691880168240468
  0.7936861664324707  0.6970965475607955  0.7429624075894231
  0.6584153291097169  0.3382182205745411  0.6620443125911643
  0.9568225473519744  0.1595153456491175  0.2528077035978961
  0.8270525059376150  0.5593754465040380  0.6070319702652875
  0.9413193362976576  0.8091384895240675  0.6552885925636952
  0.0067819532494069  0.4619810128732763  0.1988284288504869
  0.1049162239450508  0.5345361820451699  0.0910898241838021
  0.0505610762419712  0.2133694131559859  0.6839981438133604
  0.8105099555745415  0.7584249382310591  0.7385747246269723
  0.9824518666313669  0.7931750527218088  0.8558476963153201
  0.8363391650181947  0.0023202614919222  0.3646344568635864
  0.6106558346040236  0.0016221361460696  0.2035122323955159
  0.9724858634536551  0.5372686757087795  0.6489612522197520
  0.6034625980045815  0.7918247325354543  0.8473753128901238
  0.4177735326563174  0.6886874439755198  0.5117021132069332
  0.0820119598065745  0.3627055758196860  0.3114076124005063
  0.0061870840030090  0.9257256770951916  0.8758360738367298
  0.6495468996752629  0.9016327979307988  0.5291202698861750
  0.8274584964281708  0.1157116633019858  0.7122104511397567
  0.6057074663870249  0.3749165458958644  0.6041146042111144
  0.0104942983074941  0.2069943223722998  0.1381974019686350
  0.7104533745724539  0.0865002108217473  0.1012909166945590
  0.9171571759031079  0.4184580298969791  0.0113752223473196
  0.2344764682782182  0.3777647614721607  0.6155704030783746
  0.8786370665201748  0.8885496080332173  0.6009753756107801
  0.8899379907270969  0.2187952179386808  0.0290714715709461
  0.5733959110641068  0.9564622305698741  0.5893206750515652
  0.8035893167134180  0.1769064610953131  0.9302264094851045
  0.4693985545547424  0.8227470201825228  0.6109785070802378
  0.0335176600163655  0.5199645311316415  0.6444762495908588
  0.9671028651532365  0.8288521639716677  0.6544732680907528
  0.6490613189000327  0.2025558068793843  0.7533849519848791
  0.8251305485925438  0.3116403175753369  0.9566246490040289
  0.7223302439246123  0.4601477906788211  0.3223481719897345
  0.0439177523248922  0.2313001941637835  0.4497808395437338
  0.3464964263315989  0.6899034034968670  0.5713409886379954
  0.0512839939150971  0.0820977860274912  0.6271458022295057
  0.6789311385380902  0.0558051007025805  0.1335285647779014
  0.0978585434727329  0.0759483465225836  0.5247911972238879
  0.4497370549677585  0.3144557342066033  0.1492993125764215
  0.6715363578196882  0.0244134801504463  0.1886769439237213
  0.2939110708009992  0.2841327630244928  0.9455134782436596
  0.5333154123161935  0.4061633985720067  0.1493871522157670
  0.5644143476438366  0.0873153556666264  0.7550463215230301
  0.1104198093096567  0.9293444564935023  0.5866858637805221
  0.5109271291908367  0.3605655550909651  0.3433364678001083
  0.3591180852847128  0.5399522596191455  0.5828791419625823
  0.2329915593542268  0.7082065469794054  0.2387210466201276
  0.2528800260070483  0.2738769853712312  0.8690729399154884
  0.6596431013454825  0.8157348672494859  0.5738613987412822
  0.0941586505677072  0.6372030498652366  0.1162202555736144
  0.6971831217232248  0.3040638258116207  0.8579870936603520
  0.9549768086183164  0.9511277041990944  0.6127744970800040
  0.6297126971212250  0.6485369332017812  0.6067779648135970
  0.6180635955750389  0.2271349228342372  0.4237730650968109
  0.1361555003537875  0.7712112576604848  0.1408808476499084
  0.4491183417533150  0.6783995621555172  0.7284539717442707
  0.7271113376021545  0.2940439007242341  0.6354064968855369
  0.9606928705306474  0.2076494277288692  0.7028106713694955
  0.1468965217942594  0.9548808787665972  0.5424339190735267
  0.1301922692066816  0.5368998164542320  0.2059309241968988
  0.1552008520330615  0.6434764395881940  0.2933479626649508
  0.0239087895634364  0.0765880346009391  0.0887444085417092
  0.0182895771379539  0.2970195647172619  0.4629215093281988
  0.4911835024688941  0.8800250619978396  0.5919647828919071
  0.2949086933406648  0.2549699811607580  0.3642247367390849
  0.3380048229885468  0.9819384913821215  0.1080567014779108
  0.6837775119602247  0.0940173667633859  0.9945332529154617
  0.5126352675516617  0.9246195707443760  0.4392059037871332
  0.9730054040471744  0.9281025480205962  0.8234247416560727
  0.5214772121129503  0.9035112158052923  0.7280515028980152
  0.8399545887027569  0.6092936591864374  0.6276191622836810
  0.1676631692254489  0.4131019608023847  0.2127381587616970
  0.5327262594934709  0.2752771377341716  0.0041057965062292
  0.5453425989712590  0.6359616158326213  0.4779590136421761
  0.0500555815791009  0.0082906279383022  0.1343643009349024
  0.9418227932313907  0.4743920882878635  0.5939418510058291
  0.6876278568452647  0.8779889614269766  0.6434767366955300
  0.6450903294590082  0.0873658497939123  0.5730451168980597
  0.9854854227482092  0.0994918803800409  0.1768290103123681
  0.5057539986838698  0.4804862522795556  0.7967967561735131
  0.7835421302182556  0.0462318213694035  0.3325888137416066
  0.9824864815954441  0.4753622398455135  0.9984703671913391
  0.9081492653202945  0.1792725969966189  0.2761458555994036
  0.0257862067869063  0.9084753424315833  0.0478090887962724
  0.5835368717152136  0.9865238857060016  0.5828357281978459
  0.3732298166340448  0.0557857039074609  0.1782530411160332
  0.9177462345453998  0.0660906777183628  0.8103208550455284
  0.7532105938629250  0.1378541584145256  0.6233055289349304
  0.6114235224770943  0.0844933918960565  0.0445538214211239
  0.2749905901856823  0.0340051385288054  0.5342608169270484
  0.9369962737079164  0.0900391214888004  0.8545607822361130
  0.2311942644252865  0.3382264888729139  0.3044397249187320
  0.5046183634288597  0.7179447051937659  0.5616589999288917
  0.1625935772857424  0.5513064425582872  0.8445920473859541
  0.9219748992892391  0.2223843076218821  0.0275520056086534
  0.8300706361186775  0.5913418093797554  0.7261351774089719
  0.1729512237531175  0.8093978446398281  0.3061223398318077
  0.1303704017028895  0.0618180590341812  0.2495487876800292
  0.4499086206370118  0.4328059008643769  0.9256209385260817
  0.5010396112223129  0.5761741882700758  0.5724568403452359
  0.7750596204636910  0.6041933573704833  0.7203547176598550
  0.9196806954213919  0.4186206206845433  0.1835556315511483
  0.2715751974299220  0.1580836650902752  0.3822288819019883
  0.4072440259918783  0.1636037036005083  0.2787901787335408
  0.9192773566699213  0.1694756620031805  0.1637663861318614
  0.1603143854445761  0.8744222768234000  0.3765184613470490
  0.7303847547493463  0.9127767764820788  0.6335363473348133
  0.5166761574542434  0.3972926089741587  0.0955728142737835
  0.3951116464806633  0.8978057215283007  0.5363669101542734
  0.8426428306110680  0.0434208296150658  0.5148052480315629
  0.3297145599666016  0.4031748042565989  0.2172083995654001
  0.9086864407923277  0.4137322110883529  0.0664648575046905
  0.1860269092008342  0.3113788742277149  0.6416300724913433
  0.5359558732084918  0.9558599292455352  0.6932226240465394
  0.7268509117842888  0.1922961270805513  0.5450179278800157
  0.2644487163485530  0.8458170889367042  0.2354892874951111
  0.9605936458112786  0.4221179596848219  0.2714127360331505
  0.5960715482239944  0.4097566041900428  0.6603899675856666
  0.7493922456799136  0.1771225913477187  0.0112697444889714
  0.9218842814461805  0.6210451601270744  0.7442065400431221
  0.1621321218211736  0.3020697756768981  0.6645302733968831
  0.3049258444462337  0.1106340253379096  0.6555420735230553
  0.0157186436773895  0.9211825370406493  0.9057162392898025
  0.0699699537729290  0.3049569436130096  0.4875768470907137
  0.4587885204986795  0.3919510054693235  0.2814081008934697
  0.4004675995095424  0.1077441740250601  0.3849978303687870
  0.5298513251820764  0.3536309640807401  0.7242487937899577
  0.4008294685745851  0.1412639424342427  0.5276360688184759
  0.0237419850837477  0.4014993648858822  0.8222323873600839
  0.1584739343296432  0.7638486438376144  0.1643090043676174
  0.8577165526128213  0.5499327018804323  0.6104682081076944
  0.8173422249884612  0.3670197252348214  0.2732581634431954
  0.3445144911452255  0.1949755092476315  0.7852373368607659
  0.4949947046501798  0.9723760978417860  0.6443562462037122
  0.9291740976437908  0.3844818986271486  0.2903268020979671
  0.3664707605314919  0.4797568843613457  0.3524758565963321
  0.6858311074077400  0.5614390021585788  0.5223552670315640
  0.4738877682691196  0.1028664340565154  0.5779578876844865
  0.6819229095470205  0.4260800826533267  0.1824479042072037
  0.6368045654358215  0.3306882295710534  0.8599969459804695
  0.1295532914727587  0.9106811404107582  0.5682385661151770
  0.5025305584161899  0.1832741132929806  0.2817162573153350
  0.6890092349185728  0.2718386413114943  0.3034977046281203
  0.2237278256587965  0.5708476490941630  0.6090853760620722
  0.9578862583890367  0.8172278011664257  0.8159664538452807
  0.3759395288522192  0.9276990478617622  0.4461370699346939
  0.0188654747128185  0.0816472302960722  0.6187965393707651
  0.5626237069409528  0.1390534649832825  0.0228559117653942
  0.5583280460022521  0.2422736460123206  0.8081369124981562
  0.0498650416855902  0.2849116950006013  0.4701505344412146
  0.4530065918957220  0.0486745678669445  0.7398759603242697
  0.0110675682189654  0.6618614057842088  0.0204541956965225
  0.4125167989484854  0.2849802607205256  0.3704311254870394
  0.5539449292230513  0.3686038889970656  0.9955526873579115
  0.7872273368315860  0.0994825385166736  0.2047617634556438
  0.9427030658897859  0.4178508638540402  0.9028925214557582
  0.5762177744163511  0.2871351243462839  0.2657095140781884
  0.1137646976398767  0.3704019853068081  0.3055178498239288
  0.1375092746509872  0.1556937920971489  0.6480068823105986
  0.1148746675370998  0.0214954949737504  0.5268776574892916
  0.1530853443396794  0.9018870442267565  0.5176460244633260
  0.6164230836409668  0.1929986612680945  0.6415028636331410
  0.5662849545621933  0.6959047066690141  0.5743054582260947
  0.7270562213798124  0.9852408439228278  0.3405885448337200
  0.2667841249439489  0.4292733312659862  0.1633877258018714
  0.4086954920097552  0.7401220646807781  0.5823809063136404
  0.8879048019540516  0.7255444653945562  0.7678677243515893
  0.8222627290272110  0.1492573077729107  0.4819455653283324
  0.0233851090357891  0.4041468096259970  0.5613661797543846
  0.8815964348900950  0.3749156780026033  0.9445494705016383
  0.2606495244594902  0.3641415629254577  0.3453353286848804
  0.0274629149981474  0.3873248925666253  0.3121458433719437
  0.5177593167824701  0.0238569993627436  0.6436797701960620
  0.1340730828725711  0.2143593180889155  0.6562474355449948
  0.1287613459472618  0.0081029414904650  0.5568090674463060
  0.8689010580148533  0.1555631645825834  0.5930377178424274
  0.2566652081935103  0.2113226670322154  0.3678770264855459
  0.3173158684497541  0.8107658537281658  0.3738722601181040
  0.1965254196367653  0.2104057122869232  0.6810625625299102
  0.3780377107277846  0.3190341830177560  0.4007102646977374
  0.2303732289944193  0.7391286411997046  0.2286707889421845
  0.4120454521644775  0.1579592789990085  0.1940279232425261
  0.2136227484029259  0.0659112784199347  0.3857117766582144
  0.7330051640356481  0.1302246548099877  0.2261006052038410
  0.9034244735628595  0.0688347427630035  0.7816064825890697
  0.1893320293409025  0.9513150621696600  0.2975310409402376
  0.9956810493685584  0.4817561408934750  0.6136876336466858
  0.0065824550262819  0.2021049591734588  0.2439881612185370
  0.5798708440728860  0.7818400262773453  0.5612623096597099
  0.7551491252543913  0.0883591171949278  0.0679134817308291
  0.4430249683584953  0.7642606727911802  0.5213877664912717
  0.7656055543888988  0.4272788817335741  0.3071439295025675
  0.7385744815026353  0.1090950455785414  0.5861225246621721
  0.3273754421305414  0.9479087995778621  0.1840278372641245
  0.1602170367505455  0.8508202858378019  0.3537091854241665
  0.3654070095528407  0.8931526179148815  0.4889953835509218
  0.6439194955359677  0.1200671029009236  0.8526148721731260
  0.6094455568147679  0.3262205153133599  0.9763934795327539
  0.8282390404413184  0.1000139444834273  0.9007189542370199
  0.0161046664428423  0.1360354002120187  0.3963787986097498
  0.9312885638663347  0.9387676670742605  0.7369425915281174
  0.1335044802287400  0.1450353799492401  0.3899955116537668
  0.8762655414012881  0.1579138427421132  0.3811911406158804
  0.0335246824970510  0.1957326124629129  0.6634642072345688
  0.4866998338266663  0.6374831551018549  0.5845419956537036
  0.3607621498319346  0.2324022453561873  0.2816157792431121
  0.4666045114391321  0.6665370626787830  0.4947019333982692
  0.5014808775081687  0.3197308689643250  0.8179061180978515
  0.5659512090899361  0.9181756298767562  0.4774090937402645
  0.1490950890308682  0.1797314386301874  0.4313480558866785
  0.9024123011851038  0.0584995189077187  0.4110275327177719
  0.3515818817592726  0.4883423854262594  0.5581452975467375
  0.4328723305086579  0.9810380289447943  0.5035424600515672
  0.0659992183188641  0.4298176984087631  0.8002258114484594
  0.7059684683554865  0.1085791325509957  0.9008662266446334
  0.1457292367218194  0.2398776367231688  0.6802356923546181
  0.2119232456151155  0.1178990216809197  0.4905958638811850
  0.8394516848914864  0.1993878979683401  0.1827139070201415
  0.3526759638753542  0.7193372333752603  0.6812002108468128
  0.0312639393434050  0.9325988887926400  0.0699069460704959
  0.0162891444889634  0.8384501696939642  0.9759824722262009
  0.0064378697146483  0.4441825622373946  0.2518238109545061
  0.1643084105475258  0.9056102673062701  0.3674276991738333
  0.0771563439611572  0.5600248182715202  0.8398392536314083
  0.9379587295600537  0.6602543564984573  0.6649513788985677
  0.2009877416773683  0.9846825214915139  0.2061647339454336
  0.3394531537052761  0.7217160881793573  0.4028735619443796
  0.2794525348476944  0.3921359026762903  0.2399581980580039
  0.9525103018899072  0.5174112918800891  0.6315181443638793
  0.7361517015899465  0.2592866032007131  0.9921167381008045
  0.0643084350643718  0.1833370853405805  0.2884079961495616
  0.1584553273904063  0.9680414675329199  0.4945511246755538
  0.0029768620609608  0.9876995949742436  0.9726262618358467
  0.4498385121807785  0.6566492308634828  0.4675986044101883
  0.0117331136921872  0.0828368299347411  0.0591431245931655
  0.4612702660512417  0.4046248386023490  0.0840138191356198
  0.4851811980937208  0.8861448332645862  0.6894518860670472
  0.8925962867402965  0.4001291167654289  0.0911870781169261
  0.6541650615846026  0.9734389688622844  0.4237371522595085
  0.7693802746128797  0.4653499609572539  0.4434789382229997
  0.5407472391047609  0.1356310225254974  0.6237067014376965
  0.5090575874397327  0.9067044893322649  0.6980911725713187
  0.2711929351379727  0.2492360677277389  0.8580874045363298
  0.5907986133453524  0.3424544472820716  0.0301698400478126
  0.2244199258777387  0.4792238374432893  0.0903495124207391
  0.2296581516552772  0.6164024866134512  0.6337912597688745
  0.9325592405164775  0.8995623428576912  0.6186266817279067
  0.5944676563642425  0.2669662788522177  0.6755726463379355
  0.8005541290629629  0.1766315149571768  0.9861031976245884
  0.6019081188554786  0.6627943344906293  0.5344303104027428
  0.1768555833451406  0.2333472361413690  0.6925231459582115
  0.0268425251858962  0.1319951677388668  0.0992254675003007
  0.6663981227129854  0.1044248967067393  0.9397694855988492
  0.8111139641286167  0.6435858326057643  0.7390893065718216
  0.5627029777044156  0.0080583104538671  0.5703727368597801
  0.9309323204709444  0.5774159653079123  0.6448141302985985
  0.5987632381708693  0.6594764906036112  0.6029976096144725
  0.4525756583430263  0.4006771199989174  0.3381691487467842
  0.5453253316591257  0.9577702921327602  0.7899696021229174
  0.8848036714130649  0.3119403349933520  0.2642002015086918
  0.5600975185765795  0.7293102210848268  0.5694578916848949
  0.0090132332130180  0.1702510882246747  0.2618716502418301
  0.9950836049497549  0.2562490660452879  0.4262153189717746
  0.5361916758895222  0.9839951109596978  0.7703255137351896
  0.2146537964323770  0.3884335364630437  0.2349734069164130
  0.0994774757697690  0.0991573640510250  0.3307022537649091
  0.2847372191210312  0.4373228733158251  0.1376109819812396
  0.8881849789090851  0.0549804804988887  0.2395458188260975
  0.6520041465127958  0.0918752549382034  0.0029300486680858
  0.4450597236905484  0.9754625735254294  0.2783442526057180
  0.2344336878486065  0.4845605684936459  0.6466735380631646
  0.5995071502752686  0.9619024447790750  0.4121560753071229
  0.9819221594836949  0.2940678740040491  0.6980245437224690
  0.9861729978697191  0.9102323681094679  0.6346222090744749
  0.3226919415094663  0.8304477733251384  0.4263046681870809
  0.2198000249619733  0.4554790861835298  0.6464575869349294
  0.9807578057036689  0.4365664701103035  0.5793455386465427
  0.1654881823320683  0.8910985990124295  0.3133343842193286
  0.8337648799259931  0.9913261654501837  0.5363709274448747
  0.4251700571491785  0.3925217245714989  0.2809984998676633
  0.3942504483840345  0.5855640776735123  0.3519064159602158
  0.0158479814384127  0.5076317125114169  0.0346078261764416
  0.2307917109140619  0.4367701143745001  0.3426230757776851
  0.9825244356377741  0.2160196922350240  0.0827315659380395
  0.9206314717137396  0.2935717551130804  0.3037673738485806
  0.5116334992312522  0.7651595245501687  0.7353098446129105
  0.2699402944029902  0.4532049366568384  0.1131153770982807
  0.5016313617202892  0.3997975046707467  0.0422192932320540
  0.4456863518546884  0.5125193289623093  0.3437319854052149
  0.9849851063120256  0.6822032888623716  0.8150957118333481
  0.5181573603297208  0.0323745664308433  0.0898967994995813
  0.2523673430430768  0.9084666840410498  0.3574010250988506
  0.2662816031953564  0.4878896841123458  0.6379371677994815
  0.0396634241607271  0.6245693297010765  0.0511196965252954
  0.6731990898459531  0.5581257876757661  0.4922128050253315
  0.3064290649491109  0.5556603213208433  0.8838948847527088
  0.8379651570420678  0.1207709447709331  0.4786664896659544
  0.1391069533933096  0.1064841820558097  0.4974962521774912
  0.6889518213391469  0.9555547271945823  0.6063658123272833
  0.5137892693002279  0.2055288165629428  0.5394005806649653
  0.8764953408048074  0.1717866550556522  0.0755104920371396
  0.0942536218929677  0.1689489204210698  0.4221267294785611
  0.6561373753227169  0.8701718739467148  0.6398510151195221
  0.9147264141819571  0.1130220307388766  0.0020291704926355
  0.4923378372920272  0.1787284661456101  0.1360692166205703
  0.3720301677801469  0.0321096182778815  0.1531662687884621
  0.5195960801046965  0.3941179255698087  0.8477384219079965
  0.2754844693198951  0.7806884621491471  0.3454349730662373
  0.5728497898268792  0.3999056324069191  0.2921687160965055
  0.6771631324747092  0.5797722890140399  0.5767730801231222
  0.9743755403156620  0.4704484099106147  0.0535127603488087
  0.4609111175217521  0.6017031382597146  0.7675107809815493
  0.0633528482213844  0.2548116315017895  0.4609706131525328
  0.9063042657978470  0.8219440957039321  0.8671665064892200
  0.4178234592282448  0.1842251063824501  0.0424984372117843
  0.1717734775754374  0.9591609950488988  0.3810389668388902
  0.5936955400304422  0.1843325336344913  0.2486760690878292
  0.7695913722829122  0.2694293892370194  0.6647741348462516
  0.2844416782811259  0.5283111933944227  0.9619003730638809
  0.6733281773572821  0.6907936093574293  0.7222184358810412
  0.5360906797338068  0.4305295821374800  0.7680308139820607
  0.3142252861714515  0.7367565050327155  0.3109148209361478
  0.4260428314490338  0.9854357736750766  0.2553760967331654
  0.2777377739523560  0.3708041077151440  0.2914640274402653
  0.3668219635330016  0.8433336551037025  0.5612676255841601
  0.2018389193849479  0.4936413877717103  0.5779553774504507
  0.6014123041274392  0.4331581036627146  0.2026968018789277
  0.6813849279104420  0.2775312868355636  0.4146061255658990
  0.9490046658370972  0.1824979460438572  0.3192429277439852
  0.5628580177280846  0.4466295813189825  0.5348099100091727
  0.3260036779078296  0.2384230374249044  0.9585789188792704
  0.6268302828143228  0.4796397394478985  0.3107692365235018
  0.8825670829803276  0.2897301470011868  0.2132044800829898
  0.2702186995262120  0.2328443034838880  0.7619402739090800
  0.1848326033043502  0.9544818998886831  0.1609119873287704
  0.4855433055582610  0.5269390428892633  0.5504884264039642
  0.3385864669824391  0.5489616736547390  0.8840109212371635
  0.2912013420634316  0.4842318535307770  0.0356814090696707
  0.8779190256775840  0.1919153780926577  0.2710765249975022
  0.5021847148048532  0.0695993663634397  0.3783002305045440
  0.0230788326120792  0.9640807775991399  0.0641427783357656
  0.7603552550368788  0.0010405420996113  0.6073671002512415
  0.0698102511240888  0.4567717487467818  0.2587856633389404
  0.4182361757159861  0.1967637042535783  0.0732285864613356
  0.1903663177141320  0.4414191062983551  0.5635353540635599
  0.7298112287015969  0.1968586427686883  0.0926814401356079
  0.5785675343760589  0.5920939903219237  0.7045690055683630
  0.2787125773070897  0.3078465538720755  0.3487832840066010
  0.4107591647808857  0.1535802092945766  0.2255313551256370
  0.3589112500837431  0.0315314465204656  0.0973981992057247
  0.5572785014440894  0.3321242018455637  0.3214106316423475
  0.2022676675567809  0.5301898605129682  0.9866853085295794
  0.4378303512525595  0.9525818894984360  0.3290039567601874
  0.8987682663305894  0.0361436190658284  0.6763848971483996
  0.0572783145397744  0.1150367495928521  0.3646146452537226
  0.3441787826611133  0.6955367625861594  0.3820814308463320
  0.9631125439454594  0.4495077870054877  0.1640755640540734
  0.0319940767189834  0.1815831679822438  0.4315569206425532
  0.4563714715681662  0.9156683650626084  0.4279093765210214
  0.3643445138822313  0.4601265284090705  0.9975008213599941
  0.0422610910681583  0.2287865128343835  0.7115824002034766
  0.6962059771474259  0.3070709520715127  0.5785388900554691
  0.5399157053785886  0.1525181884556631  0.4901316217482661
  0.5007840855322633  0.3645201245094198  0.8501957623811305
  0.9718449463150266  0.2400013479679896  0.1652666545296781
  0.1557008543858032  0.6915954641371382  0.6610794711582770
  0.8575684248824593  0.3590359023515850  0.1969463165229449
  0.4633240274907445  0.9838542007913351  0.2176949566711402
  0.2831173246366335  0.9102902961327942  0.1843319056232793
  0.9326789391013209  0.4067359737806889  0.2668234304316329
  0.6453259810519322  0.1150185054753668  0.8843803768412711
  0.2675836195210934  0.3668475589598743  0.5722820080414961
  0.9256433729418861  0.3543197902647061  0.8476348152046668
  0.1091420763417073  0.5419650751876206  0.9257379575747714
  0.0089599305650525  0.9612617777617450  0.6249894699661692
  0.2477619591267562  0.9355691795215031  0.3716798272079845
  0.9776736226306936  0.6973730434943713  0.9941048022307907
  0.7801398194740631  0.7754797530530330  0.6083235269032455
  0.8049713969247257  0.4120153406237271  0.3449135292042607
  0.8224654690197922  0.2107954156446296  0.2079384836380988
  0.8881304282386288  0.8682413880620345  0.6861881466520273
  0.9273201958202991  0.0201069972591764  0.7665040626151648
  0.3333767213389782  0.5244236648678645  0.9337362617729026
  0.4807403420600929  0.5321434689183672  0.7920498097068266
  0.6095329811089197  0.9751864242031052  0.3493206183829401
  0.0874287891350060  0.0793734742280228  0.2807246896771874
  0.8712703879099364  0.0683811950988231  0.1332878839508010
  0.1956897606632111  0.2469765707934786  0.5040388794454083
  0.8011380338732287  0.2270537074535696  0.5838111968989146
  0.7201302907828703  0.6165795154313443  0.7122468838886705
  0.8768471819266793  0.1288502267605879  0.8558015547323934
  0.8203033068450581  0.7869192441163714  0.7274367360469619
  0.5209097373482670  0.9479612016732193  0.3783599539194353
  0.9258450389016868  0.7250780630373399  0.6647161108781253
  0.4987784661186693  0.1380354129283813  0.9218537872496007
  0.1578386791222920  0.9410174308935830  0.4755655467153871
  0.9186689855620289  0.1222056165554545  0.9475678963793530
  0.4124602726830192  0.5691744846910841  0.5728717023268640
  0.6458859863641324  0.2347772888693283  0.4385075342328139
  0.9963621416588908  0.9548595967643708  0.8671907270411634
  0.2630153214781831  0.2870507653661918  0.8976797639598804
  0.8136870798598986  0.2467904160874050  0.6931439914234357
  0.4491632711652953  0.1344812116836321  0.3836831113249847
  0.1113413449837783  0.6612291132768937  0.1301388482600302
  0.2064241437831549  0.5694851342237280  0.2826995750784850
  0.5910184594062737  0.6056825463828389  0.4657819484964567
  0.3125159929923510  0.4516001157293000  0.5760253372885906
  0.8383929127473917  0.3294383215353239  0.0184870253483707
  0.3128380148423704  0.3312460710070982  0.9690346368420404
  0.8414394544602909  0.2002973507817968  0.6131927968912743
  0.5598984381694083  0.3806717792860821  0.2540433388177690
  0.1865962145095435  0.3357841751755777  0.2751595832724705
  0.1546426388755323  0.7906902584670106  0.6037317981013539
  0.1137406642169098  0.5385363057842476  0.8705234223103071
  0.1666245256687425  0.0856066770417420  0.6065345637264926
  0.5094370143834057  0.3178249550636557  0.4468416051368461
  0.6308143340265325  0.1104744727464388  0.0909451504181021
  0.1193412884662216  0.5688476924605792  0.1614723913513932
  0.4089680231483219  0.1998799971109155  0.4993515052298848
  0.9722694675179414  0.3963231616984357  0.5394108804117350
  0.1914052129521362  0.6044687509294244  0.2416608192615028
  0.7814960649850812  0.0370035252954052  0.2219033431901074
  0.9258155616443620  0.3987977883200679  0.5078703669208579
  0.4312848799233198  0.9896617389726495  0.2254024433851303
  0.9544973296074448  0.0829091415446952  0.9216200010917689
  0.0087369514370167  0.7101362127591775  0.8956367380724486
  0.6117805995954306  0.2016051364987397  0.8625208420109486
  0.2502905155863701  0.0376038757409478  0.5091183723725081
  0.6037428392686944  0.4608221313893612  0.6688256983874350
  0.5330257202008898  0.2945236498941694  0.0576373984976442
  0.8854265813274445  0.1238530325953628  0.8890806824266552
  0.3546726210465495  0.8896273440630305  0.3714319278547791
  0.4669138622864200  0.3293092869458858  0.0978577144946624
  0.8859807926107124  0.5812528159014678  0.7249565790122714
  0.0406962417502378  0.1761448307144186  0.1728714067092443
  0.5361086106558531  0.9282681878774921  0.7424176043506834
  0.5493949419773946  0.6689327036249593  0.5241506180210234
  0.5571371729345901  0.2232058946816603  0.4036263000530284
  0.8158260242501890  0.3299828619004801  0.1265376168112815
  0.9723975444187068  0.8408540722953259  0.8329179222876344
  0.8386742168813944  0.0883591933595550  0.9519102577075857
  0.5792636202829560  0.9677448594655004  0.3591332812642025
  0.6468809868583227  0.9196131174761990  0.6145306691794828
  0.1826056571806417  0.9967037733195584  0.5393602107880334
  0.0790683127695601  0.1299780586398157  0.3842855514610914
  0.5322755332223745  0.9987057742542446  0.5624666746010313
  0.5572880267972972  0.1270223100809339  0.8923588694295386
  0.3340290584206587  0.9289717445320197  0.2476751888478658
  0.6680997063600518  0.9790504888386924  0.5974315550009136
  0.7594542400736461  0.2203556756851121  0.4214168898037564
  0.6139294375141068  0.7422487162056309  0.5835857591015399
  0.6155237374846677  0.9794303383999658  0.3177240208584518
  0.5806543737878345  0.1909179450103382  0.4930412876137269
  0.5464852951392489  0.4000966918322818  0.2044249186775158
  0.2989500808729897  0.8067191159936797  0.4711598592367350
  0.7913520073911516  0.9173236794088266  0.5619701063338212
  0.2744472047097757  0.5398553170661105  0.3425165717695603
  0.2231508065171096  0.4337302328657437  0.5621515302922648
  0.4492449262718455  0.4022436419942538  0.4480206455729345
  0.3091706238726799  0.8083665436306855  0.4056680181451731
  0.4348823076327001  0.1834215041921438  0.5108824187280231
  0.1025058014356181  0.5337706115143221  0.0355082743804085
  0.9430440118413849  0.4000611948754972  0.8756963275505050
  0.8450303619621846  0.1046858472019914  0.5317224824701438
  0.0780697105528713  0.3525985108973465  0.5200809262842245
  0.6580820718739426  0.1877648249441518  0.8928849787538613
  0.5019302470987795  0.3732646486538722  0.7984042885207439
  0.1354656236237199  0.6234092792689314  0.1641793729961490
  0.4269314697082403  0.9701460185290899  0.3051111712968722
  0.7583152199845820  0.8483066232908110  0.6831773888979918
  0.8018717414857918  0.4316666365996047  0.3975015488798700
  0.1785535673237343  0.0483430823626734  0.2779101676366232
  0.5089289404421160  0.4522858824939496  0.8128951779215997
  0.6234658351287561  0.2230749576709814  0.6964904677858224
  0.3292322220752729  0.7654911284994206  0.6408138914239397
  0.8054847387168713  0.1627795270235667  0.8182457303173897
  0.0854217514803000  0.9785568664582788  0.5964202215600926
  0.7564544084571002  0.1823982928572569  0.8992980014475164
  0.6482110527476288  0.9257330540060384  0.5073633408720710
  0.8349219282892928  0.8895153332726511  0.6721176756449996
  0.4862084170655023  0.2688540196494668  0.3277707951285980
  0.0715575937240303  0.6979887391191016  0.6769101682011373
  0.4419842731623319  0.1892480078130375  0.0949054543551021
  0.5974882090143087  0.4083818914700986  0.1203900199890008
  0.6293526457791170  0.1270795882938316  0.1184064971838745
  0.1427844840539309  0.7488102743482884  0.6373221742028355
  0.8115575135844708  0.0538902675813444  0.2382661010565078
  0.4030965187164215  0.0349230176553137  0.3229379349858880
  0.4945308896240614  0.0636642286109227  0.6118924109173596
  0.6161333507939195  0.8671044884524315  0.8599258784148665
  0.1648598878524592  0.9289079359394391  0.3899541775354763
  0.0954787406007264  0.1813755906116721  0.6018909926368241
  0.5325106182320526  0.5277062539150364  0.3521356145279254
  0.6503582032319086  0.9623048575839391  0.4540166487662918
  0.5449463966397662  0.1635878771621312  0.6079634503213799
  0.3697558390452119  0.0485075833218561  0.1210921752785739
  0.3991244796231712  0.9943422499341964  0.6525378707779712
  0.5733403374193018  0.2114284888880597  0.6017100244599253
  0.4188618453606359  0.0434631900829128  0.4069901556634667
  0.5058467379786037  0.1506574043969996  0.4449303802784579
  0.3631196900805966  0.9764277381845241  0.2580736455322304
  0.2284284822454206  0.1189034674208074  0.3981523087308091
  0.7829302298598122  0.2053167495574054  0.5357895425838519
  0.6096183767315941  0.7652287108984117  0.6934963013961630
  0.4276650029892750  0.0564745674024508  0.7204828380811470
  0.6933406839619024  0.2623153875076470  0.2485741526698265
  0.1302649382218229  0.3242689904607561  0.7137114451234700
  0.7419878556066639  0.2871044744971681  0.6638762291703898
  0.4344802432993328  0.9379906526634105  0.5390169087993055
  0.0221739892752984  0.6066746626264028  0.9447550096554873
  0.2720147670226781  0.0458953182483786  0.5897217238749169
  0.6373603448357347  0.2938668211911536  0.3834137650452168
  0.7595134632811705  0.7237401446036570  0.6161711300255592
  0.0536858583378726  0.2331889288211679  0.3136707326765483
  0.2792857655351230  0.1022564697635299  0.3470133605885529
  0.3457487840341467  0.1277535831078096  0.6914146302725194
  0.1387668041447138  0.6597763504423655  0.2744116388863010
  0.7476276612470224  0.2957441265612904  0.7757979453225745
  0.5542350679477975  0.9783102951732918  0.7409280438417032
  0.3098741370117517  0.8615945784872433  0.2704583157360875
  0.9537271358519379  0.1512770059828303  0.9908920920259173
  0.7611738022664265  0.2401156628482808  0.3386510243576616
  0.9412460443573284  0.2587644200611071  0.2227913710034232
  0.3623191759182077  0.0659068496184367  0.5516864859855218
  0.2343947438742696  0.0906934283588302  0.3821560324366772
  0.6530166773737565  0.3282053547509096  0.8313682375508465
  0.9019542138040136  0.7969221883415349  0.7548896403185009
  0.3755490008243494  0.2209935986907584  0.0291107991052596
  0.8353202514229309  0.2949823912966095  0.1834686649968525
  0.1737061519091764  0.6403730656303064  0.2023035856270685
  0.1984406052065250  0.2588133056013386  0.3078336987568824
  0.1437964253998895  0.4970546435505803  0.1207167846658372
  0.6280018274310383  0.2736925472840528  0.2431434514329295
  0.5008823271432600  0.1538297549242528  0.0420937542749791
  0.0068815651059853  0.6207431020772796  0.7523764448477079
  0.5059714346650839  0.7453237559923919  0.6875146060787386
  0.3139625094962313  0.7670829524014428  0.2990587611292111
  0.7798511736864450  0.1986452135024332  0.4790948304133685
  0.4662319965326958  0.9252535738569994  0.6539447035010227
  0.6027863200727802  0.4233936088481243  0.6309824819499911
  0.3637088832149357  0.1646924640720354  0.7420651592467442
  0.4541967657802382  0.4228400010327676  0.0009586347395215
  0.6559656280352669  0.3348904922309882  0.7752033107317181
  0.6766001007663279  0.9605230628964918  0.4739436881693471
  0.4965163941280148  0.7773026851876621  0.5353928477339511
  0.6821936784501705  0.2340190816524341  0.4848683412116961
  0.8798261077567976  0.0772864338492227  0.7226003441698692
  0.9760336227315497  0.4511960119034583  0.1940320257345017
  0.3783743397985150  0.9203172177154072  0.4776065525057205
  0.6085088296140782  0.2293850450051186  0.7248646897882554
  0.7089650356433990  0.1878818224039732  0.8684099174796694
  0.1710903831693563  0.6706839751711582  0.1919657627755053
  0.7639933680634583  0.5794367300760787  0.5983099628461659
  0.5343992833404100  0.2645472263287906  0.8105927046882536
  0.0027400154755359  0.0257457847835858  0.6146791325740477
  0.5272313360336753  0.4791969096896245  0.3262782640233181
  0.4596603981565631  0.7940327835049229  0.6214075904521283
  0.6729251740626490  0.7753057776214722  0.6989267987910627
  0.4546252955304442  0.5517838795554777  0.8001786346230286
  0.6837567999593235  0.9823979220332513  0.4136448754167418
  0.4391413883153056  0.8273262645322219  0.6763528023404202
  0.6284111112613221  0.9914330603018904  0.2554344986106126
  0.6954675155086913  0.2437703319842733  0.1955354600962854
  0.4194680624776502  0.7601018632886462  0.5995034989676680
  0.9136837485816847  0.1384816068654618  0.4168886199931361
  0.4940944530113729  0.3961127401866315  0.1875843082167380
  0.2179413979901230  0.5702282835774853  0.7642453306679667
  0.5914465725851015  0.3421989965077968  0.9534123006759601
  0.4803467417820875  0.1852300815308467  0.2319651754289300
  0.2270517122659934  0.0164215669344636  0.5074857972342655
  0.5991489233427312  0.3374941821064981  0.4638522954053559
  0.1592510083127109  0.5472886613027961  0.9010754876327054
  0.9621127739223012  0.3307677721835935  0.4465563683427158
  0.3991738567686992  0.6519437886946349  0.7319440651004739
  0.3427912859103964  0.8433297078913407  0.4780760166583491
  0.5470617804324325  0.4022738769143371  0.7526627833047681
  0.7809276715742051  0.9783115929206754  0.6176285224350553
  0.4177098062896048  0.4685445644722303  0.5100018304605061
  0.7927241491221804  0.2038097286350652  0.1512034302201775
  0.9352536049761732  0.3224296823141339  0.3874204306686939
  0.6326320642908515  0.3327467451903458  0.5212006349568998
  0.1991385973478002  0.1979421123756990  0.3099404630594472
  0.5238249621555147  0.3975126697219226  0.8118559959993528
  0.2479230785030092  0.5122058419475943  0.0138107863340596
  0.4516417894085476  0.9200845649242596  0.5598859341375798
  0.0831078262720292  0.1597858719993940  0.5798067231494999
  0.4836390184244240  0.1853661591314233  0.1996718610735532
  0.1681194625729880  0.2395996765130174  0.4872747005722337
  0.3668823092245166  0.2644807610475331  0.0659472717533283
  0.4550294646654095  0.1816658738773464  0.2529346880008652
  0.8520893216978139  0.7940022379795340  0.7282053097013446
  0.4915167620408101  0.1239121084625019  0.9863655560174550
  0.3043217933109231  0.4024284101456532  0.5492413577093582
  0.9669492394270656  0.2083209387959148  0.3637640996320534
  0.0933995332332100  0.7830798065002600  0.0913029819895645
  0.3066502650630254  0.6189136002114334  0.3247492658137314
  0.2854848542582739  0.8977753458646228  0.2347650529107116
  0.6734699862087766  0.7234102679826511  0.6031910190242938
  0.9268324529499126  0.4215727825703908  0.9563817014081097
  0.7064086012385068  0.1117264353947097  0.1473582683822388
  0.1683348316575163  0.7938110854397956  0.4903755083915892
  0.5887825349855961  0.1754669013102039  0.6429917461957028
  0.5277125083718083  0.1850128734577007  0.3032728852278164
  0.5243516217932449  0.7658156563986088  0.6693252028955521
  0.7256472517691422  0.2553700843296349  0.2511917266951081
  0.8090582564533423  0.9917926963885764  0.6246822480109888
  0.5347371800238895  0.9728266954084268  0.2840382375407286
  0.9379422225795112  0.9186951108185191  0.9289676874412515
  0.6682007370485844  0.2904581942178187  0.4410261464038759
  0.9559316996243281  0.7133464998145449  0.6715357113230179
  0.0256792477845536  0.1174003235307101  0.3709929873234980
  0.5693694540141792  0.3842836946807408  0.7780114976378449
  0.5056545133274597  0.0656649499501781  0.5168861244004525
  0.5644360134132232  0.3258012620073072  0.6905038710990212
  0.7655477049846006  0.3446235315545083  0.1943731699755240
  0.5497943372206869  0.2839779941139848  0.2061903926141208
  0.7313053906579221  0.9719198100087311  0.4844591890963560
  0.6941446646815137  0.1687930896197854  0.6157986946637136
  0.6043362521800131  0.2503985020036704  0.1320927855750691
  0.4665874315735011  0.3874518675821008  0.3666768025142402
  0.0999006390560077  0.4678101159775148  0.2652677380818192
  0.2069790628532929  0.4174022675114993  0.3319165794797909
  0.3544687469276808  0.3827355379974348  0.4503531179352975
  0.0315844715915892  0.8542988840672811  0.0291650288638019
  0.7032550244643652  0.1809062242986667  0.5639209131854657
  0.5056882117341945  0.3859693401150145  0.2416578853109554
  0.3695827425069330  0.1923449501794367  0.8681001005471509
  0.4548427612654626  0.2681643633145197  0.3371228415160647
  0.0050455814908043  0.2001714047172455  0.4305492884227195
  0.6191832743454002  0.1816995356424031  0.2696890687160055
  0.6065396822065956  0.2151595693043566  0.0263775241331932
  0.2300315730594530  0.3068730311176646  0.3136770036809190
  0.3069247510795016  0.6354252443684770  0.7023893940908468
  0.9902068194119819  0.2491558766362292  0.7696036382210978
  0.2063949385068737  0.1168052134850510  0.4229864227961604
  0.2006441951038465  0.9961714019876399  0.2605588276157119
  0.8964154362830121  0.0838185269887510  0.4306406783483597
  0.1516332962564102  0.5258829269276268  0.0106514174114629
  0.5083524523214102  0.7832193413902685  0.6468876225483896
  0.4115527240259678  0.3237033042048901  0.1068654701451956
  0.5538926269559313  0.3546402510336784  0.7033324793986361
  0.8442755088516307  0.3503151838672959  0.2800213225583914
  0.4445718181138751  0.2771767465673154  0.3664705304453442
  0.3644047634554238  0.6084107181276295  0.7620129309841913
  0.4064329180398019  0.3900336673922364  0.3076172941374618
  0.0415961971260339  0.1513901111383494  0.1511086911018084
  0.0252515564219655  0.7168659919688015  0.0198929450425024
  0.7592416951146741  0.9858708787069616  0.4754616033292076
  0.9059006331159958  0.0448318533864150  0.2924921377645838
  0.6203668743663296  0.3678825338818806  0.6906649520841919
  0.6424740081731126  0.3451325618816315  0.7471604991713757
  0.5530284730969943  0.0096680785467497  0.6961708916313812
  0.7093793115497750  0.6813880715395886  0.6139260669439874
  0.7431799592344740  0.1742927417426398  0.7580939220003340
  0.4401852776616253  0.8912968945196821  0.5692458433292849
  0.7677384157678955  0.2663987168277919  0.9970434823706741
  0.6863453997656118  0.3216492663096271  0.7192963425248150
  0.7787968081574166  0.4066738177479718  0.2858345527715467
  0.5137731167849978  0.6438462947185226  0.4747425289248108
  0.7789982842560158  0.2844771248088998  0.7764148399176237
  0.5267468535664536  0.2791005667507968  0.2911912799766075
  0.9266280282376201  0.9606567646757208  0.6006712777059875
  0.4511007865623323  0.4376299504342397  0.3376648757101427
  0.7088973221566479  0.9843062405467770  0.4345136992033781
  0.1822839426698277  0.3897988498941103  0.5427496199396569
  0.5907679310977314  0.9788622769842305  0.2960408551631080
  0.3327500518729138  0.4521360967994440  0.0550210438597721
  0.1911815128210805  0.9263511383893813  0.2763716461121447
  0.7273491874949605  0.0342298548737143  0.2041792196727031
  0.9343895394340854  0.5544679575162385  0.6930301307805268
  0.0596799273393095  0.7642516797972365  0.0477754264662362
  0.0082262312531954  0.2408556594381469  0.3419566178025835
  0.4042231543067748  0.8319527170144233  0.4833250351261766
  0.8942620333270838  0.1737892690652803  0.3299838366936951
  0.6183608546620999  0.7118521503139259  0.5948099087164022
  0.1023994816323885  0.5416142431493635  0.6997097604839615
  0.4145259173367032  0.6042542048701726  0.3692051097771583
  0.0463681728892355  0.5343078990024148  0.0802018759850780
  0.2346159178045538  0.5269535154051455  0.9879839881856504
  0.4180894753140004  0.1395711050223164  0.1166066632737230
  0.1870428727406376  0.2503572068399216  0.7179974888014204
  0.9410955762906579  0.2451797909757508  0.1078577111490426
  0.4548565815750953  0.3916054224675200  0.2261892022650804
  0.7323137482857188  0.2552405475184133  0.3355982545389171
  0.8288725563452644  0.2136977528346025  0.2917116840153613
  0.5549563642289900  0.4109669546656959  0.1750087136431407
  0.0190127273767428  0.3348853049958904  0.3366242966685873
  0.4270044714823962  0.4441972913976516  0.4902643595343540
  0.8665090247647999  0.0647175281551426  0.6411126115645751
  0.0357476604792971  0.5060839537686577  0.9220065473586285
  0.7290077892863580  0.2971617574108597  0.6917339751006489
  0.7136715228763199  0.2604636163011930  0.3615012725220303
  0.8909569403013358  0.7681993044384732  0.6502543433985897
  0.0819789833634750  0.6342308300176670  0.6834023846559787
  0.7581552959233779  0.1851231723524768  0.5527220972372744
  0.1634445114458543  0.7325756335379837  0.1729068972042509
  0.8925648595693263  0.2483152610000099  0.0782435382022898
  0.6988783259129688  0.9054348991403808  0.6305223899485258
  0.5746296583507601  0.1721586380879546  0.1647560591846125
  0.5217459060197772  0.2768015143689875  0.9727006183577229
  0.6583538924831810  0.3535654692824850  0.0969100221286948
  0.2827443438838847  0.2701185585976610  0.9181280617057910
  0.6454144355165329  0.3477100729130574  0.6904959693586710
  0.6062694631070547  0.4066327483022869  0.6026202087531836
  0.1137876835110831  0.4665338205370249  0.7410808428868428
  0.2044511857007808  0.2895972624466245  0.3006311272963438
  0.8258621669376124  0.0855093527881537  0.1648448999401050
  0.8145245176159637  0.1634511370964816  0.4535829714811919
  0.7642144401845308  0.6925147596068607  0.6234808903117197
  0.4942530230046039  0.5995384281044737  0.4038336073644282
  0.1020682787291053  0.9169887839247736  0.1298581404228184
  0.6437129088251621  0.1945066151457283  0.8644484223266821
  0.3448281414636947  0.2002255490521872  0.8173784352965373
  0.0368530615557051  0.7421347886805841  0.6747007316619276
  0.1472550024067197  0.9968254996253767  0.4830623377601007
  0.2296240113941591  0.5034426554208948  0.0393568914547217
  0.3360552146971572  0.2935691906928114  0.3667927817397068
  0.1449930404624236  0.5459928825511285  0.8716235598608683
  0.6291681816600592  0.7743616223259947  0.8356475292489265
  0.8303129142878048  0.3423824433947134  0.1019454375448688
  0.4920955815339557  0.9592062241351217  0.5610159952352937
  0.6109204493196334  0.2254192509552245  0.6405767132436561
  0.3917617016118484  0.3585794015391642  0.0176148849574319
  0.6268626737984234  0.3980534998958823  0.1102955205813542
  0.0164107770853259  0.1853176696110100  0.1140673400686127
  0.3490432280094996  0.2240408700469451  0.9782035941796910
  0.9975241267722971  0.6500853993829829  0.9683264530971698
  0.6399253476383293  0.3394556965629293  0.8033309801123445
  0.7277617238840377  0.2378925558940658  0.1978934129373648
  0.4632456083394382  0.6084176992195756  0.3982988596751733
  0.7898216510953510  0.1628036331466388  0.7891846272039988
  0.6249015054581697  0.0248299433725746  0.5812273965151419
  0.1817892942003201  0.8825005549650465  0.2307414180135373
  0.6239397685544130  0.2861458953092453  0.2978098395337521
  0.3188337887193401  0.2043412531688760  0.7670853260871329
  0.5310845908407564  0.0786497045160479  0.3821890250655893
  0.8132880347151836  0.9940953816140512  0.3428110570354398
  0.3520403394674444  0.6698905789614530  0.7045242450722279
  0.2136252606275568  0.6649193124861656  0.6545501554599008
  0.6357994777251987  0.4301399197448127  0.1506567635449306
  0.2320101823372174  0.4026960537727707  0.5635969189275070
  0.1892750266431926  0.1469075566016993  0.2931845661263036
  0.5798501887801788  0.3205622226401339  0.6631280786518633
  0.2150834083665911  0.7717576996415688  0.5430856111007910
  0.2275170435484955  0.5614485002963138  0.3061137761775555
  0.7960112106912632  0.9923340430763157  0.2896709874235634
  0.0081076830059610  0.7930238247321162  0.9265448947511448
  0.1369718592001777  0.5342086226439564  0.9827587940375689
  0.5792723153435615  0.5016752732495701  0.3330845941251411
  0.8655870989405394  0.1308659665036904  0.5727553795474690
  0.5808241765615354  0.1480441502078736  0.5301228724764988
  0.3906924302892317  0.0155337559014263  0.3000484644147079
  0.0113105400998650  0.7222293036717951  0.6773298124534469
  0.4051186396767119  0.7814462239404951  0.6704399048423125
  0.0827635836182357  0.4708250102427987  0.6048378287469648
  0.7099208019665956  0.1668712930417927  0.6444742775913105
  0.5911851131880694  0.2124002705205084  0.9982340616380333
  0.9758277521427839  0.3769127139730529  0.8370410778867515
  0.0250216839831656  0.2037414558903890  0.1660899838091493
  0.2952800398616495  0.0818724636238118  0.5260348395406491
  0.7576871961551281  0.1006659437297845  0.1237656743865158
  0.3208723299771211  0.8094260291621792  0.5550533396765742
  0.9770421415570456  0.4082597924170465  0.2958270409403065
  0.1806580444227038  0.3059148121088378  0.2850085139967612
  0.9831874842860382  0.0941069339758754  0.0014711760358766
  0.2704754495808934  0.7821427973700660  0.5483427717967185
  0.5495126520260725  0.6888375913755586  0.7324429924379915
  0.9109179515442983  0.3064237005493693  0.8223351008232000
  0.3646767603328554  0.9254199787499366  0.3284647900962308
  0.3997180934505500  0.7515664870565413  0.6834464007852694
  0.7519956185444151  0.5054969642717402  0.5178934955193008
  0.1334238580529333  0.1316546482919485  0.5173690741899457
  0.3773321289635870  0.0718191019106372  0.6817280929094054
  0.1960798962987126  0.2819990262251362  0.7978750230810002
  0.9965495094228278  0.0584823977786443  0.6136286408564818
  0.3363227435161233  0.4887852215142678  0.3557139325329097
  0.9469610041828627  0.1552209855188738  0.6321837503252388
  0.4786316774665593  0.9729014830155507  0.2718731807499821
  0.7230953480314922  0.0996755091883455  0.9563858538299229
  0.5657036491371500  0.2538386785304610  0.7541009046292475
  0.7152655512552849  0.5173631225197002  0.5893061610432753
  0.8601676003562226  0.0881151250133239  0.0035599682628925
  0.8054315410365197  0.0880704455805987  0.1061705299461882
  0.7662405387213814  0.2635560970144690  0.6088346252112622
  0.5031242432679529  0.8508482331561111  0.7305497698054449
  0.6218336078033643  0.9488701133828841  0.4625706766373631
  0.8095627559641458  0.2972847734851960  0.0688007608256173
  0.3552625318067254  0.3753856226110264  0.3879330291621972
  0.6934096486301682  0.4026821315490978  0.1625454197485820
  0.3965737693930753  0.8544363697385772  0.5731120434936473
  0.9775767068269371  0.0323579200178707  0.9038898562191817
  0.5071889345339735  0.8209496388153601  0.7433603071684326
  0.4399812958313795  0.3761390555367278  0.9484533264668992
  0.3152924067485023  0.4115516563135165  0.1889303657918057
  0.7913511379982855  0.2211860775350589  0.2044543342229266
  0.3738808555751332  0.1217871511511376  0.7075195314476934
  0.4537115123559933  0.5344538327945344  0.5536650932210424
  0.5620228127719102  0.4078163537979981  0.7235380036159513
  0.3211830835546317  0.1732116135535131  0.5273029818332154
  0.9306997331767080  0.2957300151853877  0.3352642239255336
  0.8812385588179872  0.0352750615553615  0.4014738384972839
  0.4823964470519174  0.4140228605699317  0.9889486395186974
  0.1618787082572067  0.8874005358345792  0.1808580990136358
  0.4431234277082851  0.0252914303790899  0.5976170489282275
  0.1444668791588978  0.2282036330534443  0.6266549186346287
  0.6805547434341112  0.2858865384460833  0.0481211947140972
  0.6545384918449365  0.1832611087930707  0.9488486700046821
  0.9205276920555848  0.7570210256428621  0.6604253719631551
  0.4289524659094888  0.8538090273711447  0.4810903931804291
  0.9770094584716577  0.0047532235538743  0.6106639926203399
  0.9671665127116579  0.2756466735321449  0.3783858006266392
  0.2597818542304209  0.0304486188565362  0.5623668882173839
  0.9416181590458652  0.0942656681539978  0.4042052548425983
  0.0726571743435730  0.0589419402039306  0.6192509810552899
  0.6499032394280450  0.2024067462153276  0.6968991457967415
  0.6649092956016538  0.1968919851355887  0.7256644535586063
  0.5570023973143823  0.5881767933936568  0.5798189353464703
  0.9219638499690748  0.8718543606877559  0.8965656529258764
  0.2465247829610315  0.2507451211861038  0.7754615693810408
  0.0310418444340924  0.1569261741209457  0.1204346984902652
  0.9526724391594608  0.6298264895497881  0.7511196100601008
  0.4324199838900514  0.7957719587116763  0.6757740193278143
  0.0826947717525835  0.5824086562161982  0.1105950194442270
  0.1092609348328035  0.2162501270885869  0.4534343156964271
  0.1778209283858622  0.5198857809589272  0.2893559874074468
  0.0429514959097979  0.8242273981180219  0.0337675475494010
  0.5684887468763744  0.0938924920517606  0.6937141764263967
  0.6396907026522574  0.6466512335715340  0.7115346393363678
  0.7933186590189797  0.9289752632081850  0.6409548493103515
  0.5491488766679168  0.2221551707140063  0.9150286693286199
  0.8428696714827779  0.3411935126311129  0.0488639860203785
  0.7243078703302249  0.2510595406827248  0.3905099515963257
  0.3889290579135329  0.0965671250563933  0.1395952738890933
  0.4447214661627315  0.5626685359305102  0.5674125708572223
  0.1703738006565536  0.8761860090411254  0.2595666873876838
  0.5563037973865520  0.7737200167163325  0.6743785696915863
  0.3261942495668541  0.4970360433870584  0.9817771711404653
  0.0073151361325833  0.1457703718447661  0.2377513748190087
  0.7153632708398290  0.8269170320637422  0.5824353825148672
  0.8723141308903960  0.9814320627743296  0.5788027394723845
  0.4128110349439953  0.1302332753203979  0.2714980198603056
  0.5584935746036537  0.1288201171506456  0.6506251663473319
  0.1479707659854280  0.3847444586967943  0.6939251254094363
  0.5683831413074233  0.8697645661399459  0.5202596865545442
  0.0869395164276295  0.4323809660724529  0.7759874657019279
  0.6149172341919181  0.9945010371614650  0.5868402706580462
  0.7537098317655165  0.0565925653946865  0.6016120428795813
  0.2466389729648851  0.3669513502253657  0.8809954361810750
  0.7547906448560605  0.1489620341662697  0.6768944906902103
  0.1659764124088652  0.1060344393687385  0.3192175230761690
  0.2689063057875258  0.6543758773435153  0.6456201948479942
  0.7113381968027470  0.8573146693814059  0.5712499995252714
  0.4341136253867403  0.0219912717837682  0.4655632466464357
  0.2556014068633201  0.1382661065772382  0.6519941623310828
  0.5609390077348407  0.2987983150073047  0.7083062859759605
  0.5930461337696425  0.1234823581298272  0.7793217367384226
  0.7446433050924709  0.2910896905746223  0.7199307469184085
  0.4509870970289288  0.1131005613751991  0.5570090845433479
  0.3240764614941021  0.3144237170968689  0.9944114493057310
  0.5071719334519285  0.5760461316635500  0.3857122690855116
  0.4291962363592193  0.4087567018793368  0.0934929186368412
  0.1991381120553823  0.5112585959060109  0.3124272942017844
  0.5375816942327647  0.9855245150095685  0.6799132738640103
  0.0519277234326615  0.6454063254440974  0.6797172442828960
  0.5399496073886887  0.2026200481353536  0.3856909824841157
  0.7623066708073878  0.5143502459234008  0.6321158457461356
  0.1841310529884966  0.1336437042284587  0.4731843561156350
  0.5777459589552753  0.2700437498492816  0.5730979990090593
  0.9030766534659755  0.3443506834491101  0.3440850763905391
  0.1792385846206331  0.5032858415137155  0.0654135476707034
  0.2631934366632536  0.5757983568628183  0.7988928496910656
  0.8851486581183239  0.6506748374021831  0.6490657750668904
  0.0618650801427362  0.1125772445635635  0.6287280306847393
  0.4232635810692849  0.0030265713564943  0.7036030922472195
  0.1416152774568018  0.5427016910584773  0.9277975931494554
  0.8526448627201308  0.2159480943724874  0.6654758918423037
  0.0356161082054486  0.8004282681628532  0.0118632431760230
  0.5591779083684021  0.1118255960441011  0.2402447357763426
  0.0730262428406135  0.6436019240422828  0.0923248520003298
  0.8183521914118193  0.5030897403885741  0.6397645929836847
  0.4350153286032905  0.2811972238681033  0.1918538171021925
  0.0104256337302268  0.0268391197309706  0.0478181929753717
  0.2290397821453513  0.9497320955161926  0.2380491627833187
  0.2790891329691236  0.5031132476520724  0.0121812891183640
  0.3880552566047490  0.5466702563848415  0.8563669483032346
  0.3660560214905615  0.0976298826974550  0.5412572468691839
  0.0064565904045009  0.5411130145535634  0.6536991036687773
  0.7566546646983155  0.3118124378819465  0.1490746780081311
  0.7973636494556456  0.1800952789877299  0.0418837699913701
  0.7447072479907468  0.2301061120458467  0.4483779714330146
  0.0603627913514750  0.5301502393239109  0.1087937100844715
  0.5297293042217738  0.8748307000305412  0.7748566029783812
  0.2887521297261801  0.6279237332536749  0.6494774236741094
  0.1499184846591778  0.8605712527759874  0.5561170857046930
  0.9140438939359475  0.8464100182526680  0.8807918758978528
  0.7469914340806122  0.0942870834255499  0.9801334785971035
  0.5996579369008694  0.2638599645127876  0.1863409471561260
  0.6703140820260045  0.1421764276352780  0.3642826370277969
  0.8122610172111983  0.4814274089727632  0.5293434608408588
  0.5894775635403909  0.2903222773647307  0.6545752761231363
  0.8218326542003263  0.3379479053459312  0.1561107749158611
  0.0441328762775747  0.4243552605445958  0.5771445375014520
  0.1416040729928373  0.8869265940780393  0.1575561216375240
  0.6523789715010173  0.1658676356651838  0.2273425350187878
  0.5624929984836678  0.0600374010340742  0.7375086241092651
  0.4491116245088470  0.6298157475143412  0.4179914968136854
  0.9763608151146500  0.2491697372076755  0.3998514852335872
  0.2174255686542235  0.2246794412256338  0.5129665542785122
  0.2342262160120105  0.1376844713508596  0.5064729200911268
  0.2820535778637114  0.9262038731371537  0.0713205969648079
  0.1353103168425804  0.0519303940470468  0.4874493542279307
  0.1380867734348458  0.4212773393549749  0.5583570160905763
  0.3466708947896244  0.8193891059597472  0.5739528596680676
  0.7978329285380542  0.2855649086108345  0.8039365053627272
  0.4984318555099066  0.9581581944735352  0.3257624956722365
  0.3512617054160397  0.1602696759314403  0.2979567958717516
  0.1217211440115677  0.3224250463998797  0.5030808999296484
  0.4808537395274922  0.3295600723061252  0.0428947640009100
  0.3950881308810179  0.1000150639175122  0.2222608197558440
  0.4054330467293465  0.2817484084523184  0.1423425246349619
  0.3842705428641261  0.9779187224766760  0.3403477112396395
  0.0905658806718324  0.5431472015298895  0.9518432944662459
  0.5775628393392088  0.3694802583420895  0.2799434251406943
  0.5741890520021495  0.5605686601179979  0.7072070531174104
  0.6782432414653525  0.8947721978984401  0.5444751493190931
  0.0233448075976009  0.4314648256112421  0.2768897620817362
  0.4830642226803407  0.8905714563000208  0.4723522707917118
  0.5927942605158212  0.2340398574945744  0.6146307670520251
  0.7395018354940812  0.2827896639932829  0.6077461364292290
  0.9870865209411593  0.1723164663509693  0.0330823901630192
  0.2449198537232215  0.6196221414571003  0.5816249571209420
  0.5051700229205206  0.3626225602051727  0.7688672486987159
  0.2972989775464989  0.2855566785520445  0.5146867539913412
  0.2428424916459090  0.2845047495403403  0.5326258323305888
  0.4166891360312395  0.1676586069960103  0.9702750795265497
  0.4291609010641113  0.3452780064094648  0.0583820933217242
  0.7198590997039553  0.9893689566382357  0.3715198387243057
  0.0135131832099703  0.8932956723124665  0.9948539536364280
  0.0917504156112987  0.7474347319931578  0.6621851948957118
  0.4033469991592942  0.9755235612003350  0.4559159843684021
  0.6478320151411984  0.2409909942304536  0.1658639887673029
  0.7345790543125775  0.1752977278104562  0.9821886090346081
  0.3895199900555073  0.0519663069866449  0.5664589453149135
  0.9140051674355443  0.1745416610430613  0.2198506453434509
  0.0622583702589595  0.5486224634556918  0.8946169829796657
  0.2431802222945153  0.1144302865762541  0.6335839501671151
  0.4382332923445533  0.3991286200625530  0.1762604267287850
  0.0456683587121107  0.8855713116323164  0.6421127886641652
  0.7854115312440655  0.9862893763338775  0.4949457009428971
  0.9469363077674859  0.0146240230623132  0.6022203005288735
  0.1874129285429105  0.9966553761084029  0.3433196496901395
  0.9809213554465649  0.7341682409167276  0.6739627022421282
  0.1427647716788480  0.8275943436190002  0.1514539605093655
  0.4215249914122755  0.1067431940693384  0.2898272494923001
  0.9183487463153677  0.9753364116965452  0.6968637116445792
  0.0363742794116136  0.8777042517742355  0.0520279108803289
  0.8375646192522272  0.1638635733759726  0.8765685903611602
  0.4004551343961190  0.4370879572569983  0.3547930201956512
  0.5420504342633055  0.9789718538805775  0.2524755877250728
  0.4595896160973340  0.9639316468948272  0.7267632420874091
  0.7104188037412982  0.5703411714703321  0.5806693962248373
  0.8424915937163207  0.4697821148693551  0.5350806717311249
  0.0853217088924449  0.9446460691727061  0.1328450356081038
  0.8605768324193487  0.3723325537268777  0.1409053524354685
  0.8668664889070239  0.0804851052335533  0.6929789801813256
  0.1374742015961964  0.4417576128111762  0.6943754604793385
  0.9548085900213836  0.5621801314356371  0.6658184082377155
  0.0587172291293472  0.1122923854660428  0.5595670679945903
  0.2230293250791700  0.5948740637461278  0.6554999973282796
  0.0346506963542491  0.0458348009460395  0.5442479158798533
  0.1991082181628521  0.0889791379860005  0.6095031651231692
  0.9260617836354506  0.2531520985313835  0.1355122032461836
  0.3733915496208925  0.4288229907536570  0.4824650807075917
  0.9737339391542651  0.6168672501119968  0.6701015408687138
  0.4661074801857303  0.1204324349098996  0.7834723171024541
  0.5854146528374450  0.4248489164833340  0.1744220479001685
  0.6081199083379798  0.6172702285122488  0.4922618255901774
  0.8822214554285780  0.1445231810786192  0.4098171464212677
  0.5483440987954999  0.5085625680454092  0.5494979970744989
  0.2479060709430313  0.1300462863106749  0.3101722222491022
  0.9223033465411639  0.8521243201642085  0.7470272483447548
  0.0269116153570200  0.7453268207033450  0.0026471356727263
  0.2271789543873408  0.4691267359405695  0.3389866124155200
  0.5530637780858146  0.8965651693235224  0.6032016943900251
  0.7722475591341073  0.1112871661278114  0.6270749293444620
  0.8427396842479086  0.0662246302938908  0.4916878546229269
  0.0774909820378908  0.4819994572161908  0.8190023414239899
  0.5908761026527729  0.4224840424115894  0.2311800081198117
  0.1367012100467143  0.5070177164389946  0.2532582218965601
  0.1101146991977820  0.3494170880403353  0.5170847168938717
  0.3125285818606250  0.2670825717864150  0.9668564682910229
  0.7456422441861302  0.8169247013417272  0.5910747972792720
  0.3580259772552387  0.3923562703938308  0.2761239803756106
  0.6544407321355151  0.1196248327483619  0.5720510481873142
  0.1316293641278022  0.0216804346205449  0.4988385082138247
  0.4757204340876219  0.1517856961281084  0.8730165817160030
  0.5756930103943565  0.7337498785416063  0.7145081008759498
  0.0219088090750149  0.8071768963734819  0.9824125283236199
  0.5440838842189848  0.3765969545521832  0.9121325371975737
  0.9999932081479060  0.8404044573720783  0.8874873869542119
  0.2055540453189971  0.7478120668495188  0.2084166277952433
  0.2788507577678446  0.1826974163625493  0.6936160345208859
  0.6684719387815771  0.6076289963129231  0.5955006582445924
  0.5328159139565848  0.1977026804744924  0.5647519128789755
  0.4399410657096807  0.9678096346185212  0.6265693782872073
  0.4949668731201252  0.3465143952912023  0.8757567999129600
  0.9379079445425358  0.7063067352639597  0.7898288251749078
  0.2482489592338687  0.7920321581780548  0.2304521639288057
  0.5074727063263181  0.1226281034792013  0.3091448860663021
  0.4955314608092437  0.1714390356945828  0.1047021607596478
  0.1658979510076029  0.8452034798729198  0.2677516375639684
  0.0868727395587987  0.3993413158225968  0.5522380480752107
  0.4587168817061281  0.8456700320814684  0.4961614810360752
  0.8012102316308894  0.8275221390604294  0.6005108746672353
  0.8792446850253735  0.2688469178484352  0.1607491200922086
  0.7902660428266942  0.8552186255143056  0.6842308260179026
