Generated using phonoLAMMPS
1.0
       12.5919625748         0.0000000000         0.0000000000
        0.2278136617        12.4573319289         0.0000000000
        0.2682792241         0.5484413307        12.8874830612
C 
216
Direct
0.248684059705121   0.707094236317996   0.490818029398133
0.777450349100643   0.983973890909384   0.304288211389110
0.577352580200074   0.705558080545186   0.484130846214982
0.241264551152463   0.017418075698087   0.765162253418458
0.975641794846251   0.636130050673236   0.685223081812356
0.949782445606306   0.455417473926930   0.156990048436317
0.717449412369721   0.189564904984764   0.785589401120601
0.871845191920638   0.641173076191519   0.227914726719843
0.074871074013712   0.035407773287664   0.089002991860631
0.946990498127183   0.688914813904661   0.428702158812813
0.711572910406493   0.551125522193929   0.325683287424564
0.454783773797450   0.109668923198766   0.549924476047388
0.915700596078919   0.246417293398209   0.194180666474295
0.388533476220219   0.165785682989112   0.973290629398666
0.126649024042928   0.546370629725982   0.495708736893203
0.705632004033963   0.883718805621645   0.470681533484412
0.094018622867874   0.334953905500085   0.214960528510060
0.969625737140628   0.575915722722910   0.410489247192649
0.704285384737446   0.405491923609062   0.576038357121127
0.016980919301970   0.507281750303408   0.485073699054617
0.102037576339747   0.678832160178076   0.016258834173047
0.289900175385387   0.638551265561619   0.670972975012767
0.324893695271716   0.380874322535014   0.550577051880859
0.208324358568315   0.633669101587456   0.017577228224027
0.934587194872937   0.229298412241622   0.477084682152630
0.585319798496389   0.980905534758247   0.706230987600811
0.199884481631341   0.489915989694978   0.341606856753461
0.600584599054475   0.596127721236861   0.482809718581359
0.101987213134771   0.140272237936089   0.932986397956935
0.405027293914863   0.811369364073232   0.529523029251964
0.826717218016149   0.025225793583308   0.483551981438627
0.031312165150826   0.516953033883089   0.093523759781204
0.191587256373002   0.847198237201499   0.011734435830631
0.043573229833436   0.845896856043557   0.180673813415914
0.920698056394889   0.183084701649287   0.864936655750846
0.933660884669185   0.692837999804152   0.128654095770785
0.934763981753703   0.999622807377767   0.516356023778965
0.754972727127094   0.681235215282991   0.485934222397098
0.367750136239498   0.313399205609301   0.111474256313492
0.773455051184013   0.375288317461350   0.214806258666169
0.762676315993119   0.187349414801985   0.305759219336121
0.256562016532713   0.912397110950402   0.443871430351068
0.984684126237309   0.225964232640301   0.774173236358147
0.143623464353844   0.195667677167658   0.849998626417593
0.318288516332718   0.760853135634220   0.167112588220113
0.017766747902888   0.706857850562318   0.761707507461581
0.839575876077760   0.441155846172412   0.131200472735485
0.497711417658971   0.823714760741554   0.686033108095256
0.467169638177800   0.436547005930150   0.223294175156964
0.418587503810289   0.030687141617443   0.130025154798843
0.121385576123799   0.207644707609555   0.379768942217665
0.195179014774802   0.461824464982448   0.449978407921960
0.026691715105916   0.958698881158586   0.756005965147146
0.131699225513804   0.715180204026702   0.738656565040219
0.753926606833125   0.469181748749202   0.490126027712649
0.349417517315130   0.574806331638676   0.215456504331689
0.177335118794162   0.269130538544403   0.586195662421035
0.848069124804150   0.836935584114357   0.962048255747274
0.058310017454147   0.738060804771593   0.441555764843825
0.400110720112311   0.617421649714566   0.036496190743098
0.015533768574163   0.629327696962535   0.074901023296485
0.817781773487440   0.269395259889718   0.246096929473262
0.184192117030757   0.945213619000283   0.255157291333333
0.417134752702089   0.425107933732852   0.115700313468436
0.087409791501916   0.914063233973926   0.833557146029702
0.605161277522187   0.354359638549626   0.558081809756443
0.224484034296385   0.820733408587099   0.126868819321479
0.674281693009938   0.766180280719478   0.492613030011530
0.514627668167989   0.140148964885336   0.804303815630764
0.720895353190428   0.229614136133506   0.663609214412707
0.152589248880410   0.069025032854201   0.011178999445884
0.472440810142436   0.910143337978818   0.534956830380350
0.290550736207446   0.668957771322507   0.228866004788786
0.662204667193912   0.675514950852839   0.178252675025134
0.367153515115036   0.476608163463178   0.274581745186054
0.102848106076038   0.788326537784741   0.979481706401143
0.421755616805283   0.361044968204499   0.496797587208921
0.045325819014899   0.828695660536917   0.894645536700044
0.229344947026145   0.533838358564207   0.062717339232315
0.750996476118400   0.418696190609435   0.319114746492405
0.413496190649335   0.261888995206684   0.020891821135393
0.639142596780776   0.231206806120711   0.127121294532080
0.260156203588627   0.037372632546667   0.011151942727490
0.592599757989233   0.249052080453478   0.016701998363671
0.416812467673122   0.004168211451651   0.520927706218447
0.681529403734689   0.433431922726706   0.072122883156166
0.994840439695350   0.399486932996728   0.474137104272635
0.286321287592263   0.280377650833906   0.401927071826365
0.590063899669505   0.616877964231722   0.873856861461618
0.913284140613245   0.145748252091528   0.141444565346359
0.467508764400063   0.716399591700723   0.497205147007453
0.133131911025045   0.579821009014789   0.299508811896789
0.139082662210764   0.478657277958333   0.096311429012612
0.637075886430974   0.952032657663482   0.799634804644348
0.855897215124182   0.889146794211896   0.132680465369379
0.343716350482629   0.532286048824290   0.107005992050677
0.310969772881513   0.004880171803691   0.482509999079757
0.807812496403573   0.910006084028495   0.029288737079811
0.254431117846356   0.423526520237465   0.260982895886485
0.576602394978495   0.689036629245147   0.126794963162330
0.086615344516704   0.956738917704774   0.177572927865941
0.330543393747517   0.257630763469082   0.209598671608146
0.175726020099273   0.673889645326969   0.246519066206569
0.145488607482854   0.272709310943826   0.291678206066250
0.811687542961435   0.406096400574409   0.413672840125820
0.275354269444204   0.901133129747291   0.188299248850694
0.396997294446189   0.807856422212858   0.646968012326810
0.326432465021281   0.050676653374174   0.836046414092958
0.424094678271826   0.612942795693844   0.514838041570407
0.468967453627782   0.110529980457477   0.190349795871746
0.464623524562915   0.213704261733486   0.344415849776232
0.623019755803934   0.231094376134247   0.578917491846177
0.187346725730458   0.421607255232449   0.686410135166944
0.891997918257678   0.721789620977790   0.318869492241828
0.906116241500809   0.342745020226693   0.447863977984741
0.347108492990027   0.090582806470133   0.051288116295569
0.021666501212920   0.557823417758838   0.312561941759396
0.538553391544170   0.148649630683197   0.609301197348681
0.699842491940926   0.094796413708718   0.007652903831698
0.296398669590072   0.811439904607497   0.483834556397811
0.809328610077280   0.103397385181046   0.156896585655859
0.070364937193648   0.853118322296561   0.420560726579557
0.269652726770049   0.116415508552581   0.497308815038957
0.008475686759861   0.522279375073985   0.701989754480237
0.075232496260423   0.133027574236261   0.540370930221929
0.178350734947818   0.618564715268052   0.702571726147193
0.604356601392248   0.477360448622934   0.008784771507545
0.210608294060851   0.800383895792996   0.742436459048123
0.040190095096781   0.190920406962628   0.452982779669036
0.310211575401748   0.980460528822782   0.927829688948325
0.677740335874778   0.966293992253929   0.885762560912114
0.310294042982552   0.679019248234908   0.984336424712150
0.409985063380524   0.130063998584988   0.862660873904172
0.314172557460035   0.627535570201567   0.549456592600220
0.477266167827885   0.712566258623188   0.093820600520534
0.563022385305759   0.897937426186327   0.619436048302878
0.504791566801890   0.320551168884419   0.991574610753367
0.949394119861691   0.813522629359270   0.128560103794676
0.495792379087997   0.435029342910065   0.018916821138952
0.298308225824011   0.423268847413958   0.647556288560734
0.517079710469720   0.414568725453871   0.518478009885184
0.863322849547307   0.690420885611578   0.517784330602927
0.768808878606509   0.958672934298417   0.415234471664300
0.991008378655117   0.915893739878516   0.467042792717320
0.169953986734487   0.062864968696812   0.683232074733771
0.415736732669901   0.621078723066166   0.804984522636030
0.711139559014539   0.575246077022389   0.445279438409261
0.572525283001089   0.186013615460500   0.320407779423728
0.989576062164730   0.140044478295494   0.953015336018326
0.782113892714623   0.087854236813301   0.264267867032438
0.402528548405147   0.263753240048154   0.432310747066947
0.799042130110292   0.690977842579379   0.701165772795871
0.817887645175609   0.646170731908755   0.906566886995553
0.659609355205358   0.358533039787898   0.162031781542110
0.928335555253819   0.448568927165635   0.695089611172369
0.986984853898071   0.077121253747930   0.592514322132423
0.614245618927500   0.171045764824985   0.843673838279140
0.233943095395050   0.346052671482375   0.493972958084124
0.268225723936116   0.869983951802268   0.918791694527935
0.936044136921635   0.538042321731123   0.247971002159551
0.127259524102297   0.517155172535993   0.707911029382219
0.765753805033600   0.562955377804085   0.966108055457702
0.780401790600090   0.482094648918272   0.049791191418276
0.799685074732788   0.151572137928214   0.616218285780663
0.819587735238812   0.900061789779959   0.240779133153023
0.170255014059937   0.406403450383171   0.173738002941865
0.669429706304245   0.189977905807323   0.376749447269334
0.765536996099683   0.340748536764645   0.646357145956502
0.871923438459739   0.355940832239720   0.680801545835983
0.258022046379511   0.307155519253204   0.290024153843735
0.910939470428897   0.178357148493785   0.596687596288796
0.205445068605669   0.900270753815432   0.808598238345982
0.577582521652052   0.419563860332023   0.238690246605342
0.334434363008726   0.765040232941068   0.910385033624055
0.363809055317927   0.566550820957263   0.733317925239625
0.928572892453714   0.253306609877511   0.682617465196564
0.760230916706230   0.102187090923334   0.529957523712474
0.181714713452433   0.139980389982092   0.584212714324914
0.375149969228961   0.174447139823350   0.508473722827135
0.728169333679267   0.987803052168589   0.979521178809959
0.626576985418538   0.164944665528301   0.952632437357931
0.979748882311874   0.101713730442264   0.061931981148667
0.393731745471924   0.736357274787214   0.811478265409741
0.508917642163194   0.773803233676268   0.782703538937630
0.972049622843201   0.758873053811560   0.849071633928581
0.680870054079473   0.173062925482379   0.486183275682737
0.448797370236533   0.533442473902719   0.969228936378282
0.784277501626158   0.663452004332496   0.803299329344456
0.384010538491405   0.919606662263618   0.148937287512623
0.987609031355715   0.339864303682155   0.184217422341189
0.662762662185859   0.865855390768766   0.566844395861405
0.146296207645252   0.314474205931721   0.683053742782598
0.405643016279256   0.183346756729186   0.254723952257465
0.316556328266871   0.754954837090669   0.712867559660215
0.511896259539130   0.531092722918825   0.507459868536273
0.726969600686199   0.150815182888542   0.095017741958217
0.093961265656961   0.252848113645959   0.772060249681797
0.142569387811408   0.667530502916464   0.477109834465029
0.642033957105778   0.457255463512231   0.318529357556165
0.884575463322226   0.742435147520771   0.919944146091166
0.702153084117854   0.724634932860263   0.747690046554581
0.135251584324775   0.773884868088527   0.194128027025864
0.227878473257087   0.181309167939736   0.410810073220537
0.880066467033452   0.673716674295180   0.626719127516583
0.370067140567933   0.464881000833340   0.709096440057635
0.744064208608461   0.623123249439805   0.230907231138033
0.486729054037463   0.574639708152066   0.874248582636034
0.416021099810129   0.803307203633692   0.132132316443289
0.056883609220229   0.031615649305911   0.682309781377996
0.811582548591475   0.178971409435342   0.842871043819518
0.168798144024011   0.906148102284231   0.364776142686334
0.654162808393736   0.555125946429637   0.942806119883942
0.569500404795068   0.163718055806311   0.208714733297934
0.839496613798789   0.815421401285448   0.312474521275920
0.603865564113635   0.713874243756110   0.806060147716130
0.539233308949350   0.089817036744190   0.706673419220152
