Generated using phonoLAMMPS
1.0
       11.5363116397         0.0000000000         0.0000000000
       -0.1095118357        11.7760171626         0.0000000000
       -0.2236768705         0.2972758369        12.0234498547
C 
216
Direct
0.760970836280770   0.517962713923895   0.423097963685642
0.004890857928504   0.259633871646603   0.739610470161676
0.144052536546023   0.877657777568620   0.106964120576198
0.210753523496126   0.190968644160880   0.204314953668619
0.488399319628249   0.345546902216595   0.924312691806647
0.787664367656263   0.302606323241675   0.273524699628072
0.857070969440792   0.555121146617757   0.787157047633909
0.877734885709620   0.766148910515205   0.667880924114385
0.260258907174892   0.090344068599892   0.683332724741089
0.658499387358575   0.707070489204794   0.440920242032504
0.877696379707342   0.074309568031336   0.308279456794265
0.772724517782571   0.091519083435845   0.951580847282992
0.943608735454779   0.413465876989055   0.314713053718176
0.102417003689314   0.993091041871633   0.085304433618864
0.113503930804298   0.040210881606960   0.874216454264263
0.766675504616140   0.824737352236716   0.681034279591488
0.788355384856780   0.339633243591649   0.689311336609454
0.153277386021079   0.632611874951299   0.557598979579000
0.141309714398543   0.032417478762394   0.409437574863394
0.551828855431291   0.740923511872228   0.076678711113816
0.512284539973377   0.859489051008028   0.442198012571381
0.576589629547112   0.265705360453628   0.934056625653903
0.401195010337199   0.347341292196195   0.012078115246036
0.090194910348832   0.188403661136138   0.971339668825142
0.002134086643193   0.842504458339354   0.529905964344288
0.124483024239770   0.530894859789520   0.494732202644381
0.577620286211081   0.207180669690053   0.266203633622578
0.116804259235035   0.257670778574165   0.244187855855058
0.469438025506249   0.065940722611406   0.385711933433744
0.464961373386633   0.091003292978895   0.513433757748560
0.022095426049207   0.914596215165693   0.249006021248525
0.846385850873626   0.597017570775199   0.578846541891587
0.580668578836500   0.546682573870215   0.042103783948674
0.281517943194650   0.628406466378459   0.374401693723562
0.320973622270284   0.232994813643998   0.562537666953888
0.255163684191680   0.406077352566584   0.706289717395913
0.138249780394927   0.359214164028156   0.306897123919686
0.760697927974707   0.651940318795114   0.397954734940705
0.230670857770298   0.990310579909605   0.865697385175289
0.370343511395134   0.497638436299254   0.857345339696366
0.377367046879358   0.337608786998600   0.565557435858717
0.438539583139625   0.792944058070471   0.537662511851620
0.500545350820171   0.674464434875772   0.890615100441751
0.757054523104716   0.099970112656237   0.264520717301179
0.073192282242526   0.125272326937564   0.565691883127973
0.012649391667365   0.044430099397585   0.804512272009750
0.511511395273355   0.789270824026522   0.848339821204710
0.209699478812469   0.842128286685915   0.315046940418625
0.141003154627487   0.075101161670412   0.995964032346254
0.962849743315124   0.189564985127711   0.935197238386999
0.831841770483592   0.624591786037860   0.868856112533823
0.499343093765179   0.021953231439781   0.697594506681566
0.920755222434256   0.410380245339986   0.518915056443729
0.808576527580539   0.837348639421002   0.124864810694340
0.292759134846277   0.897400820772212   0.679179091582260
0.596570920936196   0.193269576626395   0.037398292289981
0.339353337516537   0.545468126310824   0.575973865545164
0.913847255134196   0.642616768716621   0.278294238378847
0.096108735055715   0.696712196954645   0.638365812870229
0.377937242126490   0.157987065609004   0.350651284028264
0.190172509107025   0.377556311002766   0.957084991334804
0.748465326844894   0.228272178197535   0.426633234386953
0.321121496185921   0.504269541707032   0.078197718738143
0.094000215772839   0.437129133559247   0.988819992903496
0.939420000161681   0.882977958730664   0.342076250968206
0.058164939208060   0.448116368961562   0.316214729212165
0.329450064865608   0.821508601164456   0.915909063794634
0.771323945176348   0.073560818577716   0.139632973089144
0.174362746731615   0.912943964267037   0.636414685674332
0.005107408398958   0.804645467895213   0.852516817042587
0.578172647548922   0.923154846038845   0.526123114950009
0.479050268563293   0.423064015007509   0.834422941937768
0.899696396296191   0.094543774695422   0.990449508578013
0.792063551139396   0.391848985011151   0.568852480997905
0.347419822429970   0.016769350736823   0.186516151113100
0.304776102752671   0.118889296674158   0.247669311718879
0.499606305982920   0.124668403586207   0.973009622144917
0.215008630537685   0.869034943890976   0.888086258855731
0.563837660611347   0.089996197509017   0.311430940807415
0.709654677658412   0.395559066117007   0.263036846181358
0.077297361864547   0.828714061901115   0.635300891367221
0.376321560419870   0.340381056236032   0.223399421335801
0.051360946530206   0.543262323114898   0.781944747440757
0.168006723660870   0.411037615322363   0.508393682667587
0.016301529311689   0.232749253013298   0.607866666249955
0.667554231034424   0.350300558049959   0.757366857270201
0.597728199710241   0.816371922357712   0.251073925244505
0.216529226289099   0.295771883632157   0.722208654332735
0.527186062171426   0.650285613806168   0.005862000910866
0.309498692377788   0.435567829511353   0.971827906400126
0.905342545686261   0.771140608062082   0.542905593559601
0.781595164843789   0.486105863965390   0.032232801706950
0.458702106306159   0.261527585560457   0.308012366230508
0.076823760527020   0.557742997860564   0.379679579918197
0.798322078343558   0.280624675922481   0.038203374368501
0.806141941574313   0.217779921963369   0.662220257598327
0.418269921796635   0.425971067052864   0.129923017010743
0.911919262211346   0.308264564430393   0.268001696596289
0.965294014542349   0.639735234657230   0.172127299985453
0.124897621948546   0.920840397300811   0.356155678424198
0.358061680860823   0.529472218061962   0.340489304606672
0.903220032355763   0.297893963550656   0.972048907862444
0.631551935782414   0.734953408982162   0.170347925491565
0.964177406117985   0.416565421504963   0.947931220883724
0.695239120215584   0.568598467004075   0.006347384138685
0.608419419555917   0.663271341618116   0.540448054304472
0.906299528971152   0.500200873854106   0.017872608826659
0.463092559959583   0.364199210896722   0.384294341128209
0.733672682987782   0.774266973992940   0.889540766522942
0.609870540906548   0.135574020963016   0.798790055771363
0.698371270917435   0.328684953254532   0.482997006697700
0.670085646123647   0.432281101316152   0.378702598258028
0.706447224102070   0.802832022743378   0.777159906093620
0.307746970521870   0.698357689694408   0.888394473223885
0.853227967776038   0.961751864941326   0.362218246229685
0.616402137905333   0.848348571565419   0.841984548722734
0.334006681140310   0.983806922541029   0.068965563047270
0.712544483529738   0.209394964343117   0.307968508601759
0.924868502606279   0.109762839607068   0.416190290679668
0.948879855534668   0.461823544474767   0.812587718838519
0.338311786402623   0.406881387553539   0.337345571280815
0.155287821243016   0.738019696294148   0.254076015363082
0.154407726452746   0.272047510389223   0.906183635451429
0.552366055962404   0.518207052529485   0.664209333969004
0.545083383413932   0.462285756976441   0.119334461185375
0.356545916588973   0.239263003352418   0.052840541331958
0.888644900546447   0.477100060033644   0.408994037437411
0.329684357320372   0.833615963590009   0.312923299507858
0.467517094896740   0.826036905065424   0.095694050701283
0.943935261483766   0.963639938415764   0.742410984191086
0.265001898323334   0.618583781823408   0.507567047207706
0.479233559311333   0.681857047694443   0.342237448463386
0.765225331356006   0.940525149348065   0.628571435098198
0.269735986244691   0.208172298486037   0.664231652022744
0.637160752137976   0.375964575164399   0.151085136292218
0.905873276798797   0.811555640812338   0.054365385217994
0.107847505448494   0.528349442932472   0.063842162131191
0.017713825578519   0.626833156325356   0.703606607274455
0.480082945328525   0.348439049665742   0.502681390369620
0.029748881876637   0.856503487885792   0.420895718047328
0.386890009086595   0.885900844718462   0.599132610611261
0.039337698202834   0.089851570268391   0.458653780457555
0.492955829403373   0.688578472640825   0.572958839039620
0.929976471729373   0.846804918566535   0.941433210666676
0.221471701421021   0.695305648373131   0.150818048223585
0.997068347881145   0.231223776928759   0.228930898640878
0.826103816353570   0.134296783091815   0.751732329674653
0.915600451652809   0.359648522261981   0.745039831184418
0.738707183363823   0.148707494998888   0.840028504468862
0.890762616916910   0.207098542155094   0.579938837377384
0.545111974000984   0.460208911059933   0.369582459585255
0.168713827790070   0.563948612029446   0.816564569956779
0.959520830463739   0.111249881369198   0.212284114030905
0.292253245888241   0.426903859804152   0.591612564277417
0.727930162254030   0.946266019624637   0.114480924080366
0.225473167351209   0.373625912804339   0.391388010668209
0.895984567279123   0.078315020206695   0.110206168446906
0.374199779572894   0.140787728986753   0.989391301478241
0.307145274191225   0.254682821862333   0.159191642426304
0.572404966064905   0.771629980592698   0.368674448978321
0.500359274992787   0.879988059649478   0.195898217937781
0.260889777754202   0.490427724521568   0.789466380673556
0.730927123019440   0.964349075727139   0.973807479674655
0.551098576752388   0.172180606896768   0.574943493218609
0.221049671193850   0.575048544021597   0.107231440691376
0.807721288692752   0.868092313672066   0.926932771765453
0.877225085193574   0.663929539628149   0.479627500400457
0.364383457866218   0.720142949934854   0.334476737425570
0.279793243139992   0.052631690428794   0.980126572856575
0.585068323213811   0.252964130975702   0.145962122453064
0.620552207124584   0.951292119641491   0.906494369894966
0.642094532038449   0.930040441360786   0.210783026554506
0.393375970427426   0.620517883870932   0.867219053267317
0.755756791720147   0.736703125183851   0.181610737882059
0.665361694981986   0.012576613986397   0.305301250835681
0.476594531049301   0.559718564634292   0.355182001140101
0.240916226554845   0.803854598326378   0.093348837776477
0.699877524183000   0.950992718884917   0.521032326470855
0.448418422459230   0.579465309314079   0.618023430030383
0.405153576821780   0.924157383489537   0.259300223952054
0.335493845189940   0.142572919982260   0.480037559914123
0.986238349793844   0.749268842789873   0.124517782175036
0.038310476886608   0.351712711145669   0.540824639232651
0.180556929793256   0.042546463567238   0.601089818424691
0.477617388270742   0.980570932645643   0.585584653746258
0.557460483605765   0.126153924032375   0.689178803100415
0.441332063775039   0.988258872032086   0.804097851850793
0.951710101065689   0.155850654449594   0.804937161709607
0.425013109145185   0.868066917827071   0.848290866869049
0.989749336960869   0.559905172692172   0.089359051934667
0.015890761139130   0.012533094135265   0.169518043875175
0.802102462359668   0.684287775325640   0.281936313700755
0.237488384165205   0.057250211281061   0.485996180847864
0.352163683262332   0.854714359604547   0.045876356176125
0.437123724915124   0.944547794995157   0.377359816427929
0.191846460164522   0.674817652485715   0.860969715439321
0.734011049605680   0.652307285953694   0.925343136491802
0.121293227315789   0.279403020256120   0.791627771149172
0.853165349214804   0.181963403592563   0.472018774859489
0.649910998087446   0.253007609240880   0.837183048263410
0.567882797556618   0.429298375700142   0.749492667154709
0.975344607719846   0.841983496872158   0.729659673888905
0.736802101851985   0.960566762240647   0.407105142796151
0.727518776496008   0.162398384348569   0.045764562887490
0.753164908225337   0.514921834731521   0.555737353317778
0.311666495970718   0.004887648161970   0.761895896826907
0.642281437432115   0.558695802420086   0.593958237136773
0.128233337370549   0.782245023621234   0.869670670761150
0.582678928224934   0.286796829665220   0.531794656880493
0.738138504248038   0.380163302777179   0.069442616394630
0.837498977989135   0.011536262529448   0.702017246464460
0.949031518725311   0.594740990998206   0.388404836085751
0.160657070713334   0.643178224657794   0.332032394050319
0.067762663073958   0.815809381935737   0.189085320558916
0.540097397907551   0.051515991864424   0.878658024749054
0.890251438011707   0.632667426566358   0.687128959644681
