Generated using phonoLAMMPS
1.0
       12.7509201347         0.0000000000         0.0000000000
       -0.0257699564        13.2398948546         0.0000000000
        0.0620325512         0.8068248449        12.9293370504
C 
216
Direct
0.105149018174526   0.101996869533728   0.734036421434801
0.007818536068330   0.671519083203819   0.067564559852895
0.029689967531227   0.170524231122879   0.686931238266793
0.193904462375781   0.735024576021079   0.103682302872484
0.978675514299080   0.718257866526889   0.505243661336673
0.764068047203190   0.962182901256439   0.885516925993185
0.381414437184876   0.018159047260933   0.415367264312586
0.364124738911059   0.573273807359883   0.052799313169648
0.319534074617553   0.300548439400510   0.854303964460288
0.625667797219838   0.077211167507697   0.663546225653896
0.840499836530529   0.817414132364239   0.999166349337326
0.799795867290328   0.738022880574098   0.777477125146878
0.623880399964311   0.350405162154738   0.083643701589985
0.734767544958477   0.289612411870371   0.948497115683174
0.533270659727448   0.509420032469058   0.022873147002603
0.991896965885639   0.444449984250066   0.634021366141615
0.099736220498468   0.010052240762018   0.916149385991414
0.762361608470207   0.991517262780774   0.313712444357270
0.451566473457233   0.444961875433873   0.242458504081075
0.908169821118792   0.500216409923651   0.044597508731676
0.364755988243063   0.853507905078870   0.514294126920783
0.474312313455835   0.108907096088035   0.139179401309236
0.203512846573104   0.222187712900811   0.057316756544534
0.899590295975767   0.098799301626378   0.529775660058927
0.820879338424755   0.527324008411534   0.986223056162459
0.893652616281016   0.350441739819007   0.185601426480390
0.415527761931195   0.919707759364586   0.251826862221004
0.754947498139515   0.839911331942235   0.503658855408873
0.767197626871382   0.793545098854772   0.606842280421274
0.308170212843491   0.737701355905052   0.117344358344581
0.924393601922368   0.357269968228292   0.288915094056152
0.256422605093268   0.995701871813050   0.029895845200202
0.587752801106341   0.535899745895640   0.697665280504149
0.013124637076839   0.864857612363864   0.373147716019263
0.088040419523407   0.516140642027523   0.984738378338285
0.914358816123530   0.322107056917428   0.474375878368045
0.419486786255082   0.092368270802672   0.478822112523431
0.368839685378932   0.664217841663558   0.522340181377750
0.740159731810250   0.271383681044437   0.346018791416811
0.176941856723797   0.423175939282229   0.866870068922308
0.313111807949858   0.757514246994323   0.513552999207688
0.318398711940427   0.904116143608248   0.209061636297615
0.673858088567735   0.280681927020856   0.151185811181210
0.999531875810313   0.200768145847096   0.021841207472526
0.838268021501099   0.182197961517867   0.684247851650391
0.720743795984019   0.541437671730946   0.508218095358316
0.640787188915115   0.190049728311777   0.652554880200836
0.559308643080311   0.298487789778619   0.916586979966878
0.813435967606945   0.126238627971403   0.457646924736713
0.341910694817727   0.586346170036054   0.453493397777777
0.704004811860919   0.070855604417783   0.473930457231790
0.980851694149048   0.485365889849519   0.741511365403178
0.915045053066470   0.343231318733787   0.872926613020026
0.644280130692865   0.359112805535111   0.968875523251399
0.953879419294401   0.903287248313670   0.870286299764448
0.230046073383266   0.972840991395953   0.216968360331608
0.038519397916404   0.922487532040628   0.784902169418349
0.166076255056303   0.500643739027429   0.524918324392358
0.090589575384277   0.013014259091852   0.808148063529424
0.456591210515716   0.234777140700297   0.608867384252811
0.976696716197450   0.431783645847017   0.840937873118841
0.869787997119470   0.099511067614085   0.171882508077338
0.201550353759046   0.525433485636762   0.997471374574539
0.720091827184692   0.700149500606509   0.230699427076017
0.628595810917933   0.827075744878516   0.360538353345486
0.824402039524967   0.747065502109992   0.084558517249434
0.928004297682170   0.998551784833220   0.550916428447477
0.938953260572725   0.620005573235500   0.558332361656290
0.968286225111037   0.334008434795711   0.652379405619954
0.917479759064583   0.515959852673183   0.560280517226975
0.054127572026786   0.154379038258543   0.113910728311815
0.168072329460591   0.829285520598619   0.048566306652248
0.130879248390649   0.951766702273120   0.263713043964193
0.651156197636081   0.843048979175701   0.468618388273245
0.498582025131932   0.343320035339420   0.831708003131322
0.299646675923445   0.532959400785466   0.282086531257004
0.635668437939549   0.804239610546647   0.089445706728190
0.248885500662153   0.494181004979582   0.188876341492269
0.438539659317290   0.959174982199173   0.869388805952139
0.875827558442643   0.417634860112249   0.110411107269869
0.670515412100381   0.025117458680963   0.374021164515190
0.170281971265203   0.347185591226575   0.618495303264803
0.715738599491742   0.541166653338191   0.006920747448318
0.455561179752722   0.151579344153066   0.541164484514969
0.533863388309098   0.544910568507178   0.437663354117985
0.247021013752121   0.378021564975598   0.176135610907409
0.166044674897452   0.756940693553910   0.373812616312797
0.106591855513523   0.675404998793710   0.137105608979786
0.890786508840397   0.219067045848757   0.019037052405745
0.055524914570414   0.238659347701891   0.934073058264528
0.128160752693712   0.871154344604961   0.353635584112068
0.513114151635499   0.586266618450801   0.640547695347132
0.644867790330509   0.119736232698051   0.924435549433699
0.009521618916220   0.758038356101055   0.987748300645075
0.846922605762404   0.927616917214050   0.344592326940859
0.741497246866898   0.357740743591015   0.410774471985452
0.393131000805532   0.381206678811912   0.851002171040131
0.945011340369140   0.171550169199445   0.604684350753941
0.446292532078127   0.987431280509643   0.332923399182855
0.212778376139072   0.323283318954719   0.867792722570635
0.364173087034079   0.291173225659568   0.620405941830702
0.386406901640240   0.664987214369144   0.096774662546313
0.825905328605884   0.201607311836849   0.372084128617497
0.254907095921819   0.892220782715060   0.037182233483899
0.763241625701829   0.887352540168163   0.969763975610188
0.169260164825159   0.238827541276143   0.935755511116922
0.687671055912258   0.752026355969445   0.319989797920227
0.363258017513296   0.466332588328103   0.910407838709398
0.481536011758370   0.918200950832995   0.960886815122176
0.254324142729081   0.052788153391241   0.133070395898355
0.921231045588286   0.796525012711897   0.920715428300457
0.592275451738600   0.935174822834873   0.949426235246936
0.248578162204737   0.589256325077486   0.362108858462713
0.552436552875847   0.257285857475842   0.663434427965093
0.264315422223774   0.541199528078182   0.081394832225171
0.980084096502892   0.654416708084851   0.655226158694495
0.099826319987348   0.611654363432317   0.237962690430815
0.469195718831094   0.860823131366527   0.542974544064718
0.587604517916860   0.029280678802126   0.764543971703034
0.954509736757190   0.939113638479799   0.317212430460471
0.108745113435274   0.430670709640098   0.587286807544791
0.124869647709600   0.252427092564546   0.137115108306744
0.493447064591027   0.686825725735079   0.104032440701079
0.141650377666530   0.512546617394384   0.213380734004041
0.243226300089071   0.530700430173446   0.463048823513715
0.587366073197860   0.437719493360413   0.757898267467383
0.448781439668583   0.865343662184778   0.055284737277221
0.208170232007189   0.766643755417872   0.477079740125513
0.005122310095389   0.558263580681057   0.039591034946696
0.907046128110404   0.686494693046976   0.127246101140901
0.142634209674482   0.340492509337902   0.186699899661547
0.830476942786301   0.169636041251839   0.096598351882347
0.337255601962093   0.325140125978116   0.145769295258777
0.423998353617152   0.521300772850719   0.981375468095439
0.629280083497364   0.393200252537087   0.284374348481096
0.702451674851460   0.630929982130239   0.549142070650896
0.668496765927138   0.578416228484747   0.765372170392437
0.822627195241590   0.386327695295620   0.476862230133389
0.029602225721606   0.931956956820353   0.952826363175277
0.083283918263747   0.834782746756427   0.611446473951688
0.836489275668866   0.828390382475360   0.415912870786645
0.567429338951786   0.855917140515956   0.536569811967689
0.228050847770045   0.144961996000812   0.887310560106798
0.731640407536304   0.662393638635931   0.735746805340317
0.952219508119535   0.639888487754585   0.836705869591768
0.024839131932305   0.000608593391547   0.251076549968938
0.633819259988788   0.478661475228406   0.950979771976755
0.660739906184286   0.042797092074639   0.570025977455046
0.166436477396021   0.663495531713044   0.325662087977646
0.386014566465365   0.197244347446042   0.000507643205094
0.198188580070218   0.121544987676193   0.784891673907290
0.885618519191765   0.720691572254059   0.848164090490683
0.396965207968299   0.498379932480114   0.312232621383716
0.660623016402879   0.422773026410834   0.382937033871108
0.085800861722295   0.425921417260424   0.226288952681413
0.561039393752946   0.186602256537405   0.953287245274396
0.801217071909607   0.826129631488954   0.703176465626962
0.788105286935849   0.731683216330854   0.369942436441629
0.155840855845939   0.845044261562205   0.532555029941537
0.352585550535281   0.123010722274265   0.151415752591850
0.319578338609473   0.227449621731138   0.091505255481247
0.561073308485391   0.610182401910454   0.067657666869543
0.670027087336154   0.619931370559040   0.068146087812967
0.543750106457861   0.419387686325125   0.109060833088606
0.339028280331403   0.197477100199437   0.897214757011932
0.773473877775652   0.059470575506684   0.225141995189146
0.011383769117116   0.265958966832887   0.733480007755433
0.751156380126347   0.209655508616828   0.646258631624233
0.855885622697699   0.954271423857702   0.825308850593378
0.984109959387130   0.561429062993084   0.254885640861072
0.488009848835753   0.995836428764490   0.789012751406647
0.818518254206223   0.671942592914594   0.282117095082393
0.001619438871754   0.281919000715826   0.841820547919220
0.818865374076590   0.481654851806609   0.517362868175291
0.029681304501812   0.740641781678347   0.604556228948968
0.034988876517085   0.899727245247590   0.679531100918139
0.269156690136086   0.318497670102447   0.610332328659950
0.850120768046229   0.923006369964000   0.718502058055065
0.307405322116423   0.935783620027794   0.457182579969723
0.484137072663428   0.160251709089899   0.034251884475879
0.560750687093364   0.448506513359910   0.222576960348556
0.427289044521707   0.383893782892768   0.158049519633861
0.446762117145535   0.637512804527679   0.591467891214377
0.652552396491066   0.014704905214473   0.877490806819751
0.989470192778824   0.448580137032104   0.270822116118604
0.899452439624417   0.627908873684260   0.224089795068833
0.951300603530825   0.277244716284859   0.567264506401981
0.433112297023308   0.540173305354934   0.406428936728618
0.715399826179554   0.184858460132006   0.104563109827675
0.640212383312509   0.493393709198752   0.838172773882844
0.940657520652570   0.954579136083000   0.651145922422955
0.340387726126586   0.849686667670515   0.100678556443057
0.661247417990735   0.874670720446322   0.010743879478005
0.197404443990301   0.910537390131457   0.451137809870889
0.972221903894718   0.592299014120324   0.746741333477829
0.563743039531307   0.008715757793578   0.309870072563083
0.072599323378702   0.458529195200510   0.896991822147695
0.729955722520522   0.691633060535666   0.625940628545191
0.502383175404385   0.859372037043861   0.220064354336866
0.711855264942180   0.718084878298881   0.116501499970828
0.162996578717062   0.114238076084102   0.074059065771696
0.569101642094598   0.075037432142088   0.204715657089171
0.633172469046920   0.505390992116890   0.441671009715330
0.699064164770932   0.188268007759736   0.985279875552930
0.983674919842455   0.084035407890614   0.182582324275239
0.549309321107455   0.339735034899493   0.732083937722636
0.523774754226998   0.801014918004582   0.121543119641342
0.681104239907305   0.304105474278263   0.255570310149643
0.069710143317217   0.841842124819704   0.004728514792497
0.579336107916698   0.892266925343079   0.289013690758754
0.679324823963975   0.101158711722958   0.178717133058923
0.181056398991025   0.060934630643446   0.969394103591123
0.845721111765481   0.294347372658807   0.945304771030150
0.253863100863918   0.481028091565662   0.916683218466590
0.916493711775396   0.280418042993876   0.374358904956404
0.948852032800912   0.799895693724823   0.437129970235028
