Generated using phonoLAMMPS
1.0
       11.5579604467         0.0000000000         0.0000000000
        0.4384633326        11.2305529153         0.0000000000
        0.2962567725         0.0593809392        11.4855652896
C 
216
Direct
0.390924905596259   0.501631837107906   0.152672885990888
0.794988314189289   0.418337018635917   0.626961720074884
0.794996481945860   0.147670089565923   0.222061410622030
0.844134888657529   0.575675617062238   0.071547041724110
0.308277288448485   0.986022383522791   0.151480362187780
0.974653078724233   0.599894778330516   0.767742796950928
0.465862117795017   0.156942266623144   0.142224426818516
0.539254164023688   0.108687918192996   0.036783242387081
0.139654136019230   0.283230188820700   0.918378489350553
0.503580841193153   0.968083068773984   0.230600423507082
0.798047962271308   0.883855370188966   0.297846512012570
0.724460168549866   0.936295887610507   0.606101727209148
0.200966547676908   0.404795620189002   0.972342781431260
0.665822194412440   0.369387840894003   0.183207047885171
0.732340301605415   0.268098771492594   0.772732308442530
0.933645121151712   0.579108719296687   0.969546036195822
0.817845572115349   0.840631770578288   0.578020130712365
0.919628994785286   0.752512105692456   0.413322152658742
0.500406107804454   0.029221145831897   0.488498597024248
0.185116407667135   0.577967779205745   0.684738113597358
0.582312456477701   0.990528240219555   0.082576735588173
0.073547574860586   0.023800373071610   0.677265387803207
0.285082139545158   0.900338122495370   0.801290351667185
0.766136664743656   0.342297855033520   0.105270754160861
0.038013488739573   0.198330995996253   0.088490933129805
0.457503715768952   0.290685413812281   0.167811062094195
0.808669646004016   0.509590391823671   0.540714915061554
0.262702790666618   0.343407092916446   0.611136536427669
0.831995539066774   0.894124417416329   0.875552290761495
0.831398457775631   0.453890512677394   0.411553773873033
0.149996576773293   0.344635502917833   0.794171810442746
0.826552235457111   0.731680942237715   0.649249937811263
0.708690942790264   0.745425488936256   0.721721358156042
0.190914515184770   0.930687961545900   0.366033284735819
0.788407289696037   0.653234928468510   0.269433759851778
0.168351612977003   0.710821704581292   0.012724004810832
0.655076565641718   0.658831753804561   0.236593876877839
0.977921671434666   0.047991379893616   0.880986581405990
0.747033622396694   0.083615362108238   0.967979861650083
0.237078207697615   0.049719982378634   0.357266342277081
0.227424243535558   0.190164766968717   0.952857140598009
0.487973147115038   0.214787685684110   0.595177860874628
0.433871683547812   0.300286818908644   0.297472062876497
0.075404161051990   0.885219784474265   0.651545585377158
0.448942763732672   0.554190626504781   0.261565480170165
0.885200477193758   0.865041182630892   0.478398033658416
0.132464243758124   0.185597383199597   0.553340473868948
0.984553931977089   0.001368712675013   0.002281352892898
0.872603464185794   0.029645892285099   0.711930184002704
0.838603859822943   0.194358050709317   0.334986904256586
0.677133404003562   0.543466045064345   0.869794144920830
0.201281361995385   0.545605246252716   0.287411437466563
0.812947926628384   0.960387408137261   0.408108966499397
0.150369365382497   0.812897048046713   0.575194964585855
0.185481107636376   0.460789155435009   0.856705834836857
0.616704107603115   0.058204243645391   0.450005072426000
0.002639488425165   0.714201783776862   0.312463651506088
0.037582101501199   0.164321735561577   0.479586952066495
0.742056332613251   0.959657849355092   0.936301159659728
0.957099271935601   0.266141811167255   0.307578946349190
0.619242691211401   0.252215803213199   0.867684590938151
0.334616846480844   0.944348460885988   0.683888467998387
0.347087943628592   0.234153948283128   0.968589487717538
0.118496111374408   0.748614396604222   0.287441997564491
0.945903440531707   0.661499815442213   0.502932415980474
0.921397459429043   0.123198840868482   0.521062632887478
0.244388570706457   0.336916377695982   0.199997211463329
0.260448748216376   0.287542334659122   0.730065671002949
0.404696692292927   0.054706017588538   0.211944234229744
0.653710015454483   0.680092192050796   0.104874560339724
0.218976481196863   0.852626067477347   0.470806501347947
0.352525333693957   0.375892825717323   0.126165911164349
0.060590981293731   0.902311133555725   0.041539736005159
0.323230130075101   0.367695727716555   0.003501176510347
0.192809561795650   0.982028597294807   0.864606967059071
0.260646121517768   0.094799666121931   0.859633814361770
0.255466783664572   0.146725603275509   0.726320246296778
0.382602239876747   0.548710520914653   0.380133423119660
0.968077920690436   0.375737512326786   0.971744743822591
0.861400549153842   0.275411047164458   0.819739162383700
0.449862940537681   0.619349925034593   0.585430851722072
0.587658583356777   0.560094102820857   0.783584957559667
0.151454952137207   0.121295494220918   0.656746833073176
0.871263673763100   0.315604586735504   0.605257660787030
0.313837209546316   0.679394356257252   0.365254103235009
0.916130947200282   0.951029205738473   0.802705070019334
0.217001645093103   0.269527071755624   0.518613194023073
0.757590979495212   0.044632251189531   0.681628024620515
0.530546578670954   0.352795417943156   0.917127806459655
0.424812554750752   0.128882285211499   0.981476663600298
0.223551128025103   0.488138277021812   0.495121503958474
0.480763607219722   0.611336180474060   0.840648983010244
0.743875602276315   0.248937270391612   0.415890058482821
0.891113366378146   0.643822633901762   0.166175914887553
0.270687659264589   0.483824490820874   0.616212283117541
0.530495671043657   0.887701548804658   0.711856089260431
0.357037231252534   0.069160748590544   0.335457178018809
0.425819671864080   0.120782050627447   0.423431652458908
0.276996506428000   0.580640639604809   0.178224398049745
0.487626499183792   0.420173223572062   0.657265270768654
0.930646464832910   0.747052634795007   0.093283206615015
0.947416484450953   0.710973600892074   0.963041584902715
0.954631602956669   0.061577307344349   0.631589951133579
0.325339491829772   0.786284760833180   0.430930148860995
0.594022366557839   0.449711747083255   0.715743777752388
0.178729877827845   0.168818299596848   0.318246453512372
0.349941885882576   0.710901189229679   0.741405868608890
0.649707474594032   0.862296764713275   0.682985579917695
0.468686829177945   0.536979523609835   0.474119743582046
0.623154157178486   0.996839036523239   0.207058905681674
0.673946701747890   0.110814348563591   0.258045845830825
0.019216699541175   0.296046924838371   0.184530176491976
0.550174029169113   0.213869754837454   0.769859351024415
0.723798927151636   0.581376985613710   0.057689881193743
0.650758458768322   0.425527054103018   0.292421983186251
0.780166404167619   0.584139963826259   0.828335438449398
0.228939593132576   0.574694606689434   0.816117597493231
0.371108120303700   0.825329493041926   0.992856573661699
0.706779026006235   0.982361753596752   0.482135255024340
0.500565811745082   0.227810838965229   0.385422639494148
0.675720435744466   0.489516831853052   0.982238707067843
0.280639268390085   0.472656988498039   0.375664147232432
0.799332674748632   0.755408934012968   0.351764626131058
0.378128893265376   0.047920014396516   0.902605656631206
0.153794138631627   0.685085989472110   0.593937114804175
0.705041059368493   0.384596228073198   0.707165803789782
0.219846736114687   0.209101228554428   0.192016802342064
0.047084788317859   0.348376318449891   0.712497171332957
0.054627855616919   0.550873275954241   0.678383759400610
0.763155273132114   0.708737933938596   0.835464552945324
0.201374339995278   0.691174720123347   0.882106491456185
0.507830552203634   0.875976460923546   0.833400139971113
0.429835822434496   0.842590019342319   0.408507379627930
0.302699258151851   0.344359089010255   0.325643030681884
0.499943684960933   0.294531543894829   0.496283849011886
0.805897696320711   0.224258332974764   0.114038695264394
0.261998344577182   0.773817663687958   0.804155370425103
0.847081913768089   0.625508608226354   0.567312453998242
0.403516657180607   0.335949345154020   0.902444001549094
0.710836019761834   0.813891133649120   0.105260313229398
0.872495437019959   0.921948570649769   0.201805365391878
0.496340579338272   0.414286758704436   0.528439339028073
0.807804251027811   0.216658552216511   0.548763546336473
0.584038149659351   0.552689376956112   0.287751702825861
0.081166757914184   0.019630497004061   0.810641853947814
0.340857113098057   0.067900999717272   0.652906019940544
0.767373277486272   0.395909013399375   0.989362683810554
0.585470718357671   0.814626803477329   0.912013822209077
0.167523192297541   0.865561840391970   0.250538307644779
0.724550379466092   0.173830807741815   0.659012233107388
0.114179076277582   0.395847587378767   0.182317149152084
0.856569879054959   0.548061590796777   0.323513638755294
0.418553234135370   0.114859959969131   0.560875462162329
0.082429572743199   0.492354603323686   0.276781143970208
0.050568590325379   0.436322864532039   0.623426510533499
0.284322492509936   0.856376355425174   0.171174877372402
0.478272209941366   0.538031303177320   0.061784128521959
0.228649901392656   0.267368579748213   0.394971308387207
0.864894646324691   0.766807729607305   0.873281013785375
0.998685424310015   0.844653233706954   0.743333877326062
0.367851938896677   0.315884838896982   0.786246096060849
0.427844423015385   0.865717492605009   0.623828960903459
0.627968026135073   0.651683917529588   0.695345689883596
0.931255318873002   0.731429769954598   0.749624463655794
0.945255570634499   0.372800606867661   0.387595885596593
0.610809797305997   0.783746676322357   0.295041297886176
0.867538568298931   0.392055466448634   0.901952697912075
0.724748446457511   0.380426368860103   0.386607629493058
0.598532024887904   0.160337770928037   0.664506654880180
0.569520442935083   0.582648217545080   0.412442985656910
0.527327159305229   0.663992144970144   0.051119106739277
0.172309828377248   0.154440119329074   0.083263715532220
0.397803769642673   0.784241446563512   0.198253785737637
0.623306337245436   0.669881071652604   0.476473565907577
0.180935517355285   0.933458506513173   0.995321885493207
0.637812626924065   0.154064659193440   0.960624289863251
0.128217019906624   0.475842780748478   0.065799926598678
0.094540911966205   0.483654865961400   0.501542001177429
0.533659648601268   0.696102970981658   0.927499137517070
0.367300484233330   0.586208293560974   0.781202864096250
0.190682207234438   0.594627318187997   0.084941704774722
0.648451146832216   0.893093020430694   0.007296546228846
0.043353748175066   0.771286413051208   0.029279014442981
0.363676754887409   0.668924385608141   0.242897826938143
0.976936923549919   0.061740159571568   0.310888698985782
0.892924359943224   0.531004780507063   0.851614422396501
0.056834764077696   0.617747169755853   0.543979132281576
0.950521775587147   0.092345560323763   0.084685226584426
0.633511882981885   0.166714550437013   0.372653916640533
0.391875816961086   0.735096537940723   0.627966537836048
0.972279278074619   0.587641403861831   0.268227632016473
0.020150665965578   0.257703729835181   0.966752233784629
0.557004926492811   0.434998788752710   0.017118874086070
0.251095097003904   0.824294476552923   0.040790585590439
0.685019316339758   0.874426807371351   0.231604273096483
0.395042866657871   0.914670712081381   0.891302303533074
0.193462881027834   0.662516107778220   0.339421447852461
0.565693634262762   0.350039255140395   0.119600040169015
0.464817735153811   0.295031429580652   0.708206690302422
0.102792387969553   0.948368766928542   0.168728887184576
0.881434525851016   0.073069297250481   0.400058723636407
0.050549159489416   0.434193543775314   0.391606321203250
0.483542593541033   0.843816258398274   0.285674990935885
0.924299085328253   0.183289498642182   0.905009543536538
0.196474220090548   0.023709724861236   0.102568087011504
0.847551640720634   0.151199368210557   0.012735476427307
0.393194983487161   0.522416234262431   0.663962002541155
0.935878628088764   0.295897109850878   0.714206122482081
0.571206445827101   0.656969834516067   0.591843614885475
0.675502985444361   0.760887724500089   0.409341241937578
0.468094233678058   0.905357620425312   0.504489099482695
0.047869169732410   0.164257580916215   0.349954312970518
0.905207233184176   0.049222337683228   0.201663617906321
0.447996836867257   0.772095362561757   0.077126349871705
0.844533497847234   0.843267889563969   0.107474966958547
0.013385315790171   0.482527968626104   0.011809769966030
