Generated using phonoLAMMPS
1.0
       13.2996636384         0.0000000000         0.0000000000
        0.0723258138        13.3726887604         0.0000000000
       -0.3083675540        -0.2584257453        13.3256104740
C 
216
Direct
0.085788273594637   0.174483631631117   0.597777088377467
0.807513069366710   0.155200466396930   0.925208253989970
0.630657453009479   0.799991460994019   0.006030431870779
0.484625459575331   0.241333089489856   0.220143443013266
0.998162705798437   0.808806154308464   0.973898203412245
0.380851697579702   0.524848859737325   0.700053887077174
0.864247949915407   0.272017364273392   0.463150255070258
0.583332259721166   0.265694751742645   0.029063475534997
0.364251341726503   0.937448510766370   0.893230522025538
0.012154087630215   0.900273652597751   0.744590501827991
0.731926617788142   0.038697287558745   0.572114721863961
0.855055284496248   0.347394544657850   0.395978978996531
0.918033547882217   0.334769488378418   0.766522833601477
0.061953568138975   0.862292191162659   0.655641692142111
0.401206910104654   0.289593420132775   0.263176273000219
0.261690918898585   0.416344302698767   0.949474661944107
0.084544142609790   0.887475530296513   0.828601070213153
0.834945366705832   0.957053009915304   0.354287181004688
0.289438797814572   0.420472375194365   0.848662410031062
0.681839403955881   0.665068643548372   0.899163758641922
0.213656837466489   0.016158707377582   0.771112754650073
0.964140614142962   0.053574260358473   0.198944634106825
0.520214460643457   0.393402129662811   0.685786694563109
0.352138739271411   0.156184130601594   0.955968638349078
0.236209556076242   0.928867168634274   0.166271150152787
0.700275372676265   0.795358935822190   0.323481708279746
0.402800367219892   0.597122769523710   0.481393440286749
0.207606131234480   0.675575115246733   0.948058058927170
0.082348524651406   0.077785816959910   0.551497653660141
0.876197939953812   0.555026650960612   0.199667362721682
0.710803748355211   0.385068170896543   0.653702674785239
0.328881656847956   0.603022899967387   0.396359258009630
0.181230829316160   0.499950053222711   0.338853922588402
0.897255534876519   0.696244725686845   0.082822195812595
0.733961708565227   0.978079585775923   0.331588028827744
0.253909675348736   0.885575212579146   0.487050899668974
0.322385011961560   0.216413110253348   0.156848912406533
0.886919065801835   0.062850242968684   0.549495374661212
0.866355683401754   0.414518783450216   0.329754825009603
0.301126331052964   0.073173303919133   0.279261722925250
0.167095646276036   0.844044537588801   0.693377128051867
0.699219640467107   0.772767764545613   0.929281635851605
0.754468091413162   0.587359250131916   0.874207723745895
0.680913966275650   0.148404235860924   0.142291770699705
0.421335661152798   0.338120617467584   0.993312646037953
0.902831803977506   0.914376063989080   0.403265214789588
0.218146234914799   0.328206805741448   0.250309125162261
0.701334402626761   0.050482813041236   0.260592343350828
0.705034475189000   0.494772622562795   0.846015161706579
0.315941385797287   0.320898349833634   0.196011299076789
0.407865392876745   0.950116079069478   0.186205950927453
0.917459625145770   0.016883849791060   0.112829816159911
0.894574035422232   0.477295671745537   0.264040971846285
0.248859042425907   0.723923952817036   0.279999259116870
0.495121428942399   0.333337749872232   0.420954077184291
0.592535807140481   0.972786224487595   0.005746758998353
0.395474377064080   0.858503155703356   0.128505776402601
0.228001306531671   0.478222371374864   0.597833124084158
0.748838528169950   0.400066913605205   0.870748805290344
0.169632761446983   0.766005214677090   0.236643313726806
0.102883553408109   0.953121907820808   0.288691143832095
0.882993400277430   0.430733725379897   0.745449327772389
0.385833186072795   0.398589365002082   0.816803299273747
0.349189957965620   0.758389123799004   0.817497736501824
0.043763164319533   0.635580179633354   0.160871334501534
0.037568742911250   0.257965466329455   0.547511711694958
0.112654888353462   0.548583856219863   0.148474557609225
0.467878108951640   0.099960443149867   0.087317595112829
0.983676680965776   0.126842552160871   0.417984560697433
0.218543059119783   0.071872877547675   0.668580719613792
0.853097253363479   0.915915907239187   0.666023650272279
0.218598740277807   0.471938152663690   0.787464846017681
0.183221007763071   0.234055326229712   0.267133022306592
0.179724444341024   0.911254902521815   0.779028392001607
0.121055103015288   0.619865685157251   0.977060550089137
0.529342259913232   0.294054973095392   0.655678455936232
0.798472401187912   0.448055455062580   0.676006710354935
0.044942318127734   0.132873751446996   0.332414490776447
0.481856428313740   0.860053032736293   0.773621157553281
0.488162204262229   0.839358612615451   0.082083481438556
0.658685164643201   0.896598791979927   0.040247491928901
0.543956959032916   0.582103505674341   0.793387584053134
0.681635464955958   0.890320377258221   0.369594376153307
0.163306003746127   0.081302389195294   0.840075546395564
0.265032486826878   0.509449942106925   0.696279446116429
0.962738006576491   0.220236038947290   0.472745943031383
0.290182093457755   0.849750211522772   0.101202775860158
0.624019954299731   0.511466074661675   0.770093814465194
0.671956755928687   0.210591968420959   0.058010509425311
0.559272054172589   0.201258170110007   0.285922051934054
0.636459494064041   0.142281382274602   0.244976023902948
0.937091100272484   0.625706873651245   0.147223631054488
0.329613710477864   0.379728689756720   0.023119606385097
0.435844371612833   0.199194512724013   0.127164696379673
0.937604926837187   0.648325981872485   0.919049534270515
0.826631559468161   0.985458223628612   0.595059562597267
0.429913777892212   0.699725935378355   0.664440809468014
0.445223171264416   0.005463980926048   0.914564081231300
0.639439961130893   0.996914166426653   0.577892764839946
0.784717967455404   0.642563051371439   0.624488573055374
0.452413676190640   0.602597990350092   0.726819815789852
0.448789790528153   0.357016293362561   0.891586027010262
0.386791538271557   0.859578641343788   0.823173153785525
0.331845814729776   0.583323525473678   0.210683431387835
0.951490637693379   0.254491967929093   0.797595181154175
0.318456034037936   0.099366951252699   0.629214291259644
0.985804360978603   0.045705435361962   0.495243403885798
0.490237298339984   0.800332701357491   0.682551267557035
0.513592623235476   0.749838954587410   0.517151648207483
0.140904625955341   0.061499360210996   0.941145940328197
0.796959587183942   0.828203098604719   0.692897171804273
0.243852916074593   0.152426872091947   0.213756563390298
0.610762849680716   0.248389276398647   0.601962488371623
0.542378223645558   0.964357921320356   0.910098702319310
0.316995851299654   0.978257749059845   0.231872043388081
0.353796029921476   0.196384225890389   0.778710147669892
0.868724562931493   0.985245888983497   0.843495006996555
0.375643667865892   0.173906325658674   0.682229807612790
0.612528997935760   0.320572001236401   0.944589624960097
0.444514136203949   0.674669317157317   0.547872366091196
0.424643299508715   0.428680487963129   0.724344445519622
0.743905250816812   0.059079052662800   0.162092362238443
0.480725741191476   0.275039242105047   0.057592139474390
0.397581356114004   0.485530609694167   0.500296349875130
0.144836191516601   0.161252483780753   0.688707726216851
0.707263625731158   0.288750582805328   0.594571849106566
0.012074825644118   0.881010329328435   0.054861905458396
0.531828367310243   0.827362319444048   0.590920961959975
0.041276573712145   0.858483745580059   0.547245149048021
0.135581106588681   0.531389130332793   0.041417083223080
0.496296254743820   0.149814621114091   0.470197579482391
0.672418642645209   0.616214690237581   0.356427383140691
0.919849671260520   0.955941971916043   0.750736592482510
0.438575628324686   0.405616255829988   0.445433349682648
0.465200995196533   0.208763923324085   0.644566162785466
0.572553163301427   0.647809194001401   0.880981642297403
0.871413866511133   0.081532715390842   0.899149507887679
0.011250814947314   0.174081784390421   0.826382995472212
0.285793354776973   0.490534024025468   0.510279304896932
0.505353578029244   0.226278375974409   0.387006584806165
0.329115773196118   0.504420613882512   0.160467540618282
0.156912871982033   0.087665548074668   0.170546898728146
0.747598995821475   0.576380666890113   0.533410112344846
0.565972209103702   0.894268796774840   0.833610394185983
0.485757946938322   0.009650326704900   0.146041213180970
0.140840472723792   0.419812138371072   0.582197660297600
0.614535929921490   0.868164893560536   0.449627084004166
0.220009731214121   0.809674527685649   0.564626236424986
0.132247246221564   0.507483651293724   0.242796977017505
0.748116121749923   0.857982617377931   0.784346017046873
0.169196862284974   0.468386819599557   0.958119624231183
0.787200679956898   0.538597778818026   0.625425663331602
0.546207585998515   0.348249985153842   0.871584609400162
0.998164352181503   0.930841056669549   0.458089948067320
0.160099681147820   0.856135652574861   0.424728652472841
0.059950246122102   0.836810385720764   0.138707309027709
0.328551824014906   0.726827554383648   0.712054393193724
0.211505546316938   0.011717177934831   0.001469538850637
0.799194152353678   0.128517493721356   0.545360036163398
0.252839956621450   0.530295925030978   0.415345097382140
0.314262109673986   0.645697431930569   0.295836393964220
0.992171926128920   0.985994717666387   0.036157692958240
0.540614746406546   0.933157941812676   0.091308318097247
0.166537153505097   0.413414454052315   0.278379358096791
0.324957925810173   0.406425646528974   0.127715043398619
0.657212301283375   0.835215845607227   0.834019268511901
0.081976562635921   0.812932785255989   0.904628213733272
0.174119147308940   0.028078587121881   0.572175141609951
0.864766304034963   0.585750943823926   0.868548846042158
0.765411322574433   0.911380909636552   0.048249243609100
0.402224389290611   0.218822851692548   0.338853891070147
0.130672029421091   0.480428163229596   0.850392859832592
0.795643056319060   0.735979591314427   0.648450673750348
0.532704137546625   0.765868851189733   0.016971909049966
0.029402665846435   0.522994494662130   0.842901585778411
0.038199382062399   0.054640917870566   0.966326760423059
0.639549317035019   0.719760408344155   0.363055556774637
0.806909257171616   0.903890585176214   0.865690718073139
0.749244363550265   0.223278425300521   0.972362131197022
0.098697438772920   0.218991413323741   0.321511548634811
0.495077055498086   0.696531332414087   0.940293506586256
0.258565907543449   0.987377924018784   0.515223305783687
0.427518589545684   0.088495477054650   0.985174294687251
0.247597843787776   0.843654746731048   0.997202306485490
0.810571929277605   0.990776976957440   0.106087896892850
0.274565369408929   0.937239225929271   0.955066075571676
0.364109939944751   0.120959816021234   0.354367294407528
0.124191095984839   0.805994223111542   0.512363766997501
0.787502705221479   0.233701527109931   0.536289388313093
0.188996904032064   0.009175385368623   0.105502181137822
0.034582636221161   0.608491244335641   0.908779400660725
0.596203561503702   0.905971857183407   0.549724144668106
0.181637852003296   0.778420711369832   0.944147408822120
0.339767492871284   0.059040232533876   0.532660590210796
0.784268038908623   0.853708386335576   0.956874255395558
0.326437380609460   0.190584912913263   0.867932266410326
0.772501183407130   0.581369012981983   0.204499422020251
0.387862420656821   0.695863787053753   0.906747366176989
0.310566273041872   0.649883910646437   0.954475325900930
0.079911436466745   0.352671981359335   0.563410665848944
0.936643030495175   0.726386074306831   0.993811167288665
0.701200169143130   0.587198736125407   0.261060439729014
0.143450144198665   0.880693777170936   0.213784718948404
0.250483703236645   0.782199458622859   0.661367188932585
0.922422732256071   0.511340343023148   0.810586180728848
0.975941195202788   0.107690379449151   0.899126116839246
0.714005890157591   0.571900615698154   0.440774720337214
0.066506082503191   0.054706505556760   0.243580800769548
0.082785528606526   0.735843181120358   0.168081696097160
0.717799088376099   0.321550873358301   0.927594035869309
0.083527942864026   0.916091143236852   0.384290793280470
0.618639702132435   0.432858547777778   0.695456625276708
0.108263667743902   0.153496964574530   0.787378876222733
0.535988651944015   0.171853448893488   0.568358289083815
0.579906282778817   0.768667053672381   0.438307990571690
0.400060255689566   0.100675248508762   0.456062394428955
