Generated using phonoLAMMPS
1.0
       11.9068940906         0.0000000000         0.0000000000
       -0.0033499882        12.1657498208         0.0000000000
        0.1413700331         0.2852796534        12.2363463595
C 
216
Direct
0.846830389972292   0.505227827988784   0.647235055082538
0.939187655650095   0.932765707454075   0.429537333741734
0.920209491476529   0.029332132118382   0.357041764889901
0.825584056458557   0.900230071855392   0.461394155095712
0.082212612166197   0.819460374394375   0.645035476122508
0.253448590772131   0.871857638358739   0.373337148670469
0.190329885026580   0.181629587016668   0.909575748594190
0.629147085859822   0.999186135139959   0.443036346857831
0.000906155507901   0.831207743019484   0.731335539799616
0.353219517090359   0.641192497226700   0.945074310602674
0.562507447204424   0.038424488473305   0.530882400607810
0.149069602183826   0.244771524806858   0.248699145201734
0.810715583078814   0.500681409360484   0.882533509818144
0.977538424905822   0.428711627567271   0.157657769183875
0.062232005888367   0.176303164861863   0.522551439959507
0.955357764223743   0.307137538098864   0.915338187636727
0.196367857643796   0.747370184859386   0.859995041888468
0.227365426386459   0.296510970298663   0.645031371956238
0.779792403087608   0.729509019809988   0.929801581757849
0.810916842187834   0.079496146625128   0.389661187246324
0.579183351134459   0.503300011324913   0.786951206437857
0.661630201821468   0.424021231529425   0.513893250914560
0.144978817845135   0.631450256566633   0.878288974850426
0.042903164314038   0.202147417776128   0.631442292739719
0.101923169336652   0.947554102386107   0.079360895276233
0.805439346156993   0.072704251702185   0.834867296157301
0.587438257725018   0.254823429190761   0.151284437822635
0.581618392193594   0.016965336235581   0.647316370204779
0.790963132242141   0.408737684772661   0.819559270828762
0.778260866773253   0.152003178747470   0.123653457130632
0.402233037588944   0.040205702357340   0.213617834376732
0.188416189674420   0.496961129137820   0.630387972306073
0.908243375139708   0.645122243894233   0.097896105161324
0.137918546225740   0.903791594507928   0.360442358398575
0.419551846327267   0.203792945228726   0.896742056625502
0.474682434303508   0.039582852678106   0.309145433519305
0.785487122824543   0.468404037390310   0.263516080312372
0.514564599125420   0.168624876180593   0.970102247129024
0.378643459115546   0.441856553396244   0.401190317417641
0.885601594273999   0.814152270133729   0.208283257528201
0.078937507444070   0.619300033491938   0.976971666932161
0.439768724451873   0.709473526276555   0.488962052414842
0.893586904744672   0.807470716719366   0.701456169008829
0.858378267785598   0.457315086016000   0.172588033057794
0.405267831908023   0.367005836030920   0.485614884984574
0.947234635028192   0.424898656796225   0.659791366050372
0.544694952051581   0.901020280683468   0.684622542863547
0.845142535038181   0.748627950140521   0.118508415616576
0.168676608972807   0.091761865150294   0.387066985589441
0.677056016208237   0.741516406751812   0.864637293613869
0.824961240842201   0.396669964622789   0.704479329592321
0.588042313933724   0.519488724685241   0.072131469972223
0.951492282402402   0.270995381448018   0.362264870555783
0.390902301852045   0.398485667423039   0.087811214919214
0.262350249342875   0.892978093941877   0.585169365072842
0.946644636948505   0.755522192124048   0.287728990056462
0.967193958597855   0.660013845626694   0.986817400001532
0.143278616313304   0.334498877732222   0.072457982632344
0.859974112006349   0.593260339272347   0.826822631752752
0.148941872390007   0.210704950726375   0.020745760829409
0.341132164614993   0.626324085183361   0.276303276375886
0.988566371686794   0.569654798558583   0.395088311328051
0.400614649605814   0.259125994071101   0.245061094374132
0.938615847438750   0.278576611843533   0.025595531607100
0.264184335892822   0.402755115673329   0.695085265659932
0.195250308293152   0.395737539306334   0.461647441486024
0.311513154065911   0.169479463640474   0.950781986566404
0.178722962375657   0.538969667101244   0.816972981664478
0.353687271542844   0.258121987017522   0.481345308228156
0.840325266904953   0.534960654657723   0.085020544485675
0.448727100107295   0.603575900699889   0.324585448410132
0.373127194125787   0.212229342957213   0.361528408074644
0.130520606403223   0.549542463627528   0.068280479765215
0.349012598624417   0.953802099077378   0.638225270890347
0.248584668054504   0.432718509356013   0.249725108314510
0.595712161650176   0.183153435989693   0.780386565519725
0.092042942012342   0.168471450793047   0.183611579305753
0.762970131994745   0.296807062219002   0.659220360637913
0.779733853572711   0.263616554681737   0.265338050641178
0.318194535241252   0.945758472420893   0.182256718997543
0.666956415923916   0.642505652640693   0.212091051017458
0.459359683164657   0.336121513404050   0.754148625650465
0.444768759814397   0.120475587114640   0.384849905490288
0.679294182522048   0.322823469511188   0.056816052077526
0.245944221496473   0.723045395664180   0.140355601218057
0.625844651000600   0.164278738047633   0.910735269547843
0.427658543878429   0.657316445394818   0.742016402874281
0.390034785384963   0.806687925874587   0.878844696288854
0.733682115975070   0.043164142830182   0.119273921898010
0.676791974343574   0.442454507618304   0.042703091809290
0.378202436466948   0.607914629739295   0.646286196684869
0.554250793794749   0.393387265413627   0.316300848005593
0.956488072433799   0.640372245300713   0.300583236363235
0.907101119392254   0.240012751842768   0.262551977985304
0.508824441119908   0.187815309387080   0.086398918348630
0.659517147180670   0.297752720445980   0.748532368315068
0.033633197384674   0.873976548480157   0.839916058114912
0.025421051696360   0.424691939409191   0.749351983885382
0.691726941245485   0.598073065772281   0.388007893084354
0.015777337506092   0.345067416980687   0.086976177261747
0.750963021112380   0.990228542423408   0.438290238967961
0.334816694391463   0.347205309207033   0.184078784125888
0.403411722006130   0.150616946485041   0.677581762268683
0.009911401099265   0.379580565253182   0.854712852409594
0.070167811357167   0.795787158388077   0.526310757377348
0.924647956498504   0.490395294393869   0.465030868922912
0.629928842268921   0.750193553506122   0.052800228435704
0.347675292333360   0.887893111081072   0.080575122347247
0.924935306268074   0.067023148358807   0.873412077920023
0.319686609768918   0.064866355962099   0.659671747827988
0.258480577539380   0.449522061872901   0.809183317397089
0.724209438244105   0.566648007700781   0.282992743770412
0.185833835059578   0.001105839150149   0.173959795470106
0.522476616447854   0.305495381055618   0.240414876595583
0.120834141246514   0.833231968445327   0.904918476045202
0.677341660782211   0.638405064837492   0.571283457874074
0.952551187300547   0.179836137627537   0.703413189454021
0.039066010206558   0.226558745996401   0.418717020544469
0.552479029932949   0.615433779582609   0.740276966168693
0.818855000176483   0.769142100841066   0.628667493056672
0.464795899988255   0.630337046677826   0.566790464754660
0.197663565532240   0.836610425342186   0.669029373596002
0.266580431916945   0.422760755828538   0.367737864538829
0.305127528575835   0.151390469324931   0.067253499191864
0.253560883827829   0.784039431356134   0.755209864816020
0.122857434166854   0.169342674977196   0.809207910522451
0.047898134066532   0.880241971039921   0.442658973590980
0.722975903920323   0.078320395956559   0.918892720887270
0.626261546356399   0.628523890601251   0.105838569941634
0.459367909811603   0.814498188637377   0.311794922921412
0.203714903753752   0.332850104064409   0.186095452277885
0.674011912063557   0.278146647801837   0.948870296645839
0.257147542304676   0.808132106956640   0.046488785482797
0.901332043193577   0.167731880342597   0.081385147881732
0.151221712171351   0.864721329207865   0.012023094204569
0.550764857271260   0.821362767265161   0.113852708894465
0.493620338101957   0.713535451372784   0.381787691582710
0.466069248875823   0.199369216608446   0.768345432842437
0.388464597972563   0.386055549617258   0.674611750720115
0.128474245042085   0.689548110321979   0.492746428783369
0.146414375679831   0.006151277275159   0.298962879320579
0.826871291112774   0.597801957828997   0.716139746501755
0.720662365772506   0.544920512037692   0.494471080029745
0.208391637685178   0.612086580828464   0.140866158848288
0.384055383062711   0.557125179642496   0.004143252373748
0.453410502242524   0.402767231832514   0.580409326554091
0.779431327805390   0.495035771333550   0.996129517904400
0.579402799520006   0.989355227140081   0.338954852056793
0.426641086971189   0.875226038898249   0.684219402918414
0.264151561951647   0.551206559978206   0.224144627768780
0.760377110807768   0.186600646824212   0.371437931427247
0.324160118260001   0.402808077193593   0.892521229715032
0.998073928046817   0.433123176162417   0.547125865295755
0.886181277488293   0.682320188874886   0.899657060741277
0.003435149772708   0.134403546125833   0.800260481544601
0.987950530873144   0.958125821780910   0.901134912010661
0.044479716040008   0.526855744415714   0.155650048147037
0.286172336615689   0.848072205129424   0.479749679972272
0.483971259747069   0.819228546357326   0.942047761752882
0.419066728813941   0.182268672149536   0.561993863034210
0.310865643729302   0.735493831919561   0.234840288561219
0.270461925991813   0.585853685988015   0.599221580084434
0.080851215373760   0.585616332061228   0.469046570878084
0.652696529925020   0.370607045310137   0.393153151983561
0.630112331165346   0.705960906718917   0.387566495804372
0.154300313395642   0.100644727686825   0.512990605657921
0.646489873270985   0.714982124945611   0.749905957252991
0.984011539174126   0.619673632267543   0.189657722314983
0.646109670725753   0.090348024495220   0.716001420897831
0.768087642362834   0.103923888149622   0.730622124230660
0.760096864377322   0.764939873845326   0.038227951813152
0.735008996501126   0.956159314705176   0.196834186385226
0.717002571791245   0.324035398862639   0.850600775281201
0.470484884228181   0.493409033038936   0.061742835549391
0.327213311208906   0.741915299339266   0.492571476233228
0.637635222772798   0.922442157100909   0.259823270492150
0.474109478419188   0.488582179494768   0.344993890003985
0.964029136824348   0.145878810051445   0.190693595248586
0.209373792292023   0.101975670872879   0.620363065655342
0.401236991600975   0.154842038661161   0.151444434928182
0.384258867103587   0.781952619910679   0.760083489527837
0.834236508581198   0.525109680748479   0.529188933506504
0.560983039112838   0.828321854975258   0.231782184540573
0.932319859140616   0.024656028767144   0.239530792434987
0.007846122907018   0.985736090154767   0.014203038300323
0.155790289500891   0.194719123060552   0.687775104818452
0.575635970696186   0.397491678148710   0.723806045513238
0.251681868792478   0.312105436385929   0.527068584896083
0.728712895068118   0.318951199569787   0.545338053856189
0.641834029771790   0.739469079671361   0.270147679943172
0.855082375073854   0.932060546085171   0.204660156424530
0.118222056620324   0.475798210462601   0.525803661564783
0.567162298636115   0.450203771074061   0.599299041115051
0.414836549320949   0.333412788300414   0.867270089307413
0.785318228224073   0.041745860187119   0.011573296132636
0.307642987003365   0.444792007156132   0.002599094040462
0.833388902926777   0.193880541305091   0.688635999867555
0.605921904181301   0.809307595788103   0.693719160164968
0.746384992571977   0.677578783389624   0.670404338761722
0.335225010970640   0.847678444726804   0.280609261876133
0.751923156608123   0.373199698189359   0.318657876742166
0.568652126833214   0.586544407858271   0.612740807567854
0.780823662424843   0.803992965019488   0.519450504526232
0.187987572149186   0.443609085383178   0.030494109519081
0.910261060740859   0.069484649621243   0.007177106034745
0.480894476572977   0.112535393499011   0.494231835412602
0.713724718647918   0.246775598520946   0.155507713176383
0.108674025839840   0.506613506310932   0.726370015923870
0.683425034179512   0.737363093907521   0.494520835077707
0.188626606067296   0.124223140618348   0.108627653300124
0.702446886408733   0.255515748589959   0.450364285881916
0.138489683199995   0.204036044840814   0.356096597953611
0.456824646368211   0.849889307143521   0.051795891304428
0.298936170843155   0.747685979910346   0.939297390113240
0.242362006846974   0.668545932785107   0.523695455467791
0.591832899994746   0.770146768821672   0.939093244208359
