Generated using phonoLAMMPS
1.0
       47.5736513705         0.0000000000         0.0000000000
       -0.3388024225        47.1926020902         0.0000000000
       -0.0020744512        -0.3447767574        47.4033144893
C 
8000
Direct
0.915007412187789   0.916903551250499   0.117324756927184
0.057406520572768   0.009865751738559   0.067538601772723
0.064063022575993   0.059871407870714   0.115126229859557
0.947166819696383   0.036685573496839   0.160046555641431
0.030627695968309   0.986754345568842   0.227856691380474
0.979887286332034   0.935020761052641   0.218054497061238
0.058499674630890   0.985397329342063   0.302881972593727
0.902866426088630   0.015797483208039   0.473842570756737
0.881137447140710   0.830393302611940   0.350385302777702
0.174059391421375   0.872688453897926   0.501126743054266
0.013707918500660   0.858526733006720   0.377517601728871
0.988678289008224   0.015341824596992   0.440305137412095
0.015169582553159   0.948095482879632   0.519398315608449
0.067595260427024   0.103384628340754   0.516773459069607
0.102155809194004   0.920308935499960   0.593354652581285
0.273044834735604   0.185060583845188   0.689050728876202
0.923694234965541   0.959923004211220   0.761969214371140
0.847011164555729   0.057537640151626   0.616335359979834
0.932423801796334   0.936626299832273   0.948114303487045
0.151243122691345   0.877855468530319   0.977237623551755
0.972659184172126   0.908156503215263   0.006125389313558
0.004895485476678   0.777616123634476   0.157924223245819
0.031898041462065   0.135027833513143   0.168732250184856
0.016469056060579   0.927769585816589   0.152186867895670
0.148334820968211   0.862521870816047   0.214085323132641
0.014040465242559   0.129873200543468   0.309155774398602
0.064302673495691   0.021091495941625   0.461038155990824
0.790693678572368   0.035893946197882   0.306900126219736
0.990426111817866   0.949454193623299   0.296691004659064
0.996989289924011   0.944906634744267   0.266934252094465
0.941419106105513   0.068341777510763   0.569735076354126
0.095236335710294   0.950842547699218   0.523547774398813
0.024681082488251   0.063143992554319   0.525399729287322
0.042412626197272   0.183133148764773   0.775539079831607
0.073042008927313   0.999245547539558   0.526233603467342
0.048069634620324   0.132220658420440   0.827683754241620
0.065627177746803   0.182819650629983   0.877583450612723
0.925470143616423   0.160891025433481   0.709342807823912
0.854183433774134   0.972846263760599   0.937652302984697
0.898601104364654   0.153867582832461   0.989780035541410
0.047630046389817   0.020751816368499   0.041956182419458
0.903595175677697   0.119109463144704   0.918504662998365
0.065845255584931   0.070482681337899   0.089373236357898
0.062662615890427   0.255090412330061   0.128227976998782
0.734315977461418   0.273072876049891   0.255467861909393
0.922625715278583   0.204991061566619   0.513704960557065
0.787987952205595   0.124754459451261   0.299071534400829
0.134592749296574   0.014699412536259   0.344696204812603
0.927723335702809   0.004710829816279   0.466147600395913
0.955859220211289   0.010930477140627   0.363724861557768
0.938593440091165   0.227366777370774   0.630230571888459
0.096275725623900   0.105950712854596   0.516154871523232
0.044834235250351   0.971899339803568   0.467273711524957
0.040305569396474   0.167511776593692   0.516069527280037
0.996421365478752   0.215025646447526   0.878424851692578
0.085577798145524   0.271777201135601   0.787793853706778
0.102113707342185   0.045057835843185   0.589177180981811
0.973603618975203   0.043427853698487   0.879018097129168
0.827029025742679   0.814302743324174   0.914507836994926
0.098872771709497   0.128187386605055   0.035891047668914
0.048079141110711   0.061357201212952   0.977390543238450
0.009068208587783   0.040893575723029   0.095904107317774
0.943066444683496   0.151000018834964   0.907365962979420
0.925942488639964   0.182347298551099   0.292866472514990
0.918524907569711   0.979355646021436   0.169520729648849
0.962273853321086   0.146806740154285   0.313838012389578
0.999657897147605   0.215148447001249   0.132407851383826
0.134866674788754   0.169121080915584   0.447909301886319
0.052534317715617   0.216845094430230   0.529534119511116
0.043261227740485   0.332135375355765   0.539586863820959
0.168642241374460   0.360253598154644   0.603362334641304
0.950302956921849   0.167592265267517   0.363230280108083
0.005054922778339   0.214546237832993   0.646941150221094
0.874561681168839   0.175653473221180   0.620356688489321
0.973086982128179   0.164641309669062   0.587175238691015
0.954209782370817   0.117411252910528   0.794766304970172
0.917351502306227   0.145029326579304   0.917094478906383
0.884408442812528   0.247927764826032   0.783580814974116
0.065743444463772   0.081917046881182   0.773560201328898
0.784682465639611   0.069254936280184   0.928205349647687
0.111834685072425   0.123341135840507   0.009363029859445
0.044450001101208   0.208496816823900   0.116951019980921
0.864716703375024   0.235638910191955   0.213524908733644
0.108055221668849   0.331757400730758   0.983302661473626
0.047564923961274   0.244346474866243   0.275032926293431
0.035455985786744   0.974378501482589   0.253416461051717
0.016909420298489   0.196588169456658   0.338747477323017
0.988891625148812   0.137274838456044   0.309224058653297
0.093077443908918   0.075222270435419   0.467993429130521
0.012455006592379   0.210938313879539   0.459141050251092
0.145572475792613   0.243727591591467   0.468815095303437
0.058601796411130   0.320049549314751   0.491816592387489
0.082846598941852   0.077932043281229   0.515914877756497
0.080598335949875   0.119294440177765   0.706157946140156
0.066713006271485   0.034234680700213   0.747286551196667
0.089959291926781   0.091873346914792   0.847255005956717
0.967167143407993   0.941972311214369   0.593119050912492
0.029883978555729   0.127250404993033   0.881144804957220
0.022933350496727   0.125318628220341   0.814661951723162
0.710372576002022   0.130812503744739   0.913629938467190
0.999432747592331   0.276994925433913   0.926679047093120
0.084613562987901   0.077204465079411   0.043046086375681
0.013786152226813   0.264110020649463   0.059250840162959
0.004750610840237   0.091501089344300   0.116131523909422
0.143952696121070   0.324221498665667   0.109431319853613
0.988135116821420   0.334621448763436   0.423243096314050
0.016841867758533   0.117503334748892   0.221246326612189
0.023698612622734   0.374138043603124   0.234350827989202
0.899330955162133   0.194120043051551   0.371706377282484
0.897140072705894   0.126728266865986   0.650536200521606
0.916911716666885   0.352171887604883   0.555692792451167
0.877653666202303   0.244909458108020   0.709837015881986
0.086613702151380   0.280093204831928   0.538756339617659
0.989410088922870   0.551883056776219   0.778237781417735
0.131688834023253   0.296927854297103   0.804917882031490
0.889973557925037   0.243426017575471   0.681601589426687
0.840068296591428   0.291757655870588   0.807282841132088
0.943618643735878   0.199311249232549   0.782737006889577
0.920368390470852   0.292539415262370   0.019030633695533
0.963176321346856   0.317036116917312   0.846978537947229
0.137930222685883   0.317701027816027   0.057976615129314
0.997909754184136   0.309123173639348   0.005960466816382
0.902244976359944   0.360115595963457   0.185070557713433
0.010698664899376   0.318974103254921   0.146160177292327
0.203031950888473   0.352836660936580   0.129987713652193
0.055209823371290   0.286088480551042   0.240574004642105
0.909189588702808   0.179509679200922   0.268123183725242
0.139940269423745   0.266983941728751   0.488627562218847
0.169090162070221   0.325561888426920   0.524690114350847
0.088387540037138   0.325604806730862   0.326012935308318
0.989061733982838   0.335640901723211   0.674860805508041
0.228900992240472   0.200132806769828   0.625670757826326
0.115371668450987   0.298304918757525   0.446997163136828
0.929584858913172   0.373145212283625   0.604977048735131
0.917778261531244   0.350004968081276   0.762764840170862
0.037704973619204   0.394538144535379   0.734074032056442
0.958831669662231   0.318765345098235   0.776255607786792
0.927510862477902   0.410372755060030   0.659321527127702
0.944847727774867   0.361989888790408   0.897417171316203
0.904373184966182   0.495085824718653   0.981769853044874
0.093774452956100   0.162717525916732   0.072231358859366
0.964325979938463   0.338594494118474   0.171149967621595
0.070533091900234   0.375546315489574   0.143938163681363
0.013706922626616   0.558879563121046   0.170705644893809
0.122295681428424   0.426742630603248   0.186644718946754
0.958971088035953   0.251229359845892   0.115982912782207
0.201967374766452   0.332142283037662   0.240152791479795
0.944868926209078   0.357291484145540   0.156747925541730
0.029883816874142   0.280766087681714   0.386586547743122
0.078725616040011   0.128026149405204   0.265492798037166
0.163690663299208   0.362581170117358   0.469323941578426
0.872577894959837   0.534955764718919   0.736801813887587
0.068147380034780   0.263607305044235   0.681117998769642
0.813424228774660   0.279679654962981   0.885357736102469
0.899649959502218   0.289994705906640   0.736252542169344
0.900314332217565   0.313994005631291   0.682414233023765
0.039605927781468   0.379084439565579   0.884862475375388
0.820579239976490   0.509276620647643   0.923633061774254
0.065036011243323   0.401975081957271   0.805419701371683
0.880833624916129   0.269366741600803   0.043183748268532
0.007351849081286   0.403479283240951   0.928036066126346
0.890183384981356   0.419615933410688   0.188251309768946
0.006723246157495   0.543008322210452   0.923398329242998
0.081019857344993   0.444544213095491   0.069103150387077
0.004594442122338   0.384281019217711   0.098098349242006
0.878345921560661   0.440524018168021   0.440381775513020
0.007105712730342   0.422851045455392   0.209687080261944
0.928186052253386   0.593102591199952   0.340939412657485
0.178326800848814   0.295081510748396   0.172967636721916
0.844386464632969   0.389123810407425   0.402805715290436
0.924830382599764   0.539311878111528   0.477055261718133
0.061978208402128   0.495893639387589   0.531433452943176
0.965626743590024   0.557872857435295   0.676602099358256
0.947313043113627   0.333778857178629   0.725525104531733
0.940783855380569   0.266140767885806   0.678788676417617
0.044730828597754   0.382816063939717   0.618498708705652
0.046711598017435   0.558660246831976   0.716890356003919
0.850475425049943   0.381698429835096   0.733648403591062
0.959231468861962   0.199916123027727   0.908923031315152
0.088110423599895   0.411014247902671   0.108010049617010
0.950306256994865   0.587034473629001   0.052767557014702
0.079666320233119   0.355710613611795   0.086493787073169
0.936200673904480   0.462530385347309   0.960330194005221
0.040138943580824   0.394130077527775   0.040016968231793
0.087629182605546   0.480724664233845   0.111143785972798
0.114407621292289   0.604481706520102   0.136924388303377
0.974255845700265   0.553291058717948   0.387716025725344
0.927875707050581   0.300494237137325   0.382186330115996
0.894274330801616   0.329068762995795   0.470605946869717
0.970434640349302   0.394564451018883   0.541524426647303
0.943147263490023   0.286619717569416   0.656293899174969
0.893827797076608   0.190303751055606   0.472332883074114
0.034986857514100   0.391506165179198   0.589488313234036
0.946556259011655   0.331511090553713   0.633038858638746
0.789688643307477   0.573636714497678   0.722263047823970
0.917865793792244   0.458099791846608   0.787128448759048
0.055779666238298   0.669686954746820   0.685469293657399
0.112249091781022   0.504523193855242   0.879721229396586
0.932089908058836   0.405835084505070   0.124621965861342
0.852549113142163   0.495593960208504   0.060474095132041
0.149401544302839   0.840701241834189   0.941041922502469
0.011410716942662   0.433056614011026   0.921692836686813
0.869555049514407   0.468471673319789   0.205131488689360
0.025676794057872   0.488082479121008   0.180699606394263
0.161825786806361   0.810762964393057   0.222231245082617
0.058832339986558   0.333648455367769   0.231534436320427
0.947496835892934   0.615703714133290   0.350808701441197
0.884996303722482   0.567459063735922   0.276657272625108
0.982139117314860   0.531164498666024   0.544358707360529
0.155043813790112   0.443139299486538   0.608954422512287
0.964647240802052   0.371492124524456   0.564051688960175
0.937254805647317   0.365295417690818   0.577066719800250
0.958495799158974   0.436029376384381   0.693137673050617
0.003338633225157   0.536961896254333   0.702013991184341
0.992698853350756   0.533198964140066   0.597442098830297
0.956898168012783   0.427117536412828   0.921490021754912
0.009784862415964   0.415927702085684   0.776004870045601
0.928623074666670   0.610078017563551   0.893295792840778
0.943099382868924   0.572305333828758   0.804894725422889
0.966179622188176   0.845633389963924   0.972096232013511
0.034528624666186   0.690715281590248   0.085078651850607
0.095844615275812   0.487582273474008   0.311353407646874
0.805037786519675   0.552567469855996   0.049940236785222
0.052957088560719   0.674581524430963   0.293433816809155
0.963431702978513   0.478228688744745   0.416504630798688
0.032659785364372   0.509601090547900   0.395814938304266
0.989199212973931   0.484670166912866   0.222934784494561
0.262676386038811   0.681488269536424   0.283706866173581
0.930237172307154   0.657149578509829   0.222400062391833
0.054520176400147   0.653736119700357   0.486520815020346
0.683712507080012   0.524910942321898   0.647183515130041
0.844401013694785   0.591643007186572   0.520358503740658
0.858488617889211   0.579106956286447   0.710488310002083
0.055064855591595   0.401463011093139   0.781528135724820
0.956083994045846   0.617295618847003   0.899641595940009
0.001703263205358   0.543928409303869   0.730015815831004
0.133155984680319   0.461682622340485   0.822821092158106
0.909650436601132   0.445001806545062   0.905371893555829
0.887702407318673   0.415858639590713   0.000690313286160
0.974721144894436   0.522563607826560   0.988653972932179
0.970752859621548   0.710446761592225   0.907722807225065
0.137565872763428   0.607443766778179   0.027068175375999
0.015916738604154   0.517656141276313   0.267543831831901
0.026414051001201   0.657030723374434   0.193059676492996
0.942349708993012   0.714475653588178   0.264138521428207
0.973467353811492   0.603733996963151   0.283241213080800
0.013317813721929   0.519135218448727   0.295931477600927
0.039415348987350   0.638539891359592   0.256559091511316
0.020717764539111   0.591243418121985   0.263595987635432
0.918496522265643   0.682211924449911   0.316798303278766
0.015770428128484   0.647242121720814   0.412341329094446
0.054295034495829   0.630043825794391   0.597993239616156
0.008012759722575   0.547671659066943   0.647566802674293
0.126691621883191   0.471159480234613   0.697523155421199
0.032720579518254   0.402620603661681   0.762214494688039
0.047239735606151   0.727049094038277   0.661730786928001
0.937391211370394   0.679429882853335   0.950948991344796
0.147126128693735   0.641600371718121   0.966262186378107
0.019522677605078   0.784678273631574   0.991285894377845
0.890536819441924   0.533316391585037   0.046516059768304
0.146931594846742   0.674953472239721   0.057266751265099
0.915989170397037   0.837531231819511   0.137116439430984
0.241828316669710   0.590528705033089   0.086612275412234
0.908235336454749   0.496915546505547   0.184708096771933
0.857965841648030   0.682380615230976   0.009560530373932
0.877541808435157   0.705533492599850   0.329292433834419
0.951467969554424   0.654001100046081   0.287891451199693
0.990581844420259   0.534688231958501   0.367158372521158
0.002696597481842   0.386339100216378   0.481009014784120
0.924444742643040   0.588187990252476   0.627241464448894
0.028814488881700   0.793457711592222   0.457510708558056
0.253045967194413   0.426321837492281   0.720553325605743
0.953579638202933   0.712760790519223   0.525285619123122
0.044064134079631   0.551160714368431   0.578060082827863
0.003967861811917   0.610075303295696   0.687963815428164
0.001536608842017   0.623949711607112   0.734277351172496
0.020209300191610   0.570575283334983   0.734164074283362
0.030220370756185   0.771678633062422   0.679221747400547
0.070179523279491   0.850569393551506   0.974909801094848
0.821890308784042   0.761436950743667   0.935298642672079
0.999571942370004   0.534211428797672   0.802515788396757
0.048387823982997   0.932303859033256   0.992446965087624
0.902785012599320   0.697350456114223   0.980803043012838
0.048381225556211   0.640376914649079   0.189195818406841
0.013234319636923   0.650646922523149   0.246551468518897
0.839604201929102   0.802836597475685   0.044063550671578
0.041307581939275   0.737795241191241   0.410189023900196
0.030198583783877   0.584485293572133   0.290280841081397
0.923997053352059   0.753563926733737   0.431728475539817
0.843559449990689   0.608443665487603   0.582995794655626
0.969541905706964   0.991805649982680   0.451760123331330
0.192925152951866   0.588643571558105   0.628430834867554
0.071954048823668   0.559280834125159   0.623833413730490
0.090215532257149   0.814974945003684   0.772037520883921
0.996710850905688   0.675630104806239   0.777179988296300
0.116228330282389   0.697035450425007   0.783077016869336
0.900317535553001   0.942541101369809   0.662030852443530
0.950467414880522   0.712084127738670   0.863990941166038
0.911960245552810   0.810397075755083   0.092985186742479
0.212094629908545   0.742508284962360   0.065537889142778
0.903564937197119   0.845483033217333   0.721787519894271
0.038853417052020   0.784412681627048   0.088635784971289
0.008427527600449   0.936859976014973   0.209352459989693
0.816032195868811   0.668412187025373   0.044023775393829
0.071847628271039   0.697700590610013   0.048523139674531
0.017716330926653   0.729284619141092   0.166226813143596
0.934263768028642   0.717194808637055   0.378292684661275
0.895069020674596   0.820966127732204   0.537602061681833
0.872573401153074   0.004713100189741   0.301801202176048
0.011653672182308   0.661005357614801   0.219217565521618
0.861479615730439   0.749110733612788   0.536320296880055
0.975804962492605   0.719875089346052   0.505708237035009
0.041008782612908   0.848542800240514   0.379001848152524
0.868997448214631   0.760385546953195   0.629939077503543
0.819018408840247   0.732289265780163   0.815237770108313
0.144451285899304   0.859212287847056   0.999845563767452
0.062940349283614   0.805846690582926   0.776274237285794
0.958727746156797   0.868934610922271   0.787872818649216
0.093727681922960   0.603617678184676   0.803765321275167
0.941894039702732   0.665193322765994   0.999475709882995
0.954591295748137   0.887633094470064   0.881275268408281
0.025227065384490   0.885121337884104   0.076747633771921
0.098520557140246   0.621054581772048   0.157613448985439
0.860756955866358   0.768898571906740   0.219351653191826
0.852135130690096   0.849275458378865   0.275323583184167
0.967841049947930   0.812846406928054   0.386974875019354
0.905302509511513   0.692485261163414   0.291782381654390
0.988590105369384   0.066474919681548   0.398494476673438
0.022726958244525   0.822479177575091   0.449394721223735
0.992317332059933   0.695191961562831   0.423429408180533
0.118679346911163   0.859086158660253   0.361523635733706
0.074503663245846   0.813174450528155   0.363082693381810
0.918086431296304   0.759300505424868   0.672206621905998
0.933195587171606   0.723991394826163   0.543751597914490
0.873357373972945   0.865153580484182   0.627203157000995
0.011884378292135   0.723170492384779   0.695496681090556
0.114644708003248   0.878434042669060   0.916222255087322
0.023290713303168   0.720493132875679   0.923292889358596
0.106275536475787   0.802900536592682   0.835697984978286
0.045898372438579   0.880812569777107   0.864000299161461
0.022760861806728   0.985845950558992   0.199497690865786
0.192181781510783   0.744531275245488   0.040267843094197
0.113760167191206   0.939373554063024   0.132135214962950
0.071124956156613   0.076142901963232   0.989108972761461
0.015553252920033   0.958018598104565   0.190114020023520
0.013777047416299   0.083170545966313   0.401449426163977
0.942921483712652   0.740903592671486   0.361832500212018
0.144191152923006   0.947182082544233   0.440707284397077
0.124623644474174   0.828116417582404   0.363390735132841
0.864119859393295   0.761048986511323   0.661424491890271
0.080030464457100   0.840457813427608   0.574948161191385
0.051268140197563   0.784491067222154   0.662394067551703
0.881885596424859   0.725729086010015   0.458164821046477
0.002947908920633   0.883128772830787   0.577624408651437
0.964629745097366   0.850865836839370   0.809461380778790
0.216484689010249   0.858384118264017   0.654246926277707
0.006042359202821   0.881293273541496   0.548912532389974
0.076919532880096   0.864003714812497   0.949441082018833
0.960713302108003   0.926374904408191   0.986111281533940
0.136865041015352   0.904594827906399   0.980199967040029
0.977160006716716   0.942819340928943   0.967637151413826
0.993027088898739   0.159922898683850   0.206060881928517
0.801718769371536   0.891440178062765   0.026242808828923
0.000892590470575   0.827669614825168   0.096873973887133
0.177999137065364   0.805873621214262   0.135503742495683
0.949236577397545   0.882067491131732   0.103110853379320
0.836603225587369   0.019389021558920   0.544405216766544
0.957862934421076   0.942922946883000   0.433186491730132
0.848645900276668   0.991732621714560   0.289272679510527
0.816375235536911   0.034792324631031   0.529691454500881
0.214104386059097   0.864668981136299   0.521841054080379
0.933066246935691   0.971508849146767   0.578459367143821
0.141460068959707   0.004838490872708   0.754788113140828
0.098281930422537   0.863700210000661   0.573486847763278
0.229202051417481   0.880555646949107   0.668562946313672
0.141527316592169   0.878280510065350   0.663396908819495
0.969823375673424   0.918232023115434   0.739439616778527
0.873182419951985   0.957044241559057   0.893114364599048
0.107215898883307   0.886973689232733   0.794480122450107
0.120383898661075   0.917143469815650   0.725476776687474
0.951560067178846   0.897742493440727   0.743070021146957
0.025197098015939   0.021076069186467   0.970258187544707
0.892200420465881   0.912036306735157   0.099614648698582
0.008135798408786   0.934221031786962   0.376640578667343
0.083100097531358   0.920156942142605   0.202765788501342
0.911058392291560   0.031217377330530   0.224883565945716
0.020789541810806   0.888438952292820   0.108353466953442
0.018472308847897   0.003050239033563   0.173273665955448
0.928005358060974   0.960640082177488   0.232971186065329
0.948562750787174   0.897763904416402   0.415301811953333
0.088798577713788   0.010173904021432   0.547959394397688
0.974825460833821   0.042462034381730   0.445795342111995
0.241725832234790   0.916534357941657   0.581604043873834
0.226739100819662   0.802294026089746   0.664115337485653
0.200617782807222   0.917291985342014   0.518219575248160
0.014301401089764   0.934012609116651   0.761759032865747
0.120949764015988   0.986609203694105   0.764707489139443
0.070257298320404   0.924727856483967   0.008006261188459
0.867204400095580   0.001404490162859   0.935212378661977
0.958212535612798   0.978891698864464   0.899577269214486
0.093189649988671   0.186637896442321   0.159212448566304
0.023935767562712   0.993318745703192   0.964772733567461
0.109356967901067   0.921066315713258   0.197351865176256
0.138874812300829   0.112577293409370   0.005917139761679
0.051551802785907   0.096919031461844   0.084586521917261
0.142873928335120   0.932740045459373   0.129393057976663
0.025525101556152   0.834480132284986   0.323291906169541
0.934083063819085   0.999670234626645   0.411594172479312
0.123077812125256   0.203603831610835   0.260798668472656
0.939866058979053   0.868483010728064   0.413254792645814
0.979221086583307   0.139648691632190   0.467821432718712
0.169795236859920   0.998036083882870   0.744736624017476
0.031283971331100   0.970872009565830   0.566644716501060
0.076450528713706   0.043723612335939   0.609917618872961
0.179418706113724   0.983934022201835   0.837649831615948
0.260042564788176   0.062338273382318   0.904509436986273
0.213471140830400   0.005866839857121   0.989433722204951
0.998262520917196   0.035724892724860   0.742107672828248
0.209571669715320   0.919351368497412   0.943676763575200
0.964396142926837   0.056929501948773   0.854989254161719
0.072376487379191   0.102163359297679   0.898215575402663
0.012342831392748   0.139988957198969   0.145782547791249
0.228789106997458   0.946935823349633   0.156746402230527
0.983611577645713   0.199401041790409   0.271600940539846
0.074686264770734   0.999178236590318   0.107635842028551
0.050345345226991   0.128040220470441   0.348832059069045
0.826794458131617   0.906417124809010   0.203662797296151
0.050505386948774   0.999484959066057   0.396714875375325
0.950772351169053   0.960206783016896   0.254034917805551
0.952284137299786   0.135445803540457   0.451004680375794
0.041727728122599   0.182348707664821   0.651939313378092
0.009120839786405   0.992205146657000   0.562929704124874
0.009657915782119   0.905353773552951   0.694250934867191
0.176272213621997   0.132805818199527   0.688131025254848
0.144269610491060   0.256772865590122   0.832328070833652
0.095913917041780   0.092715578236502   0.818326511931061
0.021243618147467   0.216897070494611   0.940495336250449
0.127219516764506   0.139298075675153   0.827116390961441
0.992529794067369   0.157086648768353   0.902629403892382
0.168659740592034   0.120449016364790   0.884909045958559
0.171653961744370   0.887582857904885   0.930318324258832
0.145597884769628   0.247120614547905   0.982422461419062
0.019226803080752   0.126814569604661   0.057162271440147
0.018640210110200   0.112853803602343   0.981757588079728
0.129902257581133   0.309675957891126   0.223210689252296
0.967787367551416   0.024268554176491   0.273315525287255
0.135534622126672   0.932955739621503   0.191842072605550
0.204157917919174   0.104399384177509   0.326441685918248
0.957437918918139   0.087138840362286   0.427685789873960
0.963333329459271   0.966900730155072   0.382732351006705
0.987357549597409   0.236547765748534   0.656022424487204
0.119137824509856   0.172959634807742   0.493761918384067
0.179629576690508   0.170782739330932   0.736571435482245
0.153737083627736   0.206472045893679   0.838925444949140
0.021124628704659   0.965116284486521   0.423344327631980
0.058489024052088   0.289150935924349   0.827940274278900
0.967482445022528   0.095181076898235   0.781010009508023
0.093993231738547   0.943362183628483   0.761408515181930
0.011741004961661   0.140524553285672   0.770249361112537
0.256861425054659   0.186322895511476   0.919875923651766
0.012627394784371   0.241678502391322   0.137243581806258
0.209694698148707   0.198060165894410   0.920874862238870
0.946137901664338   0.211055545633528   0.934248081112481
0.966740091540576   0.116390881595640   0.211606903611438
0.115631257722806   0.144916886034603   0.299322725696802
0.040647858718289   0.113724146659152   0.230949388622839
0.187235602838429   0.331319215868115   0.311865916113038
0.044488652441007   0.196179270363646   0.328674460169168
0.105885341822867   0.200366683837716   0.421952203458576
0.025425653198703   0.029510458283839   0.614502952247678
0.119836907623623   0.192058576077191   0.519059579801196
0.848922680713640   0.163140189860652   0.554393012031511
0.017609831223591   0.210963885153534   0.620190522893416
0.091941715084951   0.196342225175267   0.564003785136899
0.117753676249948   0.197447826294123   0.696453907404556
0.946910812767433   0.270007145950344   0.744442874515991
0.969525721413519   0.224277515655300   0.739038663802881
0.041547508133489   0.144577533116128   0.013308964231655
0.068039216398887   0.106373201965768   0.946246394017972
0.159055585433902   0.221110167565682   0.979926427095835
0.002408041950196   0.141116752367985   0.879694864151593
0.974939596034705   0.268479629598666   0.924485546467262
0.988217701193588   0.038233571937964   0.900993933865967
0.007558812723727   0.119250261605767   0.120371005940692
0.100075956401476   0.212548939925514   0.166783709645126
0.084069847300867   0.174674316029671   0.133700346026027
0.096128427982329   0.235702796794121   0.306230911411831
0.969333574485652   0.287359090759622   0.534492314998755
0.186614738231255   0.123720271401856   0.272900874957173
0.849235074869618   0.367676646110606   0.421386171308946
0.775873139793718   0.218537786563802   0.511715477310671
0.854635658273795   0.044375131600744   0.420570717781773
0.088175493971883   0.199157176039199   0.690392687781088
0.064562406843896   0.199552564163047   0.576708036020789
0.085326902468691   0.158408750600765   0.642233532148304
0.017975474515025   0.242657638538479   0.698667687203091
0.013357630814420   0.172672056767049   0.712728923367293
0.036312397771378   0.253256929471284   0.718016785676090
0.162975158419440   0.088229133967976   0.972042328609761
0.231364631117961   0.201928130385632   0.825114866362957
0.044028596730347   0.155438475740618   0.963227793075662
0.030553627926387   0.324922539960905   0.274438564901121
0.864038128009589   0.186298131100249   0.155228825648066
0.121444217556303   0.253999308192486   0.968312032492178
0.944441069073240   0.208180189197807   0.070576572673102
0.072713915642739   0.289383852683649   0.216000381203538
0.994940307431897   0.197149274701512   0.051179010711321
0.165693857068167   0.120214405976460   0.352314110941963
0.073569258444474   0.301689897664091   0.373339537343844
0.957822718899248   0.101187556051664   0.496186432391963
0.125894899060201   0.115307164609925   0.449584214302368
0.057280773762672   0.288069774638341   0.596448699940212
0.103741607653342   0.303153896112896   0.546289409907092
0.080434399262312   0.183427153513083   0.744203931308706
0.961875554667437   0.281047704996317   0.720747860525913
0.022438141110349   0.086143206034246   0.505360501857045
0.042067659380687   0.193237469351788   0.624039078674071
0.119590523027134   0.255478371330554   0.752916533042351
0.985952295649142   0.310807952162920   0.776588059223359
0.176790240175625   0.273841657094956   0.879116856046143
0.127215540195766   0.309435703224035   0.986768125898842
0.065481373139867   0.358082147669094   0.004053088039727
0.053584333410568   0.352994366554283   0.132073522652370
0.143815696295437   0.061582488004046   0.060088685373318
0.051641026236588   0.362147050030548   0.228706629838029
0.199894283214695   0.341004929005444   0.210274688750930
0.296639760323357   0.045842117196437   0.276130811548095
0.050818284608919   0.403292316757458   0.206980688918170
0.145433302031771   0.263564892483445   0.392370985033090
0.141864354884344   0.242175417205297   0.415349924622765
0.946419578967316   0.209673614950088   0.591178682375166
0.995281633531037   0.429257409339378   0.517148297837559
0.140586808701523   0.489707352499475   0.497551889653704
0.944493211633357   0.487075435918953   0.752938617995930
0.920728480523850   0.377000811374575   0.720070519703949
0.859014091558525   0.358492463833603   0.718117137308697
0.965061844719719   0.202775298368728   0.723897171952938
0.063771332585016   0.366075619126695   0.872937986421613
0.069070080180292   0.337925267288217   0.749275494396436
0.077678396532799   0.314662044394404   0.872342893012978
0.221736874466842   0.158966234444686   0.053323281024380
0.905548349777005   0.288877955536404   0.045043373506761
0.911920977924102   0.432588808489465   0.053240560226430
0.074319541946082   0.198846498365926   0.117102396104665
0.043514756477388   0.254650165795037   0.057745907000193
0.852271428780006   0.290670763561014   0.361525483705751
0.049938864638202   0.490948211331434   0.352552431829895
0.010714651726944   0.518670866022397   0.323512515215821
0.008273879555793   0.341068578615248   0.400973421474366
0.980496275882849   0.343683814482446   0.223427769009500
0.002488930361375   0.350750846406927   0.624847593867848
0.022073827788892   0.415414458354060   0.582593029570406
0.976212408431276   0.423123969182952   0.540459321800861
0.030902195036888   0.317465632651518   0.485124868329425
0.102967401844039   0.303216247845531   0.688687467357772
0.142116832339782   0.527100882052567   0.811159053206699
0.948411098641291   0.303228080595434   0.825208323962868
0.103715801661367   0.305613749793875   0.883241346118333
0.966990447872880   0.357206849754476   0.882064460058760
0.038187807858673   0.311495176379266   0.923081399927783
0.105298565332099   0.146146606127631   0.939570295449560
0.208939730107242   0.625998492279450   0.017851421469505
0.162812650068990   0.641846509829466   0.186444822587141
0.837418353894792   0.528064769464705   0.092745646319571
0.142511181486398   0.484340510194385   0.230063866155639
0.881715961575553   0.490683693165640   0.106649833338999
0.983833940264210   0.303746391888202   0.377529824502875
0.098881314954345   0.292551392027537   0.471235172912692
0.149642860267982   0.450598978155332   0.436052242816602
0.170149186081959   0.484860575856969   0.507923234048007
0.140667656558527   0.592424733645080   0.383406133005793
0.961284295632838   0.302435861970492   0.511675418930356
0.192737658236504   0.239723616721279   0.617149651141029
0.868171714257209   0.368851314871546   0.690903107785694
0.022047170137663   0.217204815193864   0.874480570538099
0.927336678928556   0.507901147289615   0.701692733057899
0.181862725901569   0.361598966869999   0.736466290935841
0.887213119572662   0.512840938369725   0.737009193901114
0.184739611077859   0.367508118640327   0.962828557279518
0.912891617512610   0.264359804123115   0.971682798897891
0.929524083460636   0.542487902965141   0.864889633598391
0.989728891873117   0.431485147362319   0.069194244650137
0.140822056343487   0.418692061037587   0.098951086870914
0.810284856048158   0.463871598398688   0.102644576279540
0.954375771711471   0.585796825721804   0.296683868027298
0.021336635887951   0.431625393451228   0.182840762368133
0.004032899710699   0.435151455143682   0.157471379383924
0.026061301144910   0.506852026775588   0.347128150790263
0.020489789092817   0.566040421262209   0.564080273459267
0.131925932136664   0.566929419041485   0.311143323181109
0.132922803985320   0.466465483374943   0.478897843844320
0.932223147881790   0.544339899317973   0.448388608032836
0.033775497699264   0.350695399202285   0.412876234728645
0.030756273765803   0.546850745213498   0.692466694652953
0.064670363148909   0.537908174567649   0.497692027533756
0.192727962509803   0.544061830448523   0.821389118450543
0.086749705162147   0.475208066707025   0.850140840027051
0.952345155191870   0.580971189758163   0.757959979952671
0.998978897767892   0.460225994401449   0.142219347162354
0.033970820788999   0.364400995156861   0.912378688409277
0.017780917707036   0.377718959653691   0.931172296189616
0.984155983920216   0.450712231345168   0.091049325063002
0.858759322862072   0.407401382508349   0.998655298896570
0.146052722411928   0.400766283477863   0.075769455969387
0.076097626689984   0.668972170482469   0.038617600261121
0.936302670040793   0.522699719777808   0.327831519112610
0.037706834488437   0.553985447288243   0.491101775283135
0.902985829650509   0.372537542680784   0.211974310409626
0.014737259642000   0.517721222439717   0.372869230568038
0.910875979425683   0.554188599188217   0.379882174780515
0.977210749141141   0.603120038795470   0.400908415471448
0.958809365821812   0.524455235299645   0.522594199728202
0.052947986863750   0.602824490627757   0.544698308086205
0.143277721122185   0.602564272701445   0.558898914251665
0.935925734229401   0.606835161446953   0.712268455565935
0.039376215084813   0.469072455911193   0.826601437518565
0.122835385690658   0.491796686723362   0.676485409205687
0.959742502297323   0.512471387716216   0.740611359737820
0.139962036134673   0.708073579286064   0.995973395713857
0.018964977100951   0.289147201475206   0.003174589617230
0.032440744858626   0.593135741003327   0.096589488505778
0.216179608833584   0.559442507962187   0.012276554356370
0.030083522373029   0.468430958351472   0.061713627022016
0.983299709860115   0.661846964396497   0.162421144026499
0.055185711778639   0.604175045802379   0.222855884948394
0.991135845219540   0.593839566663403   0.259913329536927
0.053342420726002   0.490363686934615   0.382598461634867
0.903223492253876   0.694546668529264   0.339914621447770
0.230715319899323   0.468383612071737   0.387713287520191
0.148873806994331   0.413935791315225   0.470887572746385
0.125989261227783   0.564047526426641   0.528622567218507
0.162977677793349   0.496172287056903   0.621866487978472
0.929796434796520   0.513425987140747   0.650469061756431
0.903622410491482   0.606598377530530   0.670069992830770
0.014168403614137   0.509235987664068   0.792579632980740
0.895933003189715   0.400457174498728   0.757686777537618
0.058743108280764   0.631318710881313   0.770355625833776
0.967113885514251   0.602928780190578   0.033403389342267
0.952397332710932   0.650920427609058   0.018730185253194
0.190022963334353   0.551854967589643   0.940962202338579
0.972780794716865   0.528044004540377   0.881678900521481
0.055880140503698   0.551932561398768   0.134128968163928
0.960539981997774   0.632204609932546   0.038553631738399
0.078710158963576   0.569170565680174   0.141230307883031
0.911318333284121   0.553855982765057   0.276664270026103
0.163711803128714   0.545473243390394   0.228446449719130
0.338682265058147   0.515596469695210   0.347884916438119
0.076688851974508   0.556951268089597   0.341468141508411
0.961338865759075   0.499057828770606   0.435318593695762
0.031440885620243   0.560060484263197   0.463294804099769
0.154614135160860   0.820643491055764   0.366198209703634
0.012918024863816   0.580462983581324   0.611603328002394
0.947805100692317   0.735413304736568   0.429616437572037
0.988278460980504   0.568791744911775   0.659277300262501
0.034354616086093   0.626881478169709   0.622292403343621
0.827661695388043   0.689181906634748   0.729325229099830
0.021732904243979   0.569497145662019   0.870867540482181
0.968373111011601   0.698857488192664   0.818370589017706
0.174003635124259   0.644034132302380   0.975429262661308
0.131246038776819   0.811231614028171   0.082150154307860
0.120153834166008   0.792242412776053   0.810912682248765
0.991868674124907   0.834512939022764   0.069658322114698
0.033972527651134   0.707014377471953   0.999142722618918
0.053205229276528   0.654465397499978   0.276109929042079
0.989298309497072   0.819154599469363   0.200108219692974
0.062023705484925   0.604882367701672   0.355814560262600
0.886929142750055   0.865821553336624   0.308172014075038
0.263372496308024   0.676615326913308   0.312905927777436
0.049325553953993   0.628174596507287   0.500972215885039
0.023869009886930   0.617501816704849   0.452620202430002
0.013843219240238   0.677032067939542   0.409719569385470
0.002710314027051   0.631352612658906   0.435208071888237
0.093008873935471   0.581575700984215   0.633288750447528
0.118070284449066   0.895628101543309   0.653955674491861
0.146563911733015   0.778825745973394   0.603572087906600
0.144049000094718   0.480368596353016   0.720728758486114
0.997415093535665   0.722808452372191   0.756044236275707
0.074928546533395   0.825311462048079   0.015964617098047
0.901385354812964   0.698818834712981   0.121239900456692
0.092936962077361   0.682505296670046   0.902053237430306
0.095560129405598   0.703086696753134   0.922121076783918
0.120473837276411   0.638550002735896   0.911723563333434
0.888165310532239   0.826469204364984   0.050747914484819
0.948585484066214   0.684130183490625   0.133360867232754
0.051206650973225   0.745571269946114   0.200842925069069
0.919514239837878   0.669347069734289   0.248435604701402
0.938524120058070   0.658710831685284   0.316114905918286
0.239426695020665   0.806270859389866   0.122729978751026
0.156787371593253   0.606541303190563   0.315848648165300
0.935423286983218   0.903209712706793   0.464894086783201
0.036868810493671   0.775256120085082   0.478317025808775
0.250586351789388   0.827623995596014   0.573126813867255
0.022703816496636   0.791469148034304   0.772914832954775
0.914649459414728   0.712422361078922   0.703408513924200
0.085119227471724   0.666460283990256   0.678161988171868
0.121101969826374   0.956019686207334   0.766943640791327
0.942933677514188   0.816756273817615   0.724787067532065
0.083481197458069   0.606057436182203   0.832536484530172
0.114811525248360   0.828878284653065   0.977966935423139
0.225644204263413   0.821203991560949   0.829619753886132
0.940064290466710   0.712145618310004   0.911691662610535
0.048955646507751   0.840373145287754   0.024113437684996
0.004033032565162   0.816031294337740   0.044686210717990
0.989616741441898   0.666482175108953   0.106472635814090
0.054994773011809   0.895995014074297   0.080906770577524
0.919785796055470   0.847822203512386   0.466427304466036
0.939548037715270   0.631766590536935   0.237287228143909
0.930816214317039   0.803945074434282   0.492820053865077
0.070305093496397   0.749930418854934   0.357513810639241
0.322777959554389   0.612832319663981   0.435075760465132
0.048577100039421   0.700892716501165   0.650105243314919
0.125001891687683   0.729187721455748   0.406791596911492
0.174829094533598   0.775715236078591   0.597821538542346
0.907820840901090   0.735638684058491   0.689639582214850
0.995475543900053   0.649610162057880   0.718299265923394
0.986366072503134   0.850364442871412   0.830544339022682
0.138488148584925   0.706427446091342   0.624671078784670
0.173241700383662   0.766420605588235   0.029602555962975
0.135856183640552   0.624674416999513   0.052274687892538
0.057257819220967   0.716549087893380   0.985404252914505
0.861381828544819   0.852389962186811   0.015871171839046
0.948426729986784   0.854486004219064   0.951757569825287
0.105247062009389   0.827388696584005   0.079828849327702
0.037874277295732   0.757641159315398   0.081763222503668
0.043454427786379   0.818095146394193   0.193844318883527
0.972536194098478   0.872296696549728   0.242092609422710
0.952832304768346   0.865358779235391   0.257528768431489
0.162391444058711   0.794899711885894   0.353455974134087
0.104328998706988   0.949439508804954   0.406004594981312
0.087867739213535   0.856849560365012   0.449615439966985
0.068228480747107   0.799878851618094   0.649421864940453
0.881929794061118   0.027003513216319   0.574995558720951
0.054381315745853   0.893893874855589   0.587122079960932
0.142613807489247   0.735443680548352   0.680005165193165
0.892539879042572   0.871122803788475   0.648616665970482
0.798068725735332   0.846641308767745   0.599629161087797
0.035550332827719   0.787090936211457   0.847117606281817
0.946885933600119   0.860696585129267   0.893105917932305
0.080648633165604   0.807434879191828   0.840706518718128
0.002546754647160   0.802984281247898   0.982095406229630
0.111130195950813   0.644660924332315   0.003546019530722
0.113566976030630   0.853729931686605   0.066540908246236
0.141887130362812   0.860574449265132   0.855718220065734
0.981532580931441   0.862734079610247   0.059976283950392
0.081040869725439   0.818888975552566   0.096798808468040
0.032638430718852   0.728384495289687   0.218430196528498
0.053352795675570   0.766577952057619   0.313771622517184
0.954781285864916   0.704583008520040   0.552772066305926
0.157118203440389   0.016457482950761   0.326799367658073
0.982672027566889   0.817562216539084   0.411574637980301
0.023058821474888   0.869836988739747   0.283446000448616
0.180137504010659   0.839153861038977   0.626914523175547
0.060146747246906   0.917702351622634   0.658099226522265
0.025232030395561   0.900984507790092   0.589905674345029
0.945122688125818   0.968820601041931   0.644990176940083
0.128584711402726   0.058426698625198   0.594723470367532
0.023900754744044   0.682225900328967   0.866821047065706
0.145088801401579   0.936099325474663   0.765019910331074
0.193590681399596   0.877020362542079   0.721801540010947
0.915324335657716   0.900208700657011   0.984090142273274
0.001690708253754   0.033925695259147   0.924436349485466
0.954009951146649   0.887565121798942   0.017116067341307
0.975083992550841   0.670798151068896   0.132700146556627
0.008466373335620   0.076863131837283   0.024901609575559
0.153026790096166   0.923351801000664   0.300964121469192
0.975897311330235   0.633033615277510   0.284865825216675
0.013701150270582   0.687660416906386   0.233284948935293
0.943120409338026   0.855833934248378   0.387449012750906
0.923136090692092   0.113123359601784   0.535793677586258
0.915906677713990   0.803115540894279   0.550257666178338
0.196176784371756   0.886264773637129   0.517203973269297
0.060813363770989   0.879747318037820   0.490281077396940
0.088055942731531   0.922460350858744   0.514516359515437
0.141800778172158   0.964901637757360   0.551371119964611
0.019608834122489   0.929431835505640   0.598586704446687
0.871075398202196   0.646811909266956   0.671247281815755
0.840942917296322   0.894745399113627   0.869271451668241
0.863088591908551   0.947753754250931   0.694017501823126
0.884786882566269   0.780478626471681   0.609963271798781
0.179553394736776   0.802808309603258   0.914445951027002
0.043459495086738   0.061098123962733   0.134197220775267
0.239099758636902   0.003688932660261   0.293639513396093
0.009284146454156   0.984373436817925   0.149684718599195
0.158024970910248   0.902375903220252   0.907199890204029
0.085322189974269   0.803790376563657   0.126136127703679
0.118878156582431   0.872116440171692   0.333323911423252
0.009882747573815   0.943362996772940   0.319697111125442
0.035651196975910   0.929353101261119   0.308039932593659
0.101294060304292   0.900052912890079   0.396757250049367
0.022361607508204   0.850663094932826   0.301705523212480
0.063306673389386   0.859338309615265   0.466435753242336
0.079082492718425   0.900822854130159   0.502399320734749
0.999531558913862   0.964930094985507   0.628245126334409
0.917142868787782   0.118248187826117   0.562955714964270
0.021521277465404   0.959277624149770   0.647528018466484
0.087539700570907   0.885678917542557   0.816212604895665
0.907049915058778   0.954505709547637   0.715653356004409
0.802121292122271   0.046227090980367   0.856591791891799
0.072383930399453   0.896685966685291   0.863660671011542
0.018739278970448   0.925551821270161   0.992010069477621
0.167999174103093   0.097720199531010   0.906841763347650
0.006071113153372   0.943827216886156   0.971989501080147
0.202960210192959   0.247669953804359   0.019755332809299
0.056506480313558   0.886938762783726   0.813156352362254
0.108275880260033   0.969217864363476   0.138961547118965
0.050171715783005   0.261191444537564   0.253426629117077
0.234507820654198   0.952208869174794   0.234245980890354
0.061609921706947   0.120216065729581   0.397407255230059
0.118396388258484   0.004198979449586   0.364835830285744
0.204338340952662   0.051956557648391   0.480713410981918
0.175003113995887   0.973497116960132   0.388904048136998
0.054297142169206   0.008873452150823   0.321499434463386
0.034193667737863   0.975857103919387   0.670667605050616
0.093158126487911   0.996393714738968   0.771055760420514
0.060336830277869   0.964873826389310   0.489878312311720
0.230039513058978   0.069038243786483   0.906394649042915
0.182369302120935   0.905073203042385   0.671780590515207
0.203881265401210   0.126827774569920   0.980333453486455
0.995398953731496   0.073396246626859   0.812780374433453
0.027131488900537   0.965047063057466   0.962663921112531
0.033254324493777   0.139409397345504   0.985112828144975
0.020886945038875   0.097924230048480   0.954795230831724
0.085324175062934   0.964742244713575   0.344740971724429
0.082230878157735   0.146026741166433   0.123158216105707
0.074414000770259   0.049400317537910   0.171656230954836
0.072691090240000   0.961883073359681   0.317230602163787
0.198846001188909   0.965153692678609   0.310529269073003
0.151590340940643   0.898007713873817   0.381938201896974
0.007823277790957   0.180169131544365   0.362582631302704
0.084076526028309   0.058425715496340   0.492985213202232
0.086397051685173   0.172020875540885   0.479985721359966
0.042265477480606   0.112672843534467   0.500931682854370
0.872990199197325   0.107565183130585   0.592948079745448
0.967293060304088   0.966705618475344   0.921602121511169
0.023234001537647   0.886233514301617   0.711137262513767
0.108565115995677   0.915173346607318   0.677954023811016
0.127877975930657   0.052638099959603   0.651762310987217
0.873931547919163   0.104450679652650   0.002091680726722
0.012049174266450   0.164853398893325   0.924794929896628
0.093592709478235   0.126039540346112   0.984342238569256
0.052508856429359   0.949100900546547   0.967260802202970
0.060487158358650   0.035084501073308   0.017175718950703
0.077356294309547   0.122698377065783   0.143575037807457
0.138328002623545   0.126289459731562   0.358589634145454
0.085505748346287   0.011710427719395   0.080185410048869
0.199634411319666   0.129663250400538   0.392297650498629
0.240057484222535   0.026756314099505   0.194634247402312
0.309217583685015   0.058984434439901   0.539976347134497
0.055338207211740   0.137304389081367   0.450219180450290
0.861290313522471   0.106340662452369   0.414533857214468
0.003821909101277   0.183845826245703   0.448051443845644
0.999039609569892   0.091195381799176   0.487393834142444
0.038474011746934   0.222641492741806   0.680601492692720
0.140307710691880   0.151113504858875   0.712613306979303
0.046993873145307   0.106470964284528   0.769016373490686
0.255731073423230   0.966192988163629   0.696717593607402
0.147775160670385   0.150459054104491   0.845511783971287
0.169642512303714   0.998820867344856   0.949864934237110
0.031782136838265   0.203419996324541   0.820178471038685
0.173450031899054   0.169176859652443   0.977679246679284
0.113821977563157   0.117461590414886   0.811880996395033
0.027236826483017   0.068163031211512   0.956984402646353
0.188610015519639   0.868449797033853   0.082792143382418
0.218232982475630   0.163962697655328   0.335831797238427
0.140087830119344   0.134939882635603   0.285237955313273
0.986851281682673   0.398481715901285   0.119240516847738
0.151496407506640   0.984123022040965   0.404613373698359
0.135172604444543   0.188518210242132   0.471880163676089
0.046523376888478   0.108975404327434   0.371593070859550
0.076062629815542   0.323990746000225   0.440021705754525
0.901169044131940   0.262604858001931   0.566592922654439
0.965865563056534   0.291257297116504   0.608396953055041
0.975130243523656   0.275547535713150   0.557821563426091
0.067198245034477   0.165449448984761   0.720787195328133
0.020091126471036   0.198480967060743   0.668464465858238
0.146146639880752   0.345210477293783   0.894255154026593
0.050405149208254   0.253803218652834   0.634669253070710
0.126094842641233   0.175872249111977   0.719582790095818
0.879683730881575   0.327543452484571   0.794964029540722
0.931853705700813   0.238103402677156   0.931337255118844
0.057189466809624   0.124752192066265   0.165663661594225
0.046821265196864   0.214231560131503   0.085900142086460
0.078699503409544   0.178608752419477   0.903400493433141
0.190805986821522   0.156458987589294   0.147635400718228
0.086691861939046   0.141031116425390   0.290622722238329
0.037243990128497   0.193729484391740   0.210013808891932
0.236574541845943   0.188787960489948   0.332164266774091
0.084584738150111   0.216844918023003   0.226035919965440
0.951097179629707   0.165229146070494   0.292852496699013
0.112006441897199   0.320834130560292   0.344494685148780
0.879699720937967   0.029048162499661   0.473497185625415
0.175582247173065   0.258603639894266   0.608866671264408
0.299001454116237   0.368292547205488   0.711287022083883
0.230659697194529   0.333327034314545   0.728150581280370
0.022850639509811   0.193007663852976   0.794886646766130
0.081139931103759   0.080035845378185   0.797245197032172
0.111674942596036   0.280842055847211   0.869447795877292
0.931767123779865   0.186051452972303   0.665584333920822
0.217944048498353   0.224300998789045   0.023360287818059
0.042511896200907   0.242649525938640   0.005872278088547
0.045125659333324   0.336030073505551   0.909181209464335
0.012006873948069   0.397187193578760   0.035607916201324
0.097301150161072   0.260363086591628   0.960129235483594
0.166669804500366   0.125252479374089   0.295899876435141
0.059141953290572   0.281114397909994   0.387740239222066
0.157569226659020   0.318840542740238   0.133860716457545
0.119687097552838   0.343104431110751   0.526630896361371
0.143730972599186   0.136345524860418   0.254784232497628
0.070013207304464   0.197527074603994   0.483773370007204
0.026117433992411   0.184350524752468   0.426838226777732
0.055128568054829   0.342643302637491   0.431413478578932
0.145839560133809   0.339740077875216   0.540590411790389
0.008598449475157   0.317914263144418   0.502575407577830
0.172206596782117   0.414373711236665   0.664311517860384
0.135060312278513   0.246625646520515   0.733082483247959
0.271750442511015   0.414663874500702   0.579038250715479
0.060348305403910   0.280564822046366   0.625881538445944
0.180469665929360   0.247582220723496   0.866631003392663
0.167071211076988   0.195566571030425   0.978394574296462
0.016195062159412   0.179532262293939   0.062074592709423
0.157029488980738   0.092135477378052   0.019557328469284
0.096149401504981   0.354093670638969   0.998897094225092
0.125365613222330   0.397159302695529   0.055500662735173
0.011924708727712   0.293275092176134   0.130702047246053
0.104725530836039   0.238589650995483   0.168421336482750
0.144383538993269   0.234192063309229   0.345209048698351
0.309310427598915   0.490522377498321   0.277412196629590
0.188752578079336   0.112869202274985   0.371416629610872
0.073646815628620   0.261397909290482   0.403449528920956
0.988748083981076   0.217193418255294   0.502727810423028
0.297356489873875   0.165341540820385   0.564519158381643
0.985514356893537   0.246561384259069   0.603697591788852
0.158925254201404   0.308078891986192   0.458816490667743
0.127960410465960   0.135369059768695   0.690780941222820
0.300374729670885   0.254283879192095   0.843777668943981
0.152449596462646   0.381839400331707   0.701260096643737
0.070602707221370   0.327175602008102   0.773526328170085
0.933417558597188   0.437218542187089   0.912923162994610
0.046778917064192   0.136941346354054   0.858194213596238
0.260502888622116   0.206168256492461   0.897249149310025
0.110682789993759   0.376373294520957   0.014639982530265
0.180449825326347   0.193005766650612   0.919071340672477
0.168486585580330   0.537612629267503   0.005231186989171
0.184255297689859   0.331800522431416   0.141798794080470
0.095636762555930   0.244384026484784   0.222622660750485
0.004079229266335   0.384998296776029   0.164941585925703
0.068786430202102   0.380321030539092   0.211999675724540
0.061135197158365   0.508904121688959   0.504628323097523
0.220915341859768   0.458994300532539   0.446612143646174
0.054635618211287   0.427156356501561   0.465137394664185
0.049487946732452   0.332124272857608   0.616537364841797
0.223776977378972   0.256955906528653   0.234145283290377
0.235327482871647   0.321061835725267   0.649280309438010
0.953770143209508   0.518680744813327   0.711073750077296
0.128009100038025   0.316782715489980   0.690802486129774
0.304166187697172   0.274579213247898   0.865370842565438
0.135284213709318   0.336364000363154   0.714256751131665
0.223556345612321   0.517286849660149   0.962042409719975
0.307788701983888   0.224529102299068   0.846585438852772
0.132486817185110   0.529822081391013   0.838745824597868
0.184470731309631   0.472724260471556   0.942453967223837
0.136979660604221   0.481372222553646   0.952253448652606
0.100656427791115   0.451980682872356   0.938674119718861
0.942342402485317   0.469331296833457   0.209909567235980
0.969570670455577   0.365008578308797   0.294470533345318
0.167932991529447   0.344315311071577   0.208494242786143
0.085454433505654   0.384696278010198   0.168703291239374
0.115857140024268   0.492885457321216   0.237306783738491
0.081266528766792   0.215620866468795   0.433114908128087
0.012939024807065   0.368590775383356   0.457125062528934
0.164304377408659   0.296810847930893   0.513815501350603
0.114102024577040   0.343106658747550   0.731249178954024
0.158219839421862   0.307173359654072   0.612394340200676
0.066538137054875   0.328518943679175   0.520702118953549
0.176818888828008   0.390953983958928   0.510817497908627
0.931931798314166   0.352168509644030   0.706659132613211
0.932266259697159   0.204543238581643   0.646714936081523
0.062797713551433   0.428945194128334   0.845997471528118
0.183080134172525   0.510295053443350   0.755330225022177
0.115623289403073   0.434460527815407   0.924418500522601
0.088841081224296   0.391445174381541   0.028746005942424
0.062188180131236   0.467713745333011   0.063260574124556
0.836133414453145   0.416673876989420   0.017758674305148
0.046764105618566   0.314116466213335   0.250826652695010
0.147981536409156   0.495354449429152   0.151931719281479
0.088866077615453   0.493935651379213   0.225461989633920
0.996505077726693   0.406970591224382   0.147766556104027
0.915386680993794   0.342148405380532   0.424942365676706
0.125818657872517   0.491971484810144   0.321128150299196
0.978285636324336   0.502929826685174   0.525276098691800
0.073783484006640   0.429261370157325   0.447536648619552
0.201672617878887   0.413010391390455   0.594486303407349
0.149884327231436   0.379559519399859   0.592703725524128
0.147985895865675   0.317141223516560   0.669156672729287
0.121421181672809   0.531139206130785   0.738969504081977
0.181674172233394   0.467772067374281   0.686033612846641
0.130291030195879   0.481094638685578   0.870557091726465
0.119876471878815   0.482065873714924   0.646992741550231
0.148876054975640   0.428502193296078   0.887856841940874
0.061625692416746   0.488220269535672   0.891400322007820
0.927009414794532   0.414179446811609   0.072653758647560
0.143631620017793   0.608522782648790   0.141595810383999
0.028536763828621   0.551065580019585   0.149326317289433
0.039932671616134   0.498637592642733   0.227131600732905
0.099618946307585   0.435906696643724   0.171557049282612
0.928723771957081   0.420304308703711   0.216697604601439
0.076099745705777   0.558681481882071   0.419417975603537
0.176836797655275   0.460315504549265   0.441231431289919
0.245260793708096   0.425501021323251   0.225706886011421
0.092328892373991   0.431107306218651   0.425436626473707
0.226567358213905   0.516702073464747   0.702112155206206
0.178898795707032   0.405620702110612   0.635180561198868
0.062495079524760   0.547084364880420   0.599362158661145
0.211517929365478   0.513129891181257   0.676607892202131
0.172358741877832   0.416995826580618   0.524264217971712
0.255107500287313   0.417626585833978   0.798901264774391
0.046114644974775   0.607634886709084   0.787293281114848
0.127508908611225   0.546024568250363   0.978084437755202
0.076381371852434   0.375145606266581   0.847672634981465
0.199497610251361   0.525161257866332   0.945682876460438
0.265651019305397   0.569499646003832   0.003672766047600
0.237820348577110   0.768385870283224   0.077397699918814
0.081598089407336   0.605118989725032   0.177414799589559
0.083768765476885   0.714624231455083   0.971521403010654
0.154495299806617   0.458205940110425   0.216042135667784
0.055474082743591   0.578950994240792   0.338852600773849
0.092168033352403   0.459622230467153   0.413854562942603
0.139750991481725   0.466604415852116   0.325387742738573
0.232034842371861   0.561193163019212   0.447247776414148
0.051939834641087   0.317196781458979   0.591321448763401
0.000836594060995   0.725299179332354   0.519250682471918
0.025596711051414   0.741726688696907   0.608143892691452
0.149765452501429   0.539834606321062   0.687392538919512
0.933449133517590   0.482322318101344   0.780919918761289
0.056091012521955   0.435625807143326   0.652242855443769
0.136472564985391   0.623411799467815   0.596967707951889
0.199720450479598   0.634206424281559   0.796976937309471
0.920118942203323   0.443330247789200   0.975638210075781
0.145137453881307   0.631410223273771   0.163570256500739
0.060688934182057   0.743613674242963   0.035533536170350
0.129163050175745   0.658789661915257   0.982199839855281
0.190966075837746   0.600958331495393   0.031481562546367
0.293201433085826   0.678348491968504   0.046733602573298
0.178708962908658   0.523376277579826   0.242115831427582
0.946317173909081   0.697358507646583   0.162387876732492
0.086988455485453   0.460587608950115   0.304748955967221
0.031759521436165   0.630662893020058   0.394598128876035
0.102351370210087   0.617581166376493   0.459455690696822
0.216561014983663   0.631191877731782   0.163170884216249
0.023617185028486   0.562345915989668   0.518209961996325
0.145685179660546   0.572575034681603   0.550081971712883
0.155081711675086   0.829296321100647   0.491417976801141
0.081137331798780   0.600529251196972   0.727908682583548
0.112109586763314   0.458107044558202   0.634210873730909
0.003874900033636   0.502650836978415   0.764510467051418
0.008185111405341   0.599646295444090   0.716981381284461
0.124204904162707   0.511094209174355   0.506761956601629
0.029941468309995   0.649223940026467   0.640594136236072
0.018281417388308   0.599359959696248   0.778007742651090
0.110942350142054   0.660452296456760   0.899404091450686
0.014414887055391   0.679542691969496   0.096896512606451
0.103269956179358   0.658186162654468   0.029928860361025
0.987024178206452   0.544195830693061   0.002160809937101
0.050481936507488   0.707207020592968   0.067249655732820
0.997374555870511   0.751718400232481   0.174017954416711
0.063358653329714   0.617520000476536   0.198477895509263
0.075628272806376   0.813191120855979   0.153420115204003
0.065628896247902   0.611718824733950   0.518956637632435
0.019894642716932   0.738463011921609   0.533188435709598
0.092559344188451   0.691972284851540   0.482486689937317
0.207978946008877   0.629543082584681   0.460882561385690
0.065551099904518   0.583673963568220   0.434756432583462
0.149469317569384   0.564595325975523   0.390956634565780
0.997276923698380   0.722352134037179   0.438012213358767
0.074831447913025   0.592690503019830   0.782557019475365
0.183049687916515   0.561606153204884   0.620776821558381
0.001533472550458   0.700231307097687   0.703696643565495
0.069014160031018   0.585138540776176   0.847001766280772
0.115537969352255   0.621682989230871   0.797425960763407
0.060168153624404   0.773607813539708   0.024234285141798
0.076557377726656   0.714271764451389   0.940395073219241
0.079485220008709   0.796769708668491   0.027702907784991
0.200002239033639   0.847053586858417   0.165309210852098
0.150252792291145   0.681170952822530   0.992073927881461
0.040537062036722   0.609167882411163   0.246114562361107
0.157865285591103   0.670229607491912   0.196888490827086
0.193540518612527   0.697581156507885   0.179764567558319
0.131841505251705   0.752671787381465   0.363326018139250
0.216120871174525   0.842678353568286   0.360958873537467
0.128640468931473   0.631296680553527   0.473472885636850
0.946660865099105   0.915107612244656   0.440495512285608
0.131160845668225   0.861944263933743   0.415146232115099
0.084794157497917   0.619008700104235   0.703559532899922
0.069257891550079   0.657215878414648   0.593494581615182
0.928092278893392   0.717158377892279   0.883665029572040
0.998088182162439   0.747656389657996   0.763681111542768
0.047471095067098   0.666385649870310   0.712687000138477
0.027135386423014   0.639191962753215   0.964437278121543
0.995514643552139   0.680256982560556   0.724612351901118
0.998072041021256   0.811789154244006   0.872949034172295
0.119844731947257   0.615383955219300   0.003948732995079
0.000236195527197   0.606523473045587   0.167746869721418
0.145642711489977   0.707292801504736   0.053371470903603
0.061580828525234   0.842678094557023   0.201825688837846
0.938518993732919   0.737907349447637   0.279888420101822
0.246018402695092   0.591989878117603   0.344725266071607
0.192997887543957   0.754448874265041   0.415580277713422
0.930706875803862   0.865923286087297   0.274979037656581
0.969834814790458   0.702280217586580   0.258249903659443
0.131833347025896   0.727513342565903   0.602972754288138
0.125013935111488   0.757502697974213   0.608718259701298
0.076748369030844   0.972415689388619   0.512154870636315
0.146410616230254   0.797651043688299   0.544480181988665
0.837806516011148   0.766544371548487   0.673006245316478
0.086510005526134   0.676828178740894   0.743033331729376
0.087333906662514   0.819039370928658   0.635510438975738
0.076791121038265   0.609871531515440   0.755398986036784
0.155404086386117   0.807406705303730   0.008561100175634
0.123743507752546   0.770655022006666   0.046281548951502
0.126458180869409   0.780428122442480   0.076796773162808
0.007494160978350   0.863832087027062   0.892359328788037
0.015121766940805   0.048374292944949   0.017549177013514
0.165828293082973   0.970049409597740   0.100577240882094
0.076706086882735   0.756657219204078   0.207074760821117
0.269139697868725   0.689839954591233   0.259783703580046
0.064425760983648   0.932034438523532   0.315947027361992
0.991691864446308   0.653384305897616   0.267656558126625
0.838337134969143   0.720749676451032   0.163201509922819
0.064520633160512   0.864046737622655   0.387601464115918
0.155513500985600   0.841557414201464   0.413111038984843
0.072212579086470   0.914818165572997   0.603514501216104
0.243545803937192   0.938112386904456   0.460854415674481
0.191074011597434   0.700031119230506   0.639843770984544
0.119157043170156   0.874279847408148   0.854298173794176
0.031480509827707   0.045657852705032   0.429881602574430
0.058559962501049   0.993818602974849   0.668663635475420
0.213220805539054   0.963345367174541   0.798738263514179
0.137420104575423   0.769301751992852   0.808189250324418
0.177368611694616   0.912261145131907   0.885453900264176
0.900887413270925   0.711537458792669   0.952930724078299
0.213388758596403   0.717275259215651   0.867888542040376
0.092793477072246   0.894628673588828   0.043893942489394
0.097816860321465   0.778186286651488   0.120910058753249
0.156017728859224   0.886780538342921   0.206129577546852
0.964012187927375   0.819830194614597   0.188141034990562
0.029695726363946   0.770685680775321   0.302035352469536
0.113553402084054   0.820290734048780   0.214063763458787
0.965302183206295   0.693243405786736   0.412728810438270
0.224752990518123   0.958006983036625   0.380692860708578
0.190147950039453   0.978647361412935   0.340218739422543
0.075702521465314   0.671721668674864   0.485422585907870
0.073259394997152   0.690936998656601   0.634364533872156
0.175384698002724   0.818915329067416   0.727166390607152
0.199723554484952   0.861426580600637   0.745984880613824
0.068031362803374   0.032603571085637   0.489492065058817
0.196853571442411   0.768379600016170   0.879943068314672
0.169000104165537   0.831911227365560   0.701379725409386
0.035250480152732   0.901471253274328   0.912693923750117
0.093272546345905   0.936305578207202   0.938283919155899
0.187421307001616   0.998194663811446   0.065934774681325
0.048202866059222   0.870239185851694   0.982809641096216
0.266442684880206   0.030029969959477   0.003651154120016
0.912194813538449   0.021587168239820   0.063224607019336
0.017730612876238   0.011641951421550   0.103176789696931
0.911514613432278   0.069323509704873   0.175114034523339
0.104058603594057   0.762927076938714   0.210309901267565
0.026635195173471   0.817999106391173   0.344570901338279
0.999022276630924   0.822290876727487   0.431467738497837
0.181744909870022   0.776679668050986   0.426950259028161
0.911473422516215   0.773355320554230   0.561681183833885
0.213858351083425   0.963339898116031   0.428622249707587
0.180934559202805   0.866077997486110   0.472292029390762
0.917234792796782   0.883644261468377   0.656241512542795
0.940856194283859   0.898514171427636   0.646821051024206
0.079213660620924   0.921379171269348   0.683216309849186
0.072304037395881   0.962746939030462   0.768498460339159
0.096031943730168   0.985997421711026   0.630651806146340
0.992131363531385   0.932527059078060   0.745631287195714
0.143397686839722   0.099844992610685   0.928339831805078
0.200922853861273   0.740412292560151   0.872709656396242
0.102846717135531   0.860377753254099   0.935817886954155
0.170599567255592   0.965130682049063   0.884288561920325
0.049209769663410   0.899012054803554   0.110368450948318
0.131738432869937   0.894649145427593   0.095586578255467
0.090669149772274   0.834826674129654   0.199957349230074
0.010072683978403   0.049482211552526   0.067544519291425
0.859431823970540   0.854116468103386   0.428326198679274
0.176042026053764   0.179507009613458   0.312065343096190
0.074567339144093   0.886845653608102   0.396943654736364
0.165008684702387   0.901539466900741   0.433075394013512
0.047457880354204   0.045343112260658   0.600987131531289
0.117000722739307   0.907810224750510   0.423461578926744
0.211880562744557   0.746639943989306   0.363369567836613
0.978173279941641   0.868955931432834   0.588505175229825
0.086673774208305   0.893597652411709   0.747642448251161
0.985460921444756   0.899445967466163   0.678802846312850
0.185373606732430   0.033593474221021   0.650648969007472
0.983401965431572   0.993171199257592   0.772133005768232
0.029409791778916   0.882734342911769   0.890605267898081
0.012142222841691   0.055353414663401   0.729678457564556
0.286009516021604   0.956822228548515   0.829768819411953
0.223109055773677   0.848212184275859   0.260306991883137
0.259148470493402   0.887553090535101   0.105353782616346
0.160430100290953   0.914201290807633   0.194229007595624
0.968138735196812   0.176936111390900   0.271340855351019
0.021241110020910   0.032132186385196   0.165548010820454
0.201388775891243   0.174262879796833   0.131667765793230
0.084147805741488   0.916898448230391   0.333976760286953
0.014167710414035   0.218168391475422   0.568033324042730
0.977098892540578   0.999205480495110   0.531818179205390
0.982931047480503   0.023619023287924   0.366743633589676
0.927981462578233   0.855723512183260   0.438949860873057
0.132662226878291   0.187600078193205   0.747441342060535
0.167537213143704   0.204997367975068   0.677689987421687
0.253758066767398   0.961039295482728   0.832104132906223
0.028679255269384   0.072232311289722   0.716999128988584
0.110838652402841   0.893384283589936   0.766895979567120
0.083154877274439   0.094045829715575   0.872228894655306
0.249403584989603   0.089112121632780   0.977174187059341
0.214405671821966   0.070772602538500   0.878523403872955
0.263109589648031   0.156533417276238   0.092452970371708
0.193029127283264   0.941715033108416   0.954773582556470
0.087052690322375   0.106817400019447   0.052190366784551
0.115051400406609   0.058838615323672   0.144861071509040
0.991977817807717   0.017106559144711   0.280473204104769
0.215323563538806   0.018776462785800   0.188547492011713
0.199680204152850   0.882052981539661   0.394075810969223
0.135292605642647   0.140941361945809   0.460203157416855
0.185722840226242   0.940876339382095   0.468721272750143
0.061444357552621   0.007950411091788   0.350042630536847
0.135878949163502   0.082749124108926   0.612794548502656
0.127539025671236   0.142244690050736   0.489916484747962
0.207405482518596   0.997862633668719   0.563112817902750
0.115787536644442   0.200023538425015   0.582820167695999
0.197504555797797   0.024902655061412   0.572017191036728
0.183299703764749   0.974179873989838   0.753872620195502
0.227968108784685   0.920234918998445   0.720629672587784
0.990231027296893   0.934696238098053   0.870793733406922
0.064987156745495   0.996202078866396   0.845481904204117
0.073750135919620   0.934737669187325   0.710828022534286
0.274842708033818   0.024957690959125   0.081779493306845
0.119874623131418   0.087225772887241   0.129728703915590
0.044727851361676   0.003120995665793   0.094649775196896
0.955083264841631   0.193642946480245   0.189771640378239
0.016761312866505   0.176428301859723   0.206935576671842
0.237377256676383   0.985238462135320   0.422171751397621
0.064229660464400   0.120595018706430   0.245047991372460
0.096490038450787   0.929729869436474   0.385011683183454
0.902998034635260   0.117431176583327   0.356827329106239
0.141439172474696   0.242995746396333   0.531665390311237
0.382226757984149   0.030745282872423   0.544410250169852
0.072141657479211   0.135815604751350   0.729497181210939
0.245203237946692   0.399542356694166   0.631173514391141
0.390518109303071   0.199760526611228   0.701841294399566
0.097181505268918   0.027794567271797   0.565718104080110
0.198634510110321   0.957768072852744   0.773404967458033
0.165209803926476   0.150017866472381   0.616412865108739
0.129487553764973   0.042536345295297   0.070747773359962
0.099552540909296   0.143761833245101   0.818523424322116
0.297367584041505   0.987186636768821   0.096578835664190
0.856273794447652   0.024029940698004   0.949828381940743
0.084953928181977   0.061023250944654   0.068512884278020
0.110333377976971   0.186716779971858   0.077346254360074
0.099611783178206   0.003979949728602   0.194484548165529
0.432461369064449   0.059473558388058   0.296472351172242
0.076577257225269   0.248367241649479   0.103711768954673
0.106654992940439   0.211367285239559   0.321647862902954
0.993086861926391   0.164279633874883   0.465285462369484
0.073774241861309   0.156840568260483   0.459768810151862
0.054080882826763   0.156858955124289   0.357507287888600
0.174636217241331   0.015916038285899   0.454488095022617
0.069978761762975   0.071100294299831   0.448587800855147
0.150498459132358   0.118694018813627   0.680124675823614
0.167583571131007   0.211026083946588   0.898025443128220
0.192271767253138   0.139408555015726   0.662627076574785
0.870094877285472   0.057966024553734   0.635359219592089
0.277775970656313   0.047359962170620   0.923963500693320
0.103689498418603   0.295190758607748   0.794135062190582
0.994409853686332   0.185549403529478   0.787876453416148
0.014726776222012   0.041309799701808   0.949088889346656
0.168518570142919   0.169329253266519   0.903320467383468
0.119111231939121   0.323521901472833   0.904016749918890
0.013707063552158   0.163794828024994   0.125725886347995
0.172736265519630   0.130912459147511   0.247263747826024
0.259005980433644   0.219863816689190   0.265189323477318
0.129709695920643   0.979872412740003   0.157302290363749
0.095127022818255   0.184496276906118   0.327871733600152
0.230609747400709   0.082108671298609   0.367523100181792
0.157757772829027   0.279436765016387   0.598872912281438
0.173621092939343   0.260235960842921   0.214139578832431
0.037474501276884   0.208804160387171   0.443135833987759
0.100382530060846   0.138445025166848   0.656987686104307
0.143308068145986   0.326519697866654   0.568997682769383
0.168687918294268   0.185711552171993   0.656280362146875
0.105812456020027   0.197716446302929   0.753347380552067
0.170965795254428   0.145374536428209   0.719257509043931
0.045626148902765   0.264774477870441   0.946195678155043
0.171522207594471   0.302733367541925   0.877064788568415
0.087743558419456   0.103763938459539   0.924251453131816
0.230295210690768   0.177521925581372   0.929550555160994
0.057110683600174   0.242249161031275   0.081293076265159
0.044543957496717   0.339149294087539   0.998621797019811
0.014933209591171   0.150964336558210   0.073612720283255
0.076788292312080   0.413144933759735   0.076537538969326
0.029901592410339   0.341946960405388   0.146990298148303
0.110008714706033   0.168723141247268   0.229145980972530
0.287220504465741   0.294053782988464   0.491075369956557
0.239084466711765   0.316052638088654   0.499683012784826
0.109311795651661   0.150422044884635   0.404460616447564
0.251782517033519   0.233997599416433   0.476768505398529
0.855305178683546   0.229984417343174   0.487988505639653
0.283916741886804   0.376940348582351   0.450525678005504
0.027047928677905   0.076289335015480   0.427543295618595
0.075469102895857   0.091427309574721   0.708137383675504
0.232399023834052   0.320928667656725   0.702994928920467
0.160698665062337   0.185410520843403   0.752812966444680
0.106327429538725   0.339043767768849   0.815003092425542
0.064024312859058   0.300624613252814   0.850447559085764
0.158733503161894   0.446819564208891   0.865337043241124
0.285357653008845   0.177385201270743   0.914248665244336
0.019881516409176   0.363101756630697   0.166214855540924
0.121630713062057   0.252876443265067   0.234446386708013
0.191308428829249   0.423032350467309   0.000950722108476
0.233367247394277   0.105119303423201   0.076210121147023
0.948658622147923   0.267315711435141   0.163584989436769
0.100757352614499   0.311978826609072   0.372587252395330
0.917297344132760   0.403844616236249   0.375722775756962
0.440886956172579   0.332000067836884   0.503419652340694
0.145788103562735   0.250790142392941   0.365949836775985
0.256602736744393   0.253997948737385   0.455888406387237
0.972627147835105   0.341262711916625   0.474877926628552
0.140602859737179   0.217025497111284   0.482034316506660
0.030585055160324   0.355424121317419   0.614031329108224
0.166355897822400   0.336373717672758   0.658292668691843
0.127119510945353   0.436576168675726   0.622189883086286
0.086192162184234   0.349467228850469   0.728631699536461
0.159481362711412   0.408290553666019   0.765619870488004
0.053818878408418   0.385803710226617   0.715537159488209
0.091578508665348   0.323345238637939   0.793763729506579
0.155485080160442   0.462054154915465   0.935678725799053
0.164705982432612   0.351199163004247   0.916261456987443
0.159828120988471   0.441343514749155   0.101663107778841
0.177512453340201   0.358493675610903   0.937695416003734
0.146112562674951   0.358894495777562   0.197484981606362
0.229383794236991   0.354776579010056   0.142974034896438
0.914477431695038   0.328417256883814   0.379695327086521
0.118752317972209   0.591639082244772   0.628426611534182
0.024664552809678   0.401274343567609   0.221035273859702
0.006349178866664   0.457326369835725   0.515578249396816
0.068659381926663   0.233263859540555   0.296299280995855
0.095793470619824   0.328085174528711   0.530917729511948
0.036318112885945   0.365322742556669   0.439355092030560
0.118207096853964   0.382360285273263   0.637534559040626
0.168188189663372   0.259895337377653   0.786530809114959
0.076673827401511   0.356659505538381   0.648976248421280
0.246146694146895   0.300172732799346   0.630028946746779
0.232587324995992   0.350082312486945   0.644448522832630
0.062797634796639   0.198313155358190   0.986447528063781
0.155034907881624   0.441904165006349   0.834426088684756
0.076367926866985   0.062902259913112   0.016799922064094
0.135613368227687   0.383557735671352   0.030953357287520
0.231418161756554   0.373792196303955   0.869794666136833
0.115365232199877   0.417450373102354   0.113557394414162
0.210564399222309   0.505893517651145   0.056964624501300
0.091652019510866   0.500047549868504   0.254145458599089
0.164312085481484   0.615546637857072   0.343328678075319
0.093241858764024   0.374008198099557   0.195072521396943
0.143532719452828   0.287897404557236   0.437338517851521
0.939520761076508   0.329448522662004   0.435770787814062
0.158693040191140   0.331499742775151   0.594327341949038
0.076591002520842   0.312430357388538   0.468630015418317
0.125528933293496   0.393161467590305   0.700918759752545
0.010959276770085   0.435180731764777   0.794299805944983
0.187972557194254   0.522392255190295   0.595618555457195
0.033454061299931   0.457622700471658   0.501607220004989
0.165350737196365   0.441078118682851   0.678859118749255
0.131380222675713   0.323587278002324   0.820591429503950
0.328535454400369   0.565983361109345   0.787985108265614
0.141289221975594   0.613352248009164   0.953245467892329
0.228808116393169   0.391590384612977   0.766799958855298
0.084715082281240   0.491550182900249   0.875512291642982
0.225211509364151   0.665160669047296   0.066902074763482
0.079974969376627   0.318951542797383   0.215115270099979
0.179426618195469   0.531373899044547   0.181308853876452
0.970599698823940   0.461033088838492   0.215750947168653
0.163455489632460   0.515536582008216   0.163751982822892
0.064730111889823   0.326667449192423   0.315164358462155
0.203622943819994   0.573524886681794   0.151996516227285
0.175839656418036   0.522969742452970   0.400185795115276
0.176017898114945   0.548742830881171   0.590960855834739
0.196217225914877   0.372648412194176   0.525562504824921
0.183342436849165   0.426034521629996   0.550325832297834
0.115565718654484   0.536905445034323   0.514976789344767
0.199671102921433   0.498995262324161   0.579847554883622
0.172700309877432   0.481037275983576   0.712723090441833
0.009102574110051   0.440281404954325   0.627458339579056
0.238686312059161   0.541810557866789   0.972096750964564
0.167599363996276   0.423413163938152   0.817217110604032
0.316977377038568   0.595480155289556   0.870692164559852
0.239489450973659   0.310393380643027   0.677923030197683
0.262887689121255   0.434004256312156   0.821218853985137
0.041847527236003   0.506493466705322   0.256539147758222
0.162608887190435   0.559244475945965   0.026072304084960
0.160443181888634   0.467257260900976   0.108017975856009
0.986517628213712   0.533617000188409   0.337093078240487
0.167914324669487   0.532513128602986   0.318934451374969
0.219965143410681   0.607070227401623   0.550113018065144
0.141115014500370   0.718719582465713   0.424809870722130
0.123093222153733   0.397316040942468   0.400766064665968
0.188118701147359   0.513192540911719   0.624646453924308
0.033184281998553   0.588178479243807   0.444194179813162
0.089256915515429   0.551170095182411   0.507950092929368
0.861911137904260   0.557264308161192   0.724668495654538
0.255769945696518   0.397041773608818   0.725595707189713
0.848589952791735   0.463253036417880   0.683370934058041
0.266235220518466   0.423838801915693   0.630166983507931
0.319962628202678   0.309960399954771   0.788927365162230
0.255441559101673   0.479477707725890   0.906200795509697
0.138480960242894   0.400878082649790   0.884575408950886
0.133333344481297   0.373249165519146   0.879218051501602
0.198262563840681   0.529393385432202   0.015647771405677
0.117050479249907   0.643005908979523   0.166218873192476
0.364369242693414   0.455626608449189   0.019052427720088
0.064703723834123   0.483483947800083   0.131990235860243
0.181778054127519   0.603393388631850   0.248524564725515
0.080101979555598   0.576989525242171   0.170016318412063
0.200611156623794   0.505968497385799   0.473042523325274
0.130634172904000   0.388442082594920   0.377261332728890
0.170609350417214   0.495924535704257   0.232053288224877
0.178233390797079   0.455895131524375   0.554889599670026
0.077344288330605   0.567414026326635   0.721623077806540
0.383587193567250   0.545929835431924   0.259666844662907
0.005679109765059   0.549380414742539   0.540096758545840
0.115633886544769   0.469846423847205   0.846493036031425
0.142667898353044   0.335592347620131   0.845726167714480
0.044098553575140   0.337842052626270   0.569455610663958
0.277727650059449   0.585342218461570   0.842988386582545
0.063402045469364   0.457979305635335   0.839855443209281
0.940577463017764   0.461683130321776   0.735013470584734
0.020326038912407   0.658466179133514   0.984663479819241
0.242768709982741   0.687914718358440   0.925401056289045
0.042980423289657   0.472241970360372   0.901968566135836
0.157763771295727   0.591024772354198   0.092294235268877
0.213926912944154   0.602786555208238   0.082330217033261
0.221165245137009   0.489526422390160   0.033372506269727
0.052687137004545   0.801123359552134   0.169139976104620
0.164246361461988   0.542295492767088   0.379952252158770
0.121835341002527   0.574719379615620   0.398023047613239
0.206716347550082   0.558158372122142   0.352354549042561
0.127975834387923   0.596386820377003   0.316767889793643
0.094572976800376   0.607004528489688   0.512613963006426
0.094909085061601   0.679738230314414   0.652213711912037
0.192090714583477   0.481402581113712   0.486454646651450
0.080573647218977   0.812344376323764   0.582968566601767
0.218508870934387   0.499780014360724   0.624438700519169
0.276087289247151   0.642294940545976   0.710339512390017
0.103006167958618   0.550064133542752   0.724033662408715
0.022556957746074   0.609348518085923   0.963487941551204
0.085479813942249   0.587013526731886   0.095062639575913
0.264767413738642   0.659743632696837   0.854488398889133
0.298180532702045   0.624205880626420   0.012409904884031
0.216674156993956   0.491621137891535   0.979667951499097
0.171823412599751   0.726592257961379   0.140100255468403
0.000731781578259   0.580909303884915   0.184141846494095
0.132841784457065   0.686374321445290   0.191191939374740
0.261467544611371   0.757798889900371   0.093862114452025
0.270060000412508   0.684655526813430   0.148066958304874
0.160713581114623   0.598187757054255   0.461137505583796
0.147893348995670   0.771539391614517   0.354358879352026
0.137783442939230   0.519907584853993   0.318744443564396
0.969890601455270   0.732728104842238   0.450665796899542
0.285536522400990   0.775699865665589   0.103100342510927
0.235531198750645   0.720839777232133   0.426413250165505
0.146858294582643   0.767828223595821   0.539894658753807
0.221506301531329   0.565928390085133   0.982021605483043
0.950851083881146   0.882498291273271   0.766762258959853
0.048371417478222   0.762302629379006   0.801693428179545
0.132942852851005   0.676298028300526   0.793372923500720
0.211312949679724   0.722374916906211   0.023840683339877
0.105284628100591   0.785068985941234   0.030715431519639
0.960620099937727   0.810853671105594   0.158521862889908
0.214219372292426   0.617196443993743   0.985433575758593
0.177730817981103   0.796138413016519   0.022699715232843
0.892115161872286   0.823661684646255   0.153061769164638
0.163025172638210   0.593350748078100   0.122324817630819
0.181765013011441   0.688210608189843   0.205364732506150
0.205446624910571   0.612857611962263   0.183130440002450
0.180110390345640   0.538688380612872   0.351186947143911
0.141357667437513   0.863376028451434   0.317833098008385
0.201231287168268   0.739836320725936   0.388745160513187
0.028453620223742   0.763405357993417   0.452618078105973
0.063686767302104   0.788080030560491   0.577565317846708
0.388550432059916   0.737627500659031   0.611877758179696
0.058269473510445   0.561005193896234   0.651063568708183
0.215773359791367   0.690723078971273   0.651083681225847
0.039193394101288   0.937290849026865   0.867514629368003
0.253512003859169   0.779773113469742   0.812827020960681
0.433383747509779   0.836406314171266   0.942624360372228
0.106111865713351   0.723615389405588   0.017787273739905
0.010358253272288   0.790637535719496   0.861463293019682
0.141042015378319   0.828284386928504   0.996890835780412
0.017557261791626   0.884328054096232   0.024563355802110
0.187278185211452   0.905817387922283   0.117750265147808
0.129798903248502   0.866568889657097   0.149823885239145
0.128342099687178   0.713619311802311   0.199828800202108
0.025618002484122   0.808849507490258   0.103799218113971
0.398040170411060   0.823438969184885   0.366545643214928
0.200571889353575   0.625270743567991   0.379057453968876
0.047890717435195   0.710163597160331   0.334521272844315
0.098236298781498   0.717165982567920   0.473010852544103
0.169892413357537   0.839269266960879   0.385727458026744
0.138995773006897   0.726851523466925   0.573631259606074
0.298257200258413   0.423633545484580   0.623920376004002
0.126913632335623   0.904917790387916   0.912351831637473
0.096104320385414   0.648299113705957   0.700220369769552
0.210157501736498   0.926128341278351   0.545148970666030
0.207009930316616   0.641382031916954   0.638862438761235
0.129183318894849   0.645245444992042   0.799650585795140
0.117013632951324   0.899586099012797   0.002612753229059
0.048594359031990   0.662374917592701   0.918333715036449
0.137297926845795   0.723977125571522   0.025250859626497
0.373047237666302   0.685360018114449   0.096794295703430
0.163011674475268   0.945271963505065   0.954435395234071
0.092994226261266   0.918191732801870   0.123042773967136
0.290399916059171   0.834319451819876   0.158698939748149
0.021051850321969   0.870687104624926   0.183397727008358
0.149803792221187   0.848743779797157   0.541592124445117
0.120738755886194   0.936439679985056   0.426607930645118
0.302659488970696   0.708540288894264   0.438644181826009
0.186511813767179   0.798141015060596   0.473284327092025
0.043627651990731   0.655524016577793   0.763686847428600
0.168436670928113   0.810701996140577   0.679442603265011
0.166821905555561   0.703968097354365   0.631241224846298
0.330659013646308   0.651096108506321   0.699895413589463
0.062050360225484   0.924535446459056   0.865735397242388
0.165584888651468   0.880943581161469   0.677955473076764
0.111914780076887   0.937797293793099   0.616936967700881
0.178980456072891   0.737442681118085   0.797291605179444
0.235571022683372   0.714022642277219   0.806914719194034
0.195571346012249   0.975456721544242   0.819051777671873
0.206356696823252   0.809807471677495   0.026247652583046
0.136721204602733   0.868720939354392   0.080972738960403
0.330885984071935   0.878244784097839   0.143165200853874
0.197497705473498   0.693445718873451   0.300579374111407
0.116245989366141   0.846736328136730   0.160617001828397
0.400964777701000   0.895721703573875   0.244721659761123
0.288681231146759   0.848250799266071   0.272516463018972
0.225404760222711   0.931442039590746   0.324693419981723
0.112946727885662   0.098080656147488   0.469421487500053
0.164486585410770   0.927637290936375   0.450614642248731
0.091162359918093   0.959044434368332   0.618434025464976
0.190258991380072   0.621160576241964   0.354704910007829
0.239394068099227   0.855520722160648   0.530859801073197
0.173935709259652   0.016986704998111   0.624953913437572
0.156156875404602   0.787441936153232   0.518712639926270
0.248616497172035   0.933458788998415   0.736465818395045
0.204411937794507   0.976869808898609   0.682439231275739
0.090831861899838   0.922957347469597   0.734510490988120
0.143631301035279   0.004916733101306   0.873908365824310
0.234814829648161   0.853401202594592   0.951021408221907
0.314066602040505   0.009440809201663   0.085450824138348
0.211011991266622   0.911237648687960   0.207175114352326
0.350672671621263   0.826313519392047   0.163128810786965
0.337271040649143   0.840222242297119   0.342343111970853
0.056451375302188   0.918892522101632   0.212955362061837
0.968380696017741   0.800406646473604   0.339615344906607
0.133465463319152   0.963117969636589   0.184545522907995
0.163288160575679   0.826876128962587   0.438597233632112
0.947203072781292   0.757679791327879   0.491750677165449
0.013195495839535   0.063944235201863   0.356096561640436
0.261330744980410   0.826450167121191   0.627267295975933
0.074619280773391   0.987750639830630   0.693595217005795
0.948040146467306   0.992733899850206   0.387072545404851
0.993415765668203   0.812747765387031   0.553635613516517
0.223925717130680   0.984626840156545   0.541512357870971
0.250117742224027   0.782854342662977   0.764068291219921
0.018646123717286   0.981588643410287   0.867062985844114
0.035771817048542   0.816818327850447   0.786885195726549
0.212631721907838   0.776529801158534   0.956691859811545
0.158747936782008   0.971757633912325   0.939501397313740
0.140610244658219   0.925826185355547   0.958346997239071
0.009011974972331   0.878457852360715   0.053322560399665
0.176789329588792   0.140895709430356   0.979191126191763
0.169542379718799   0.997104968458525   0.282309107373087
0.301850602726410   0.934066775342919   0.191980326440131
0.093309317123386   0.097938322920242   0.144385843558364
0.139942018852665   0.009397955060145   0.157553496426623
0.242316550680425   0.971339669330251   0.498575398252685
0.152066524056229   0.916630255679235   0.360355265956261
0.915349365462095   0.828872656663047   0.488625946298086
0.953625443019952   0.000249403071775   0.481653125862194
0.964779944318996   0.897453038329108   0.663624584882156
0.033438300517843   0.959485764514587   0.695726120742976
0.061680572209187   0.977604237514508   0.743991806901197
0.235293071977966   0.956233897642708   0.853919906995890
0.150880170498013   0.871799105547225   0.562554135450156
0.072978931700741   0.003296925403090   0.643533002463062
0.210175849961551   0.900339566082048   0.723230562448087
0.034813794942096   0.829988265835138   0.813920495131389
0.915159651804961   0.790284979598507   0.997207244035016
0.193119189217860   0.993662111249442   0.968145390136362
0.175356133724276   0.718601921183489   0.051324305614730
0.237239344922130   0.972144459673412   0.960923416236683
0.254963675767058   0.915815225305889   0.090195511559958
0.086324837770662   0.266802687470324   0.202718613951965
0.284270309236774   0.020347350931798   0.323389061823098
0.153208064686405   0.012079916798793   0.297269689932352
0.233059379977522   0.970511716160476   0.254463048205685
0.250090966207424   0.064501837834084   0.367016755841558
0.358214254922537   0.851214859126891   0.569270218564383
0.125450130351343   0.877202239465788   0.577883907383383
0.386390728276810   0.873028843905260   0.757555833107532
0.089205964204409   0.172925388189848   0.616341709746791
0.225841345488743   0.072403058721834   0.638917721815347
0.321723520309420   0.011067558045926   0.528948289167833
0.021656972421870   0.932451142383741   0.686908342819571
0.186194007773597   0.939264897020486   0.049107261487495
0.289842128858269   0.950322666159821   0.780962856687085
0.240995035448727   0.000401988852585   0.973512253250067
0.236252920766446   0.932881858307115   0.044086023572713
0.159107862012805   0.021548763177601   0.928999697055789
0.191918920131354   0.983227423959697   0.092412212884160
0.156534435933669   0.268490746494220   0.002153463615356
0.233886346915129   0.008501215555590   0.065654008027276
0.251096411634360   0.205049352814857   0.312820089897874
0.265731171251791   0.040461608301339   0.366703490827076
0.036414281282397   0.878165058681751   0.505002672448222
0.174176445882331   0.896138163596382   0.402994602926174
0.997194230124268   0.949750235073053   0.468447844612477
0.216082488991595   0.171632692053156   0.368206640992157
0.045812448606252   0.089311690722818   0.448393892473443
0.147858778378044   0.255879132601854   0.442109523896912
0.115990367665587   0.115547895951743   0.496582708479455
0.182525074867871   0.231250621523415   0.718048880478244
0.197609453499463   0.061673955732534   0.649922587310939
0.179515914115073   0.022948570922823   0.678416607498175
0.244495438318349   0.191260166987173   0.693405721817605
0.014134600340522   0.951414660144430   0.868455812500041
0.037683054996266   0.038590560224454   0.995099657232778
0.044141126339450   0.112328186751949   0.902775532914680
0.119506487836008   0.316716623606892   0.959742749850735
0.160335939612143   0.052080180304524   0.928068116627801
0.901180984024595   0.092956423523791   0.177056097245995
0.140499063274980   0.307081236549079   0.034407788728954
0.090527798829933   0.070926442856007   0.158234724951419
0.153606098604219   0.196000764869065   0.305439544807952
0.240854921033343   0.155279623942890   0.479997482140958
0.257342645795651   0.961212294614945   0.475046070989044
0.219898948360710   0.331067432148798   0.264820897763037
0.078300841806511   0.991360365151635   0.391007913680462
0.077986250208453   0.167961601668953   0.690670176816226
0.141478056622985   0.162430078117969   0.606231857615920
0.111445937705597   0.030548609523111   0.645300383096729
0.311181173850985   0.911775411219548   0.750154909695748
0.174161251509141   0.125071378941407   0.605102388071927
0.338006688051513   0.187283277954014   0.819884312283116
0.147024196575717   0.034563238591222   0.748174725377177
0.031429339315413   0.146295171306302   0.937868751984319
0.011327947239675   0.193020919951009   0.934296478572125
0.362031763262187   0.198924119524575   0.074485673165259
0.258199522668705   0.260744950034853   0.429778605557184
0.160978870111817   0.987957597496170   0.054514349425572
0.188611753126235   0.132494332783341   0.194097933849686
0.117603368743610   0.412580413956545   0.424450033014920
0.106781406693606   0.266993662711144   0.177538606122145
0.031502170355885   0.167004176342722   0.377025216328157
0.044339783147109   0.114087474200433   0.466076352213452
0.961984356625659   0.188639375205549   0.594725335216033
0.219823444165529   0.227540706920553   0.364073674719425
0.237018895660126   0.208041046961398   0.466050811805296
0.113480262906800   0.135841560665100   0.377013029416625
0.234748418952579   0.133460981357706   0.723487365166022
0.159072227266267   0.312514139504248   0.641786687866881
0.176113460605196   0.933581274164833   0.677272714912094
0.195107221629368   0.231132003160287   0.746399372727122
0.174087935062566   0.107461702430233   0.758993688260369
0.180196418708289   0.143496390842902   0.901123633657347
0.344810325713552   0.152961047529344   0.625394800329663
0.156079423425423   0.975295284902746   0.909494025143149
0.363292373897498   0.126834876906536   0.129854974410902
0.194175792971876   0.133065254563632   0.165040680473217
0.484574193365670   0.091878498032148   0.084494930853498
0.097084562250912   0.404267525104673   0.054231759692253
0.220590647075415   0.110573705026002   0.125093533730400
0.187788464806888   0.276380764291473   0.193387846372414
0.182444112458139   0.132012099870263   0.219523818368205
0.250096059751009   0.267018081727926   0.351168920978247
0.087035734825707   0.240777134335105   0.414740524197685
0.339170793994383   0.316121385607276   0.386954051580938
0.180262000632929   0.125049177364179   0.324070885453960
0.182106386407452   0.248551521567792   0.767292894850423
0.099287009839813   0.188045638381299   0.537854982814652
0.358736897425011   0.046805259512555   0.547063495018973
0.139158577325903   0.274930177811377   0.574987088849080
0.135069970011868   0.218189331593666   0.512588515418784
0.065219046744277   0.198604582960701   0.765744068554393
0.221089028716237   0.180732602026880   0.804227449297986
0.125415305990660   0.266113242906170   0.853041213165116
0.320156067536353   0.120281058321248   0.049279146514687
0.114074785991401   0.210546734626598   0.090291436286931
0.248765617923743   0.394606890255339   0.087208471064468
0.293054879410555   0.333720093909702   0.178017804470293
0.248063542804049   0.179984467473287   0.102161718060730
0.270581256373618   0.173390307520460   0.045796152935467
0.291557266581510   0.097938725913549   0.271530749245506
0.384518565139727   0.147330828602482   0.140240369510461
0.115015113660298   0.160457800242261   0.325878083978429
0.108552917046509   0.327945097289471   0.212879152201009
0.255417477854122   0.288395507653942   0.275566247650226
0.115965007844872   0.226965266024837   0.412683815694274
0.128170665367327   0.300503712353888   0.563813887023297
0.304439034916936   0.366879606364249   0.498257711606461
0.055094529583720   0.263560647937260   0.578782880386834
0.178526076106413   0.992300295061787   0.683159678788069
0.130673388867146   0.223959916520551   0.579547548435693
0.408021146048640   0.294537449457701   0.675432864662388
0.211115879279609   0.206228368262548   0.755090729110925
0.189163833974600   0.228787280345659   0.887721338757833
0.275306272926722   0.257024179370757   0.802252526214894
0.136964181668229   0.213814708965850   0.326056147476540
0.164973506751061   0.287722136690607   0.903553974262032
0.207397249777209   0.139506661633945   0.062831646733738
0.092771821462262   0.221270861176888   0.107280159937928
0.194869177729440   0.318195631637692   0.165602029406023
0.434729492748055   0.354689649745140   0.263884684747594
0.208177936745040   0.513901798872347   0.285271282096791
0.362225068031797   0.358793037941216   0.571357749807000
0.159532084520979   0.318526078686446   0.314196025329872
0.188522526449025   0.508096276224195   0.356643493859825
0.270022271960734   0.434259256669255   0.449198504986533
0.136028344093096   0.246161346457615   0.562258531647954
0.217558479041348   0.327958949986238   0.509459019061868
0.427340103430802   0.529599950348845   0.589047896773185
0.236880461529598   0.203737238797217   0.852429420502252
0.408906584939939   0.271446731730200   0.859410307884603
0.385704268100637   0.322309137119782   0.768813594421257
0.231520453492871   0.444029555009103   0.733712468731500
0.152829294937054   0.233871640703786   0.714294031225241
0.156821839613897   0.187156382601586   0.881987130023097
0.113789340065757   0.486949336856830   0.123863605810208
0.071133909902636   0.405274454194107   0.131858233276301
0.286234235887803   0.456259461931838   0.146514623604383
0.555775836307237   0.408802298124524   0.106856068917783
0.174688953665281   0.550584715329739   0.053997223138854
0.277860740390499   0.493526621828236   0.312457503437725
0.176067159839483   0.297047095683009   0.270237440947121
0.352668728789846   0.389122772533016   0.363332114759352
0.139785380446464   0.322283304037690   0.335496883948691
0.320647102933592   0.252301861101880   0.583000545378279
0.104657251335791   0.270345726035697   0.489874888500501
0.302459138902795   0.291020669585772   0.611255704630958
0.232471309781164   0.541862983505998   0.499820722564623
0.175245643181911   0.364219625602610   0.657692723301813
0.061620084007104   0.384370546909278   0.642464640460413
0.104519871032569   0.365251961999798   0.658856783254044
0.233207142817383   0.418955168751220   0.778077311626077
0.301311300237771   0.393288389153802   0.660267408243465
0.338196685089423   0.294341015821901   0.833734677116744
0.149139409612091   0.271761539112438   0.806406385541428
0.222784268917852   0.385989951987382   0.091016619544059
0.307187738345577   0.354516655863326   0.994753466250632
0.049842662353333   0.419810464023154   0.182756756638937
0.101602712986791   0.340985777391778   0.084281814954138
0.144070150585199   0.487099144937429   0.121191828079801
0.117023478307033   0.355443183349212   0.202370420789149
0.089238660470402   0.613475528475187   0.352318144415193
0.289828431554785   0.423937542238209   0.391232990768740
0.398894545355015   0.318514078943314   0.178501556086547
0.204728139068088   0.506708909090551   0.441007170600249
0.265595221821091   0.236664379607985   0.504482080159141
0.318695223469920   0.446503371187245   0.666456260292328
0.239117003771869   0.372748357258713   0.561655911339485
0.083468383145874   0.288517590103954   0.672501613936632
0.998444432288362   0.345513977015451   0.652202415233613
0.212990874205911   0.359145768454087   0.733272581769488
0.391183738850614   0.259361989426087   0.776178087890987
0.281946905609405   0.289251608232663   0.728166983087045
0.182190918355594   0.095476983996906   0.786173831967215
0.293913952497406   0.377221433585992   0.787135180355845
0.213797625834033   0.545262658851506   0.837347030004824
0.304149634034782   0.405474785683053   0.999934047031654
0.270066566889891   0.318010772096548   0.053450319820398
0.234301743760121   0.495137254541796   0.072294704007956
0.996153819573189   0.604455165182965   0.135867023632995
0.077228265500099   0.510617334523997   0.303318266979949
0.075435581697083   0.416806791787277   0.164122354814580
0.222755399574931   0.436877379240779   0.218373829162022
0.300781909369047   0.361494972650395   0.470207455747239
0.367774250981113   0.372058671205989   0.546804911834821
0.164324874159891   0.471619342552174   0.603248237134447
0.011637383884129   0.570531598479586   0.424899891853478
0.065540960471619   0.218296563811671   0.698242176872910
0.142106679704958   0.502913676519182   0.641319395648212
0.126918043802896   0.384212319365679   0.609035271289240
0.313176769778818   0.418329856585937   0.648457761470213
0.220131410503193   0.496273570521560   0.723512348651096
0.159776346791863   0.476880251680142   0.872136696461001
0.200736196496372   0.467218028611055   0.968067906103028
0.220786897439524   0.381379569758933   0.846182275061254
0.100119218568111   0.359539418244954   0.836926778800565
0.283740831485965   0.443361705318139   0.917484529690790
0.097254160914449   0.584106319521826   0.122046555232038
0.098797632207605   0.466054058194895   0.167445222670910
0.084956222873110   0.722680295842225   0.037500904085542
0.175784860339380   0.573059960692407   0.074168569178714
0.173351059181362   0.600988893513136   0.221548322372491
0.145616937108911   0.413360389476271   0.331682104287222
0.145232553327048   0.439518589595997   0.487177880888747
0.070653650136563   0.528236174576126   0.425560288712586
0.321968660459701   0.553207866455204   0.258545313382389
0.295193121158233   0.631139362651205   0.393447650252598
0.186182620588833   0.631014962455895   0.586152725802999
0.224757554766707   0.492520663769598   0.594354468744155
0.140885958122059   0.515927082925473   0.669868333936176
0.051660383247107   0.480955459204751   0.506421925526299
0.983921542230505   0.342587322511922   0.602670823924107
0.128584705345602   0.507204216691267   0.790983356416217
0.119990431849947   0.527484280655181   0.862305417677632
0.194099122086807   0.528389617536415   0.047493540784119
0.258801456382700   0.589555111224684   0.822463429404295
0.079981019667326   0.633664070300669   0.842369221017517
0.245231344894118   0.506891325152884   0.097422492071571
0.293174282902139   0.422453652726306   0.977995840574915
0.172743290292036   0.663698344325857   0.066736725144274
0.334066133443763   0.436887540441785   0.167952894133534
0.208397648558387   0.460267439411702   0.207806998859194
0.161979790295212   0.572616767462279   0.217669420612541
0.197411246996772   0.456415910124987   0.467065806231706
0.459280320039680   0.707566128157461   0.393939660152143
0.397597428523660   0.534270498511888   0.430962765369736
0.205315026019868   0.479395122849557   0.397671460383959
0.226069633246315   0.585771167462260   0.533310665559186
0.238724132344772   0.550621967907587   0.395617542824629
0.287179848585034   0.455638145895090   0.459586422061638
0.142992963814220   0.463924962201301   0.770626891675385
0.159629607754908   0.355493861764900   0.715879068069384
0.183259732017739   0.655604049012430   0.795449542004311
0.450849101309294   0.423898402066302   0.706722277986741
0.262557099930561   0.595332079698449   0.987290591474653
0.196149708574162   0.655932704167656   0.018603938912311
0.233665277952830   0.595482503994125   0.979514875705175
0.243104933162095   0.571004357502458   0.026164569363182
0.270745198835584   0.488707713065850   0.211498134845888
0.309513739519253   0.648481315308154   0.161439177881272
0.084939795410896   0.468931875913668   0.084489243487479
0.160398480249383   0.560712099144728   0.304582834672015
0.055295979289816   0.487217886642168   0.182761900793995
0.084904226321027   0.751071465799950   0.383658480339073
0.027517538613421   0.692118158029750   0.389452387430992
0.262367706679202   0.755389936264010   0.393389873701960
0.296348012558946   0.598168690189455   0.557319699785198
0.273218827325449   0.580979991404876   0.460705234123018
0.035029858475936   0.547188889979185   0.662668373265134
0.157690529127947   0.626611409456797   0.469446411917527
0.371336529308440   0.522057471412795   0.913567141170585
0.221594482240092   0.580117882037000   0.687748136416893
0.374687024898165   0.609943125481646   0.710928777092305
0.179868718956108   0.522976197420570   0.777866204025104
0.329989131791201   0.595372116258975   0.741736711426299
0.225140505049521   0.794458521938083   0.007387397606533
0.209544810838606   0.762640502945547   0.088639076513277
0.326214297094070   0.709666399101032   0.142903744241957
0.245529320537380   0.478074169755128   0.047776314681776
0.178186636017187   0.503463549998210   0.944813926674041
0.218609104827996   0.561141773064180   0.198967044427430
0.038865958728717   0.749112193336444   0.173995374561029
0.989592108149347   0.749318348745104   0.203032164178571
0.323916094238219   0.694541109779601   0.422005619554630
0.367580812641835   0.534581841817167   0.526745616187581
0.366431436587802   0.537672917130523   0.283799678249011
0.140054043729954   0.610334318036027   0.360593660678693
0.299831868294466   0.728066898705180   0.620570386626448
0.209925505701617   0.627337521249673   0.668456360939750
0.168078669407360   0.844244079953795   0.599783563793154
0.220864718216190   0.686419313378814   0.680699665152813
0.126082255169708   0.509727666655815   0.760689464196420
0.162976463101299   0.440643770648679   0.767759792581910
0.278020767096627   0.651204844585530   0.905573833021521
0.108627691575494   0.714895456619633   0.989237856154232
0.094719725380824   0.885697105618707   0.845832474626862
0.251137341383155   0.707896582063351   0.993442600108265
0.183201619520962   0.709067089168766   0.226349058406495
0.072503210594307   0.478881778948914   0.160431470498052
0.295168679411424   0.512110753706451   0.294769944898137
0.218525223850941   0.556255996434877   0.253723019784088
0.180940821323611   0.716053562838703   0.254930369958155
0.222738590993853   0.564909944043293   0.227008069286568
0.211393809690102   0.887554622402176   0.224419792468337
0.322756953810404   0.490257438297791   0.225741746442972
0.156752980072847   0.850367835749765   0.513013998324722
0.257570726787472   0.741440641956070   0.419134370962282
0.963467246450428   0.735013303419082   0.480706299664838
0.235503929789400   0.697447771344187   0.446266311288740
0.230679490638570   0.655592468271597   0.678854022059233
0.224447495405559   0.799829133297518   0.777578888672861
0.079672438235931   0.605580413562429   0.678747873363636
0.406879975920896   0.566572800690253   0.676654481771316
0.205873930876684   0.864661570434627   0.878877794703659
0.914145888569583   0.859480795653464   0.022236688749643
0.113833816481233   0.672765934260301   0.170643276048258
0.057024976849822   0.669370982377870   0.739596903248478
0.013267767766427   0.685762195484789   0.993251176784859
0.168392926402750   0.780486848611017   0.145994711225565
0.152439832045206   0.903505167041406   0.121152698748446
0.996260575659109   0.879349323911999   0.227394799628054
0.118170246092069   0.789553891551461   0.215796254127104
0.107025982202463   0.698878051817973   0.123482247877862
0.106879045517546   0.852454463740601   0.432322957176884
0.207498771258344   0.626397307026871   0.405104050357800
0.379661878415197   0.659368900310663   0.511201057585749
0.445889247220927   0.670348897778847   0.443522920844400
0.075951814352717   0.585578916120967   0.659915078450075
0.319167077446680   0.621372263328361   0.659279572255528
0.160386788664987   0.554444639066783   0.567799099914742
0.238377398025079   0.754567066594601   0.719505067682529
0.181317632460698   0.860170872419603   0.695672508458110
0.354836119345733   0.692010804046293   0.730746815348091
0.230371238406658   0.873774937859419   0.109819928333810
0.133088567176258   0.910171736690201   0.752857893682847
0.176862111333519   0.664717014970900   0.997044559208373
0.109077856767513   0.869932646539286   0.041245626620504
0.223178810392655   0.813689315053953   0.051872900376092
0.188161352482088   0.780702665315102   0.091788191329577
0.149867349439631   0.881874704195031   0.141173694120283
0.215513219367142   0.680109220733426   0.316089555370272
0.295174303645184   0.767496172529942   0.204947040194688
0.101108162901421   0.808876787028744   0.362330834563835
0.089756349049328   0.735776911533881   0.455464035217906
0.073673998080391   0.761404260860968   0.330772623579713
0.239739267528722   0.816883820379362   0.469143831809901
0.216732025597161   0.792274583035474   0.621985498643882
0.952126973617250   0.824342609206453   0.343189729985487
0.217730588816448   0.873571647303241   0.606152949631525
0.118643675200024   0.960055304257694   0.538300666839653
0.223474849300405   0.857075648796600   0.766836363482666
0.044371157561175   0.878830988850958   0.724954498862247
0.370788571567787   0.947127080903214   0.775138266086731
0.052241597410222   0.813144759599349   0.839999435250208
0.976166827790382   0.838647192104313   0.857597632949829
0.011996157490214   0.673690002447081   0.170943708837683
0.274134552625681   0.858295487401814   0.982305522338753
0.297924499856747   0.805098933918426   0.174032414797960
0.252532835713331   0.846985909942357   0.970766493773071
0.180209151366278   0.918269748314087   0.293468284863079
0.158386180401678   0.823670469625684   0.087680001172453
0.298275314593073   0.872506622754350   0.200569403899934
0.086625442409673   0.993233768363456   0.360702716344013
0.301707281395904   0.977602973503286   0.337132733695390
0.230289654417083   0.829776120089034   0.338631177438518
0.245471249064371   0.949160734715454   0.571846764135423
0.210551470742042   0.867679296241804   0.460274557487429
0.195633488697143   0.966640341018631   0.455454651907798
0.098807481713600   0.772040407062180   0.608858699248020
0.142392551600864   0.742707059430397   0.552669868810831
0.248238823036761   0.870748757694523   0.599452654442848
0.201143819850839   0.773922684814615   0.769100025869064
0.176161899290838   0.789204359545875   0.723807224656089
0.165563617825795   0.985985378236120   0.863124370960082
0.254371076775845   0.759549435973304   0.787502909916273
0.164699869034259   0.821242528712983   0.925966354312795
0.082563484060420   0.899795992569374   0.071934488479064
0.256026158807545   0.777736133893448   0.864534489655792
0.154013163608538   0.076230343661242   0.947506926127250
0.319320460148175   0.769503769416506   0.062958991626496
0.229437461071147   0.933823477015283   0.214913771531726
0.140000452512854   0.943580132133505   0.320805314224022
0.207643576999764   0.155799632830829   0.390897834879935
0.285105677865644   0.857326261074847   0.223533050677117
0.026828857389261   0.086199719520845   0.373590043033751
0.125246590351751   0.877646638350133   0.386120225920731
0.101940647582101   0.979438249052646   0.404259731760436
0.164681075739899   0.800641297300420   0.494093806568880
0.294647082654705   0.944150344634653   0.579557419053498
0.059435057436000   0.964889972940709   0.714469141343372
0.248530052516672   0.941980903878288   0.653310782877649
0.157207279937195   0.757827515210095   0.685617789602795
0.213016588116564   0.103483315953209   0.831208301033337
0.223512831134685   0.909440627955500   0.873974458249149
0.125326528447819   0.874610770998171   0.016353189125098
0.205044926988036   0.103127454142564   0.999358542970516
0.246855456055418   0.931745486648655   0.114814586250683
0.313466661438015   0.023490015707887   0.265464572162786
0.269300321980289   0.998255406365690   0.095920262306264
0.225069722287590   0.091194418086606   0.170123259035406
0.292056714678928   0.863859651188896   0.171024522595988
0.231996937204823   0.962668815273914   0.323981073168768
0.249202782657036   0.973825219590801   0.395988681429377
0.227227448355067   0.916784933916441   0.473452125485148
0.291133833833376   0.891528493271895   0.574561454055028
0.255501574805296   0.047276377985929   0.497284781749195
0.297195612681364   0.009094288202080   0.511460414977367
0.166922096465265   0.966621077230576   0.561671764661306
0.231844908166846   0.053917360209037   0.541203814045342
0.386335113676763   0.970925854209059   0.776869934027767
0.152777341436180   0.977512582276632   0.689713933555847
0.272105019404644   0.887462875211739   0.840057032488490
0.242399797428474   0.959313319456326   0.803913137943168
0.998405841567185   0.840730767876646   0.880142256917869
0.207589126387731   0.967369876399933   0.961029837065149
0.432053273667490   0.780444046685629   0.059717624400272
0.315951996202297   0.859704419058333   0.010594286674054
0.181705993506703   0.918720555558436   0.068339614115617
0.220251972406437   0.098726923396385   0.302744222732344
0.065398661234708   0.909159933430539   0.133101126323649
0.227892532978330   0.908649324964985   0.425954271711479
0.126408442072290   0.285215228080672   0.165924957668844
0.125877512126043   0.149001838922274   0.236107403471256
0.356468270126107   0.942479720906293   0.361780033416673
0.933593929899635   0.779394835508608   0.475636306087611
0.116089664176716   0.140360850308821   0.346797819458611
0.129153734212686   0.994618976393534   0.694335912047445
0.274420506103402   0.996690954713090   0.527356989048576
0.392871406840494   0.929475205918212   0.712039429386711
0.177526590561101   0.030917042774202   0.594349656844344
0.183063570722881   0.087251717950166   0.659807664020201
0.294632747225180   0.960103173311119   0.733166369787178
0.199562424305274   0.134732681868302   0.921622809937929
0.290869876935213   0.971103083449739   0.900017472610068
0.407236805801998   0.901432655152393   0.870426440524819
0.116704818487460   0.114936353574886   0.930864488599426
0.279073698931494   0.088416126842952   0.984241846855063
0.336552495251153   0.117385925720385   0.140779859634211
0.314550371361748   0.963099095677948   0.093759208145735
0.301137441111516   0.182559595832168   0.181447857236681
0.309992046410286   0.115302526789229   0.255907757309633
0.030406269998687   0.025135611758750   0.314609589238034
0.296821941563970   0.982495537734038   0.366313172128914
0.253396997010393   0.012650798753844   0.369867866601556
0.344441848259566   0.917269214842271   0.402310952418838
0.389940148747376   0.141709827136102   0.409293379777894
0.064892275429531   0.062215369336286   0.749504290633932
0.230077656374909   0.200710253711369   0.553010041226489
0.143032819613400   0.213797179748950   0.692801259865763
0.231909458808971   0.985955123545096   0.690909752890649
0.312873016457820   0.982560619676920   0.733056531476163
0.063754620901384   0.166410863020969   0.662509920210091
0.162190241452067   0.081485612745424   0.767089406969799
0.365550909780943   0.891471115205105   0.766403503455450
0.252910058623481   0.101612183404221   0.055534279793752
0.233977091067357   0.095173835528230   0.003534952561974
0.393723335713370   0.139696239726291   0.030506972045730
0.192626246260667   0.935956554651488   0.130485760471374
0.190292961098990   0.899673612205791   0.086442288353590
0.225966797771759   0.198744953733818   0.359365752870408
0.344680199126806   0.067097800620265   0.175241615053628
0.417176093178290   0.963963566181791   0.229904442704317
0.355970412961276   0.209615386638783   0.102303513419819
0.252794075989642   0.981645897017493   0.310266017438925
0.294706033198258   0.225701415069475   0.341918850498493
0.058599261997060   0.043804137594590   0.442749814567026
0.150350742907271   0.000100826541345   0.630984276568921
0.375951427599378   0.105755027513798   0.732477747053690
0.245281084817007   0.006879559392352   0.438383643082399
0.253962171411098   0.062180276677238   0.641603734415347
0.360914662966627   0.096385229873179   0.572007238146195
0.214054441978116   0.082204362322254   0.714049035698555
0.192890743976189   0.093990560251897   0.811485473419436
0.145235206906784   0.059627162965466   0.762323474409302
0.210224367427400   0.007847389568211   0.017730462417132
0.254008821107630   0.099624934422208   0.026720938264473
0.182906600512617   0.092956067960240   0.061633235597048
0.282182366087284   0.101449184479326   0.011992413697745
0.250627533803145   0.264790306737454   0.229805175384074
0.241512325025098   0.207747407653225   0.109102321551110
0.462039317726084   0.182944325014997   0.137983707056527
0.385071061310009   0.161537923049660   0.167843898168680
0.212727919443273   0.023627594375920   0.335312854623021
0.249459570111656   0.053336713889083   0.302784492068372
0.126260539660987   0.992934226749028   0.392129868981963
0.271817058054531   0.029352389904523   0.479305387076437
0.065539903940770   0.174091191409093   0.332802983714588
0.040657733111162   0.953626052997076   0.591825746833221
0.252601342092471   0.244320154832838   0.796318614145022
0.315600142465634   0.218537683655223   0.698475582492732
0.332972429974755   0.069910187250211   0.678858490101231
0.244156677685013   0.300908900659279   0.600447709335278
0.071842813110210   0.006950512750627   0.751284881314338
0.037543129171652   0.236703213605413   0.955426855441154
0.491933160229056   0.190256606056090   0.099285679507967
0.091817876369279   0.150926738908373   0.966402684992428
0.254011244891564   0.095059216414392   0.862549023006171
0.323747271181710   0.121169190051279   0.946320755906755
0.259292242281157   0.254723368115813   0.094021577352065
0.214647798932562   0.115265867894248   0.277181063002796
0.237747306726247   0.312190315077236   0.329797799340146
0.010807824324419   0.144893683161862   0.102104895662782
0.214623964815789   0.228729097153349   0.391817213629491
0.321855450767978   0.229273161711245   0.329390216026444
0.225067451759204   0.209472519827084   0.439869433701869
0.064053883838588   0.148180506020117   0.309534520066356
0.379305694733923   0.162622503592678   0.558839825556493
0.163385228929564   0.337115000923959   0.462301166829729
0.133748743650035   0.079554471655769   0.644866426099805
0.255335057721687   0.245289396949670   0.532370594163755
0.148789964451281   0.291669167535358   0.926339315574902
0.221916906174603   0.182048402920937   0.708566992875185
0.089653919981333   0.219179022563273   0.769065758223067
0.330849402373158   0.144832166784565   0.649441971129446
0.160661538245665   0.233931634562186   0.843666343395191
0.261491116014063   0.133362273967662   0.709165029116014
0.247045999643702   0.310577151555658   0.039031145183268
0.165990438815254   0.386194521998562   0.033776366426052
0.235227932840559   0.366995142587252   0.895478382837167
0.202323326960950   0.370655382512611   0.105994034470609
0.359791745230095   0.159292346121585   0.184685380216949
0.311852101018255   0.215771766023239   0.417428939583254
0.417961090803110   0.396907999454265   0.342080149346102
0.320588120447847   0.337484067226402   0.397433392642882
0.312359763595835   0.109036216901872   0.367451908957373
0.348964868108463   0.274050282553351   0.455337936440544
0.324034468213676   0.237738997801996   0.556568621503361
0.299170183519151   0.320746979962652   0.607320802567473
0.288998181047245   0.049255148857032   0.605532729287932
0.257666206973420   0.155944563533974   0.538602504383170
0.310536337053914   0.208478468616834   0.873159449838530
0.033750988985247   0.288531720983143   0.786433229440419
0.185122349244637   0.120359955002206   0.734801341958111
0.196869095279472   0.105462029356039   0.921170584176272
0.193316777037033   0.384831652405495   0.081972879784115
0.168857392052395   0.066193574843103   0.902179488095781
0.393298194882184   0.120128630237665   0.873019830909531
0.471434026923031   0.988614399372651   0.940339112997291
0.182073677780413   0.262517891807562   0.014906485202833
0.335011632575546   0.142589721505202   0.182491707451230
0.335619735893369   0.283534360992668   0.285463492285006
0.300362015962657   0.201733007452803   0.161296021224969
0.139168887244690   0.290511490151599   0.405623796714472
0.194537620770790   0.341168852427274   0.519306172262629
0.213613917395590   0.385473876868742   0.548892531678837
0.297841568630392   0.373235006691370   0.681493609635503
0.281796313633073   0.281493713752159   0.564597583277456
0.280635415271184   0.238273038711176   0.273193023304798
0.245725191675788   0.372367615656041   0.781532719792461
0.259885746383840   0.289152318389169   0.675787738581675
0.247882874828445   0.180920092721382   0.621563000761281
0.339277463726920   0.206413651699402   0.884683129266543
0.237010830548473   0.472474610415801   0.724519799301215
0.477526071477955   0.184356253075107   0.939621848806668
0.376613083895837   0.377299622387741   0.697065689519635
0.170719673380857   0.381520243756716   0.756904133952466
0.237804649262364   0.335102387227097   0.971667934958363
0.336475705651581   0.466767744527135   0.165042552283258
0.215302695207669   0.332589018861228   0.185107102837306
0.239694608012489   0.340409607081253   0.166413870527569
0.270990247641805   0.272141856030451   0.078693598542398
0.387069929632446   0.248410194313756   0.215484813879538
0.202557866217632   0.261848792292378   0.214458953124358
0.323690886503809   0.480815691762282   0.405873705399711
0.262325193622735   0.301814136460413   0.496635702664083
0.238811455769710   0.181987308081419   0.479837379412240
0.157384511262779   0.439286336978598   0.513545362012501
0.302254540828003   0.178937827574315   0.514247355119070
0.311542821408764   0.473268973256380   0.620211287264233
0.265677058963629   0.472284024585469   0.717736159729501
0.301739415916586   0.427908148094614   0.764954303104375
0.052359693247571   0.246026189924293   0.662234561827653
0.073387358357977   0.270199357839007   0.951680391677737
0.159773587881951   0.328134810169245   0.868735556651750
0.454781653012467   0.276854261743550   0.810631533132008
0.272618893664296   0.426383782451639   0.873698926883026
0.290979852232379   0.447521770872522   0.994376657156322
0.349584078240020   0.534435770348001   0.053618616701870
0.319903516990609   0.299904140472629   0.857691999768862
0.137395584438333   0.392278921962623   0.350085294220216
0.064382772457317   0.493725614809883   0.210531249291707
0.248756944866048   0.454825418991017   0.406718306677730
0.277727735110849   0.405800829033333   0.440233134008182
0.267438999277290   0.586379895286243   0.602320972860344
0.246146521319483   0.542547709236622   0.424263103048197
0.244749269213697   0.447136318413215   0.435073570744832
0.176932946435021   0.421876643165612   0.610335376580694
0.343875734136018   0.251520808338528   0.636376207549985
0.310006595430934   0.451640764927354   0.755577344872892
0.257054565672137   0.294304366783225   0.574444972748616
0.130418437742015   0.541399100654682   0.712252273153201
0.234877689807960   0.526426841478358   0.631174389857350
0.436863458371782   0.378617687271677   0.869760368957036
0.179881685439684   0.575885228896783   0.943497930088737
0.185529566090280   0.401158610435446   0.810376776684487
0.266055734993647   0.347079243295341   0.963335884673374
0.128450605247539   0.328078774142520   0.084527862516965
0.275198202120454   0.495614796583187   0.992952621712235
0.256289500290030   0.489050385197379   0.117034080206612
0.200437541275164   0.530172887063660   0.261130126307815
0.117355328981452   0.541065191466789   0.315114587680820
0.223253682401506   0.479856168146576   0.190566801442525
0.182282548024015   0.469909218208393   0.218630901903270
0.351527763269682   0.683775042832795   0.274682714495399
0.115114669543910   0.308896769110010   0.399707081754312
0.340317772705346   0.619289883955979   0.458656706482152
0.338439970515551   0.540554584726588   0.528990197629750
0.269932749647651   0.580727278998071   0.699036102369586
0.297129407962503   0.342462381527310   0.592340689728311
0.183095138425760   0.527103795740517   0.428662865010983
0.295677438628733   0.579662775227037   0.886562656066723
0.278193253383944   0.374922063971142   0.659184747662598
0.367793549483684   0.298817701641024   0.759207183880011
0.250496856389713   0.521310292458850   0.871809050595573
0.298240618146651   0.335348654437223   0.016416739871126
0.189615166764711   0.619995426365792   0.969338701207738
0.046212151512986   0.483706379178050   0.043627015795843
0.117971833410139   0.485052964947047   0.153734456514532
0.332854487079802   0.369562728684902   0.063668741363671
0.421354234536207   0.305595239423762   0.162862297355655
0.476537458001365   0.496831110563250   0.249033628284888
0.141040054234544   0.420117203059818   0.442320985903482
0.249743464525842   0.494109677756057   0.261687336289534
0.173277740653770   0.588196312687809   0.298251646584571
0.074623414040621   0.481166875013712   0.401152248632157
0.190035799694351   0.501158782885939   0.385124930538788
0.265982480947531   0.603640939290129   0.356675879780863
0.258943303938646   0.532822225218644   0.614141049284039
0.304206821899935   0.447191752293390   0.605432702527122
0.175336704224918   0.392456855654541   0.783757085348667
0.132715201555865   0.475554531597104   0.796240976114018
0.391080082352436   0.634205968566015   0.706199917888787
0.207572125289073   0.389791388020900   0.824736780986584
0.328789830588309   0.577748094463950   0.765127940751630
0.119397657303622   0.571065771174513   0.978213580623500
0.304716358274889   0.620523070196737   0.039999040793403
0.201701205737710   0.629020920757322   0.091060719835832
0.282386024048993   0.616392449100232   0.991831016597217
0.127106723418929   0.740569104126207   0.209607375708777
0.105696953619310   0.688330437329106   0.147746431139976
0.231499347659539   0.485749196024330   0.335777343240267
0.254393175501701   0.491182517897709   0.236359090513155
0.121916387687793   0.599908311697491   0.978241825483895
0.294666858116567   0.477466503116077   0.406310141126261
0.279307694082145   0.753425359685143   0.440900382708843
0.223112070292121   0.572037669280737   0.303743233044391
0.316856472754334   0.564936731855847   0.232898218593808
0.295403656071247   0.526365916336855   0.423003408433099
0.187409898813912   0.541788243727241   0.644638011692149
0.252563443481351   0.429742111216970   0.598973253366260
0.191216292148395   0.495707564571599   0.731559893513937
0.481704595327919   0.564512637479341   0.754480311879308
0.291385344749740   0.612668046602006   0.067626184677943
0.156115476123709   0.660979492029060   0.798317900503392
0.128880192730259   0.617613978639590   0.926310235329884
0.304563797949756   0.287094163691085   0.037718695396365
0.264650078469205   0.678791644426819   0.048405460139669
0.292443373638869   0.445056448376521   0.045313309483556
0.159375565192394   0.868218897683053   0.949711250890735
0.383693873641184   0.557518320582973   0.187721938557875
0.317813813658928   0.667908009815934   0.045515655460907
0.210192226408400   0.532995138354363   0.185955633587388
0.082729195379225   0.434857383894045   0.300090948349423
0.107082023278418   0.621007297278798   0.489086842339542
0.200703574039055   0.476608664332056   0.427930089246794
0.507510608371095   0.597863659923705   0.573497785816990
0.101823948906770   0.578133075801551   0.517703115581494
0.308350983066258   0.609866347191942   0.684794279676947
0.204711171892452   0.621460870873076   0.566629245009079
0.136073090958694   0.483563954509570   0.749278148219304
0.229087381968748   0.663370098751674   0.643180562972702
0.239183692235215   0.600327432582786   0.808743755853898
0.281247464924928   0.748408141397150   0.029624148967832
0.260763619630819   0.460166272216981   0.924621724708584
0.219421026577911   0.616169360629337   0.799319705978634
0.374306820463132   0.581693129138958   0.979218508243292
0.215808315625041   0.734983443639525   0.927184596130316
0.109851581596098   0.770128297809360   0.098109040688490
0.173977223493008   0.637714310883108   0.081329208337747
0.241997344845539   0.561928412598598   0.092655256648592
0.471432150542898   0.797864220826621   0.220416817105868
0.236574583188966   0.658012507890194   0.119073442032710
0.236034752200715   0.626687389931070   0.034036308164995
0.331481928209157   0.540237475238141   0.160342604138275
0.171709720016016   0.610143120261827   0.628667356303255
0.085236303859191   0.750777863769957   0.434044870525758
0.259162958031765   0.659273858750254   0.633677531278543
0.189306251674539   0.672186520479817   0.468575934811769
0.324742287209386   0.563622503198150   0.586317720594698
0.173189648048957   0.556589590756177   0.676446654531678
0.293674576529744   0.612369613092858   0.531567975182153
0.377269489608962   0.661310461499688   0.694152266661172
0.223339529308511   0.529137128209366   0.860981305626055
0.285367254398633   0.619916475477348   0.753341258617280
0.246187925124996   0.653213483309135   0.045414887823634
0.126957778295493   0.653921797477707   0.048901749064894
0.120474472593414   0.839366904054583   0.950717830293759
0.264789715337543   0.600025106817793   0.068135712972751
0.059211648219379   0.590215579567096   0.090549879818401
0.276067400694321   0.724514973758207   0.218827584352597
0.366320130196095   0.720532921010279   0.398160639257838
0.211387840570875   0.582592095774720   0.178971625748132
0.093337127102693   0.831880575345959   0.168975076242992
0.257343398041765   0.815962347647188   0.346925918096130
0.269692012993802   0.643815585871599   0.494599939953402
0.294759287376139   0.777616671100892   0.356173191303132
0.221453360980221   0.476145759852488   0.646991935699408
0.358904617849227   0.695284595385575   0.467525858450310
0.132514908850120   0.805674521421924   0.603800863048525
0.241320665021870   0.829145078936395   0.548156977627910
0.217749156200858   0.703766446977269   0.705037655279229
0.186449995494551   0.660539859662306   0.720040595636080
0.134338313953438   0.662783784477659   0.730844835920071
0.245996978357923   0.681165180300767   0.847247401003268
0.351120499666481   0.582447114088062   0.907250523794229
0.262751740515914   0.730265510743789   0.103196540847459
0.320955851303134   0.727996479884749   0.758130276061434
0.411869897344867   0.857550501386055   0.938667056921594
0.361981938867352   0.642982580786692   0.172723319417847
0.145250884739935   0.754316486587905   0.031892235728395
0.169602531571538   0.754080346785996   0.141536367705141
0.268123001098066   0.767901728809101   0.250385590709678
0.267957277283729   0.812910616722164   0.169107599676589
0.308780353982165   0.667168378661919   0.426786371753954
0.190047528000490   0.593421016590308   0.273490616419372
0.209171847972052   0.728928362475891   0.414484037913319
0.318593241950624   0.872085444720859   0.413246770000054
0.241853029294526   0.804349834355480   0.636662911130661
0.357007723615370   0.821275210231172   0.560846689444070
0.051525305996587   0.672480897704492   0.869659894970116
0.095039629875911   0.996670693095792   0.846991648844783
0.184404308649743   0.773144560847431   0.746453212844158
0.259872918111893   0.807401289924909   0.724670666388823
0.245965377382461   0.654592706187735   0.751195400229615
0.106706204815581   0.663610730797173   0.725065875040409
0.199234213266240   0.700833379174459   0.045176464411226
0.188073814974159   0.060136315240297   0.881768738121359
0.221491884903057   0.651531580581470   0.093969883076541
0.187698949427897   0.825063119155800   0.154821287900798
0.314472689629080   0.937870792013686   0.109043602028436
0.178240643539203   0.804711614347067   0.103469020106329
0.237860790997117   0.669002022543079   0.325840257509556
0.367604851567180   0.889870549797178   0.286317932537473
0.175856842359473   0.799191240808991   0.443640756486489
0.431484676691191   0.659886015371896   0.492612232954110
0.179591279403746   0.697736204104348   0.455985332099067
0.040012634482042   0.782588942726905   0.558727843935436
0.340278954221172   0.689160412439319   0.593419411766019
0.213571859265789   0.826506238652481   0.767740110413900
0.220395358076006   0.955097739508969   0.554556749527161
0.067274937806695   0.653930889680647   0.852889485378199
0.406218662463159   0.726425128570575   0.769039487908144
0.261741264562741   0.651361293991996   0.685668216456397
0.290971998945296   0.898015496586521   0.795299843611351
0.295629417996995   0.928454105868515   0.869563190761784
0.198153190257104   0.669919871073582   0.048353050302366
0.162695260648863   0.853344500061787   0.082800643210001
0.260024890173986   0.689727924162994   0.976152737388117
0.240707260197988   0.789185085636270   0.053199705488299
0.220876758630090   0.867516163946229   0.931780420332634
0.316504692520314   0.745415891283157   0.296073174443698
0.151762987169581   0.944258102589982   0.349682811815651
0.047705346288073   0.822661977173627   0.365345809392911
0.231017832520139   0.831411852398747   0.282809734813503
0.369323096884144   0.753660038534894   0.455834990291184
0.427972728613345   0.885698115410220   0.196736384163708
0.276848404148348   0.845114633644351   0.643917901708960
0.245521798772731   0.872681789188558   0.776086910722332
0.318420902850479   0.834778810220056   0.527676011044463
0.322970801963084   0.945147261178316   0.573623393067541
0.444484524438519   0.760310916292018   0.759586404198119
0.307064078452232   0.649510039834037   0.654843920397314
0.226705311562438   0.669475942926460   0.742116682746744
0.297343028396383   0.771096802610716   0.766856155347647
0.227567620441023   0.868687224315889   0.900239100572441
0.198394084169935   0.893285292466171   0.874242401538280
0.143437493373039   0.099237887525590   0.119827590985904
0.279365537734902   0.939010742021910   0.180280443299571
0.087943641136067   0.833653752154548   0.990538077471329
0.253512873064261   0.810276735659812   0.282686888973233
0.102507771372929   0.903337443532022   0.097174548649752
0.227833971970518   0.005953479023358   0.356624328533311
0.278848825875010   0.042605778945955   0.302386545211634
0.233784435354227   0.937384174088361   0.432834668230453
0.289029980060995   0.037464031358161   0.348768128940263
0.515496998216303   0.894556462318402   0.482768254636828
0.333535533120941   0.869419635139977   0.565544185861757
0.244801882901515   0.991311797736504   0.519796981824168
0.320072329988997   0.905241371358048   0.656207616178852
0.120052857129971   0.697571918519307   0.649562289720275
0.200568926851059   0.884797269404236   0.583712681235523
0.057054971121896   0.075026905969383   0.722508011707300
0.282901549730065   0.017513299835775   0.927595029455699
0.234787886400672   0.801449159973632   0.807701204282718
0.200546778775644   0.891569689198599   0.936949695997004
0.192069782085406   0.841782506054173   0.864175291144392
0.291189888304676   0.022437599850501   0.958815342126748
0.338081038127514   0.869262101727762   0.023301103559949
0.253364398793396   0.923309054126944   0.062972625694218
0.038750384136497   0.990188205006536   0.279877779495666
0.284699541535522   0.055217861478129   0.199999459154697
0.314681253769686   0.846543609736287   0.399399099070880
0.303204321564543   0.125490433543738   0.228747369605296
0.164576845035493   0.013438028273500   0.171073121729293
0.137081564542659   0.889163849103946   0.431981624504805
0.349358076527021   0.931371077086647   0.509850027585210
0.451775868551200   0.975507093200860   0.586324574545809
0.330956586610877   0.183029868147686   0.369016864927208
0.175119490584177   0.868441129247173   0.581650146135323
0.274114649195435   0.959952248923506   0.566515592618776
0.234260604703523   0.014413337225624   0.696986479868570
0.129166397531854   0.926548889887864   0.698269742455910
0.164697872026606   0.846947671140648   0.858025748583063
0.225750282133265   0.129790270267052   0.959897739012974
0.264924463735481   0.018644890084380   0.976953972500244
0.294250532836351   0.054221498923693   0.950029363667499
0.385263434050115   0.997069042552378   0.180669608069983
0.149015103316381   0.968911225633345   0.074238275907782
0.266503872240996   0.743686411675337   0.316059025859507
0.370175073365182   0.071480168384262   0.167240432138758
0.355535903542768   0.082670240181163   0.005180742415289
0.208529547228629   0.873200859122318   0.157903884794587
0.279051846383322   0.990859359847261   0.321532105174637
0.473297825666246   0.924347733436936   0.496710330357064
0.231892500619148   0.044715747838746   0.478765756034270
0.296025842988488   0.013268004978750   0.482112456612261
0.193288500341724   0.970509038296067   0.570148842779772
0.331368999677872   0.038476467489306   0.537706199969486
0.190821594955066   0.064363874350357   0.716529655487843
0.121733762178063   0.002659492030308   0.635237664800782
0.159373645192449   0.054747223782739   0.590648740528891
0.379648205260854   0.017832318093129   0.859276876286663
0.270175150840078   0.084439462390162   0.885217558140830
0.118106864163640   0.002607484230286   0.861267891071532
0.346207979030493   0.016663046292003   0.043874559245629
0.241255175076983   0.895683950734000   0.894548947828778
0.203914900104481   0.109937465939092   0.067144041388043
0.189493313122986   0.921065869178956   0.186544660120676
0.239906105650140   0.992557596318170   0.090729418318856
0.240579621074590   0.074949680641915   0.182595995728395
0.349783511778922   0.196195574327875   0.294106052502867
0.222584254618965   0.950929824249079   0.123069524206305
0.244826967001415   0.081706407032673   0.296148487742746
0.330640759074504   0.010992454941280   0.285921753489608
0.991627795387436   0.045930591992107   0.556595993007104
0.305365452698176   0.062508827684982   0.340738317014645
0.283708159953874   0.062084321797435   0.535020533336856
0.240026137222381   0.116042057046181   0.261390572230912
0.206995164322485   0.846362175482635   0.679484526493827
0.214340534713251   0.098864808981752   0.629822591978017
0.268888035849696   0.955658933170543   0.671075593399287
0.237889878043477   0.926647882368963   0.937392627049952
0.201265105609506   0.948971806141804   0.673715780089782
0.235563728413277   0.221505986074894   0.800465389578718
0.219563470064795   0.131272516793395   0.823751295045289
0.154449003300257   0.126827957227170   0.861484896994236
0.279322566053862   0.255592099171794   0.159876013769262
0.218814210701286   0.976190449947780   0.104502603106333
0.240240819268093   0.113188421326326   0.104928705589200
0.350411297822944   0.952789571531347   0.333294871259820
0.325960808527116   0.100410048868096   0.965314351812443
0.193704366682132   0.981990908308109   0.284755250670222
0.226013829853141   0.249358107314129   0.342845142266759
0.211562254307235   0.045578963707623   0.554973889134656
0.397516730970852   0.968412302037802   0.393472374262145
0.440715816848815   0.992903845506753   0.373687297836493
0.353318963098248   0.118117491157327   0.585591446485579
0.290195479532329   0.166102169853580   0.536071919733291
0.222603651488708   0.841241270987253   0.468137889493130
0.382089456198897   0.195406624563505   0.344786985384518
0.285992456514482   0.994644814886889   0.644241716618642
0.397940562200637   0.995312814130631   0.774797566281791
0.252744438015341   0.120378360010367   0.773746804314266
0.294669871033001   0.087836612309093   0.775027573405079
0.270780885520339   0.101765335139760   0.772061289264088
0.310757513677048   0.159096629956427   0.191709881849112
0.290448729378488   0.133078296787066   0.889509053412663
0.331065256009022   0.065949065642951   0.060048198330995
0.298616611289557   0.035195619164688   0.215766895420545
0.511739874969352   0.104646338844416   0.083429809763465
0.100850692195648   0.312970283904881   0.426339569663675
0.318712924437551   0.148579271564231   0.218437206586836
0.299139426621963   0.065284966087937   0.312751932216606
0.363473795132365   0.073360664674543   0.245144851688020
0.404486848667073   0.089346606701273   0.534250045019879
0.304023097340802   0.224464958054867   0.393776395197290
0.302102231989360   0.368811692644487   0.524267814766616
0.407321652474922   0.976171003613742   0.470866559447827
0.256419708270252   0.057337102255807   0.525515678985338
0.321361013500425   0.040965664255788   0.677024386285144
0.102370680525368   0.995819482557246   0.694989986563838
0.482195221149681   0.135206301835415   0.656858496825752
0.298116632165088   0.266242642247554   0.816203438869942
0.353307925933695   0.203786406290544   0.633838328051556
0.155363001272824   0.117901251982405   0.980706916823159
0.295042095246984   0.122402125031732   0.101444865022792
0.301193153210092   0.036520946634236   0.088399672578715
0.348550153941281   0.104739775751166   0.985715634094471
0.223761640827785   0.185538478107356   0.118491571328158
0.406514914525758   0.177101143460220   0.186470583233061
0.274690402277647   0.248924372446637   0.301454367778978
0.449044289269510   0.381644782839674   0.272404894871111
0.359652553653061   0.169529990876946   0.285873394001992
0.373373618503262   0.298684263352071   0.220783998181443
0.311425147891334   0.283589201156102   0.486107092895400
0.409361007923345   0.152624466528800   0.428034474352631
0.089770388792759   0.130910858166510   0.395383580281725
0.189748602759018   0.101144530238935   0.607391405225453
0.363674713473399   0.176223134887671   0.636267582234320
0.291935313725900   0.273132342546913   0.634065826911418
0.181774573716140   0.038699059085519   0.705441046902917
0.192020052044786   0.217598088480912   0.692941157256303
0.434152488850866   0.387980885148846   0.844889700888749
0.252680107761649   0.327646125972796   0.748898653658769
0.430116716922943   0.193632962690949   0.030428616765302
0.403857021295104   0.058325107654352   0.899585806592186
0.293718014930350   0.315383860928086   0.112958758426242
0.481525832118675   0.207213969010422   0.173331832141287
0.390217978181440   0.024443483447745   0.019350225630468
0.339740694282149   0.218093151785326   0.307289944952858
0.458089889567344   0.265005415190963   0.428607809789041
0.391004291933494   0.184285903772121   0.211457460474891
0.361217515913653   0.098885778415889   0.260902602133268
0.211177227603188   0.255512283988258   0.265203919503090
0.511340390412566   0.223315762935309   0.465445356252046
0.461877538348162   0.352703829981184   0.348802236259918
0.267346135902592   0.385860489328109   0.571185356798451
0.303508205423359   0.243787777420278   0.535256424014976
0.347171705521908   0.197510073638585   0.580632016907019
0.467081834038736   0.401949804848255   0.591995823548042
0.378961883495818   0.146459852691079   0.870676180445488
0.180215715698478   0.375293189365789   0.630585293919632
0.504088241985719   0.056051431218271   0.522848411909983
0.426627885938014   0.300100629654551   0.777116486407615
0.241462557731226   0.348198515886404   0.945763313873752
0.372950683527996   0.148461037262413   0.009562760112530
0.302640073123601   0.212471824831672   0.026879667671500
0.086715070564752   0.154529329102385   0.043223272087071
0.126228935021446   0.309818402602032   0.931755947360385
0.309418643845496   0.303997438960650   0.090636542745757
0.219205938568585   0.238919594424077   0.288106286388112
0.203351947257942   0.283462193887119   0.273068070016957
0.207885087988788   0.338251954309992   0.292342171624477
0.192803144536503   0.157746093563564   0.320085946804942
0.368320258703279   0.364989207754916   0.360024120335557
0.365930402662936   0.267894222525599   0.630138027726784
0.242524569507173   0.320431872723816   0.577031549263802
0.344366983670279   0.342248162723512   0.716198102722613
0.411980306582706   0.394731951713132   0.547921011005734
0.051859489164347   0.194970453249463   0.508865130210354
0.335368662167978   0.395672689777451   0.749089087599882
0.341905401969280   0.261927350876582   0.792052366052905
0.091516777241797   0.163282962838946   0.920653949416364
0.265573324642045   0.444462930943248   0.655374351660842
0.238198993439508   0.213610462153182   0.879957381659790
0.432354039522539   0.343876769462331   0.070361904561608
0.061865780483498   0.382837216410887   0.021729189215925
0.288879033889737   0.423043558310971   0.065494015206485
0.314877954721975   0.107037077079321   0.119993754261296
0.360130378249471   0.186385455550765   0.049467978458116
0.315004294870853   0.212534481974418   0.137630154141914
0.332261480147711   0.342614026854756   0.074650159342735
0.092493711640002   0.408585011984697   0.299158479797884
0.192974393470450   0.513705381169909   0.310419837906514
0.156723666427330   0.322420185326015   0.226295161331416
0.307489664770761   0.337812962058689   0.426263070793520
0.259119636036500   0.261562909250640   0.402747850138399
0.280716544870588   0.261668376201927   0.542340960267727
0.217424295420097   0.439285261411934   0.760981534490431
0.211551675160796   0.220848212686822   0.625134725688621
0.289835170167077   0.200029134896671   0.892373348904714
0.450373489028867   0.374309208234936   0.765979484582159
0.353434516955302   0.233659192261299   0.885675958576203
0.438762440501439   0.159551309486998   0.819642668842707
0.322897072916002   0.322819452732797   0.874333821306005
0.384646829117957   0.168057678325389   0.851358031285123
0.361889011048490   0.404346080415814   0.198662114906030
0.235184640273936   0.358294724258870   0.920659662097068
0.322074649233880   0.263312324001365   0.030236759927906
0.346158613222173   0.388972940137969   0.046764137779867
0.250077044493391   0.491264247215732   0.190273672994658
0.309192970470970   0.414938874603574   0.370646217237951
0.318490834906713   0.336742905540283   0.183244799727258
0.344057092250538   0.214492926012060   0.554621546683923
0.287807490352988   0.374504248986821   0.401726046061578
0.453116214945573   0.382278581329052   0.394576993223163
0.378355307943591   0.483783144264521   0.538124514600301
0.388649183531205   0.384646349960136   0.529946219386630
0.482633008147441   0.479052772686321   0.606584339297423
0.227962630581429   0.411474045535929   0.608454592484466
0.366903328584305   0.214826450699567   0.713113343743723
0.394589224771396   0.385235970791269   0.674122241119091
0.277614145691555   0.520581622600278   0.701471214792496
0.373043557539722   0.323736584387165   0.797856012970086
0.327758534042027   0.518348299860184   0.055567723235779
0.230273132933106   0.312598744140201   0.018286459192546
0.412583860901248   0.400296372606558   0.823822152959682
0.278782654715395   0.322637331401561   0.133439680287078
0.311943910800318   0.452650754717843   0.155215663699229
0.381925942736615   0.717316239714293   0.020713616918531
0.437285234720807   0.256526826113280   0.115594886750733
0.360065118559573   0.348042722081814   0.150258370047263
0.371421590552398   0.480033863139214   0.325929432708496
0.322127951003990   0.428543847736373   0.246688857646011
0.144439486860643   0.441006234083170   0.327812771478408
0.341082848918366   0.439068222095021   0.266608156753526
0.387679777306771   0.561265681816747   0.438186407929104
0.381948651587718   0.450871079019088   0.437792057867269
0.169457606627518   0.387432114362646   0.677369935961922
0.250911674831034   0.534412177579310   0.700668602139565
0.216838082311676   0.535298504268370   0.654583601047645
0.555862410727455   0.503932906585338   0.828531606347174
0.181901678625274   0.495276418280639   0.873046474616065
0.306142893754257   0.557938346629402   0.903917902400515
0.108776373935097   0.474699107999946   0.952446211544789
0.359654210560499   0.406759489123654   0.820278080107183
0.149481380227481   0.527162614562378   0.983208695470447
0.318239909359142   0.462270803746016   0.047883445587172
0.373632863028362   0.546798560743179   0.048296760989504
0.380019595482663   0.464857930126364   0.996338986183357
0.411791858896750   0.590683688274757   0.237878743743653
0.422034978658777   0.462844538839006   0.328419328220479
0.201223721068006   0.408357040579097   0.564635586949128
0.235137079811211   0.500888440061015   0.286264782245618
0.516488535346350   0.362515067481688   0.639752032673693
0.094220164722190   0.564813735996608   0.394801549250831
0.166644170315575   0.463786050594005   0.528474256914138
0.389357830513480   0.424414458209640   0.375251361463663
0.201637188221477   0.483809783881651   0.669675414936766
0.338971696303480   0.364992874163741   0.556308312701478
0.142985011410743   0.441195729874355   0.916518057187894
0.313124355576014   0.487821919064580   0.715938682044281
0.268697284334548   0.432454430061020   0.847462985084468
0.171829232035402   0.601326082982127   0.953730069027239
0.277270730406868   0.309880617041174   0.749094450094103
0.273336143060010   0.652559729484860   0.878863633246655
0.411881661899952   0.537738695287383   0.988462150902476
0.557138519863087   0.445901912118861   0.811472942650092
0.423160246787201   0.631150837121176   0.003529574224979
0.196980044229129   0.590175627054285   0.060126242451746
0.319795796639696   0.380688257333842   0.001414969997829
0.314689937633266   0.467724456444740   0.296080169735137
0.270593530085348   0.418990768018416   0.233447855265435
0.370561457666910   0.464896563139628   0.411297497022089
0.306090221680534   0.630384515361464   0.707943015410346
0.224806829690324   0.574269210050154   0.331866983764415
0.310057556233455   0.636979986139406   0.418000988189815
0.261365172194419   0.458069330043274   0.584725095673564
0.366831504589007   0.369231042179362   0.482218854235599
0.347453693142425   0.493492331577173   0.652205039522681
0.246151607632897   0.563983881850638   0.695441952849968
0.346120130957148   0.592227012575895   0.878350831552050
0.256341985582458   0.874736786628137   0.679462289652135
0.959124945363210   0.639481134154824   0.920105551054771
0.018681252829642   0.584069870437065   0.956357646894776
0.308153354150543   0.614734077578899   0.736746340973334
0.313261212029795   0.630972377507086   0.083501108997209
0.196449645239252   0.443919127694647   0.985845612347393
0.352564731819819   0.438901048172885   0.238423912373282
0.341522912835653   0.705879601751811   0.166198758565254
0.215683638621579   0.575983887905368   0.277130433631709
0.338604977062729   0.693150899607166   0.249573069466913
0.395060557058425   0.580646243074059   0.192367968954119
0.244160157930796   0.472223185788398   0.360033853832148
0.312451050576769   0.685266511847721   0.312900208768061
0.429879138302606   0.633646489342945   0.355993653224589
0.287062793340756   0.575165801486065   0.433408581685516
0.237767893361666   0.514292370572030   0.438749710311810
0.368844201899165   0.555358806168141   0.614361183679965
0.366221258466582   0.709968758700386   0.517601671198294
0.261475117910809   0.854227923500841   0.702022636149454
0.247952303760530   0.827139172612272   0.705777118339516
0.439888448336008   0.598058520588842   0.959052435252431
0.127647660609046   0.714360528682456   0.671935024863920
0.318845232096964   0.539344642266642   0.830167306315317
0.405345595135510   0.611765427441932   0.005938305771077
0.419446742789570   0.726936882392763   0.059646234877483
0.323971772118182   0.639699327040757   0.053632961057478
0.215493051447970   0.856586821076629   0.087739971240594
0.312137448165268   0.764017575429234   0.091654748972895
0.334009865332960   0.686650856066017   0.297627734516003
0.281615932144479   0.722088970507292   0.188475752724352
0.187130503558011   0.707497065698794   0.280603026250463
0.179569939914014   0.551780782569231   0.445405641514073
0.288964251966711   0.680167396006975   0.326505694100644
0.181626665897994   0.620680941433839   0.198923194751044
0.283867290534079   0.495005548584988   0.716399761617207
0.255601224988244   0.509472022746594   0.464176723443393
0.205318696814052   0.553302748110779   0.461066831200873
0.267499225410731   0.639320050830104   0.738706022506172
0.262968343377883   0.894522135506405   0.587780926295550
0.346634243923271   0.780558553765854   0.643372359687719
0.281976549978198   0.819084156586762   0.743949453322726
0.443414047316196   0.644894821904927   0.792822643414169
0.445134440760857   0.641575988161440   0.986284349600770
0.345541145706626   0.687359068478901   0.836694776036233
0.371239102796242   0.714761397745692   0.093402274243912
0.379135048061442   0.743330243414299   0.352677193148037
0.297415632752171   0.748131938501356   0.182270652866485
0.208749429052079   0.884558496327193   0.130530964483437
0.319197568694317   0.564883123974893   0.205876398837108
0.287119953151481   0.660301840253857   0.155361419751827
0.338169852327886   0.701625747485983   0.221049173731622
0.114846193416274   0.609659785370402   0.342251787133199
0.356430867421148   0.755673505992204   0.508139178863476
0.258642189601006   0.678846610934802   0.453653231460304
0.157821113661001   0.708830479929006   0.443151649337553
0.183992778538783   0.643090692382415   0.471467551178192
0.301008021828160   0.566263468484739   0.659960225082184
0.278265208441947   0.655617449222512   0.660287851961598
0.281106199358644   0.629051275451939   0.514994218505764
0.096982568832057   0.691166407110277   0.765540087037401
0.206479281564093   0.681994181725883   0.726512854027827
0.156646569673423   0.752382393635589   0.802514138723082
0.157851813025409   0.653498481767441   0.719063600662227
0.254847030945391   0.751711977814762   0.018782749446792
0.227257258062080   0.711531005883867   0.924069934179129
0.283010473139089   0.939587618290344   0.945851168489929
0.238469564949333   0.726490560459567   0.011175759305176
0.310392788209119   0.787614720717656   0.151711836977630
0.173497288067671   0.736469136173375   0.233212922326252
0.201696651695498   0.934876968995504   0.162557944798129
0.200617930850739   0.934037186151728   0.307117174333583
0.427522209432930   0.818585787589254   0.382123642516363
0.289042859253943   0.763575303334402   0.383067458375697
0.397820171974012   0.899999869779388   0.534326145183736
0.286972676576336   0.981989015022073   0.549451895518385
0.464674405818334   0.906459546398679   0.590032186595588
0.187730163028442   0.613922329283925   0.687668745343916
0.345138891006168   0.712191770119663   0.611331868081529
0.298497102982846   0.845298793483483   0.737946229643837
0.328430414788985   0.735975920128567   0.617670831996549
0.231088258624263   0.738124182945849   0.791096131230754
0.385056326401407   0.606957541763317   0.788856697107979
0.225765372314561   0.830222463210945   0.077047979858548
0.523569064234181   0.734376444505651   0.742515336305121
0.299763007005213   0.763364278776349   0.929461314565783
0.495336458560112   0.717166701604222   0.077454122344731
0.413000398109628   0.926576174997916   0.250477246747801
0.221706661876951   0.714345603296961   0.060940335525527
0.342406070855169   0.759843653725822   0.301174307193700
0.369364318518749   0.931495706833770   0.229273115542442
0.269874269941692   0.788789381195035   0.340079768127582
0.377939295760193   0.917701577176723   0.299104759925604
0.213273479432669   0.624376288447292   0.431732511122604
0.312793587959315   0.858063251661826   0.545250803207742
0.221740970511952   0.902742552459354   0.397436211011206
0.123446021430289   0.899292820438262   0.597941517494478
0.286214552577462   0.683431192400411   0.441465138576411
0.350889123598973   0.833277837122988   0.704372300960870
0.280228134384805   0.796172298252343   0.764378575430181
0.200827929141825   0.784269943630340   0.599098044218202
0.346108678083891   0.761671750783378   0.621346577076344
0.360245825302586   0.879711399327746   0.033622111811607
0.203441526295747   0.748275676393531   0.785665344316938
0.342271065297588   0.814418966513454   0.074147751647058
0.297247757335676   0.872068919797726   0.992318130214667
0.497007463756536   0.894081732598451   0.120731869947445
0.394739906744709   0.070497044378151   0.157360212684785
0.318494050646989   0.736719166549475   0.134778166439018
0.380790305788677   0.675370340465497   0.994598196517296
0.318577240567369   0.892578298577535   0.214556745864169
0.226482180935793   0.756842407966028   0.343549272354700
0.365933410625484   0.798063155538342   0.329229971957399
0.282137875015019   0.969262725304378   0.463662392319870
0.200169844919419   0.963138346442012   0.400068271687642
0.248857982876150   0.025804312523148   0.458750016413064
0.366382576343483   0.028394562012094   0.635063767678000
0.176696724634765   0.814619526207059   0.649746394990002
0.208939985831669   0.690847349838528   0.457960934459555
0.186780030708696   0.635024079165024   0.618138204378390
0.352658515421518   0.038068684379802   0.765987173917893
0.459829379220862   0.787268421613573   0.718227821552120
0.431090684234968   0.907319066394318   0.773275934286706
0.150434076444373   0.004602702088719   0.904692474820093
0.229143392650393   0.694672479531970   0.867196535577254
0.322471405147543   0.923155362608698   0.982251232886048
0.356183449273030   0.986635241545291   0.002231769975154
0.266575784095317   0.130133728087835   0.107206206248449
0.251605255804604   0.764430976724632   0.330813222006653
0.228407969140359   0.917204913620669   0.348789821516216
0.125834866834068   0.918559863630581   0.311806808431852
0.216714543211077   0.833919555736073   0.309701181408186
0.362914292801539   0.943133488707407   0.305301178955888
0.380746320504234   0.028460733487131   0.404177653111676
0.344946332000779   0.823255344350195   0.365559399942624
0.208509969842568   0.532787481735764   0.483594443700228
0.240822280973846   0.940374472749651   0.600972379398289
0.222711046902095   0.931621031436332   0.664098233196454
0.203908107188505   0.857504442115385   0.628417150170460
0.251571878280476   0.924430420811012   0.765246217291159
0.186973533636231   0.940290954549931   0.878633088186299
0.381008111504424   0.848451445631526   0.743454890859055
0.206621956679371   0.815371635644521   0.853274909903822
0.209626385746550   0.006440353218919   0.047186596635661
0.254272464403596   0.867527753843012   0.837026229652278
0.383331928218742   0.079029919438752   0.014550404532487
0.278065445819188   0.895713460945745   0.129666656144634
0.220764380904630   0.975541673511410   0.352917410527827
0.390678599747238   0.951751841604351   0.242846269802472
0.253303033898634   0.949639497138626   0.949727644259181
0.365442463059497   0.006728050450037   0.129988007513501
0.618279320744748   0.071070952299523   0.359586136194075
0.107091407939723   0.899077661380543   0.324985426989021
0.368075569144779   0.874990716232568   0.555920605635042
0.203103537880510   0.927628488165512   0.489736404513237
0.321496182512185   0.998028747198860   0.408323177577995
0.356237921612110   0.067998790142115   0.568744590762436
0.347629834872272   0.995676003634364   0.698511558880003
0.241826553936790   0.176824393622789   0.546282410396539
0.300701163274084   0.961135761857722   0.805410045928706
0.280268426206198   0.157184937356649   0.699395066720145
0.201070496636208   0.111542422418128   0.653900625598591
0.287124067353745   0.995011200142738   0.910204753925787
0.254688005788975   0.912131445761081   0.916363899191165
0.407613231711161   0.020587908799522   0.867143104714301
0.344669037499755   0.100558951710278   0.090149999974466
0.235314349260839   0.100791248296355   0.952104885201382
0.160208670214833   0.082147753327182   0.048179249375390
0.382419332724325   0.023427852939359   0.229698841047450
0.348302265104317   0.151865476884974   0.261582516614928
0.238806573644346   0.214099855883911   0.285921264072354
0.377850148686036   0.234344734495233   0.164660481742513
0.373100434219281   0.875585597100116   0.371019731204026
0.403109877870822   0.147980561756067   0.483029451562262
0.353641723247128   0.903298330552965   0.511841006507608
0.518974709494811   0.997315559094028   0.411035070224848
0.612024571954457   0.916711914246963   0.517775043041351
0.329982940857605   0.156502207594120   0.676641375092876
0.265329000640153   0.955693289639773   0.722925292655122
0.293714377472590   0.042621784282590   0.665396524268777
0.220342090519734   0.149517210260758   0.937550900792640
0.302139991779044   0.939569430464780   0.754288572122333
0.310708351156117   0.707085849447296   0.802996520603893
0.212372819344999   0.941113668884735   0.034648789598262
0.303356197761231   0.900251342633032   0.982456290277176
0.485161415637967   0.071859720065530   0.988791030858824
0.265822364859936   0.240924017083493   0.139926985095045
0.504675731814477   0.046499600719567   0.062928992880305
0.324182005752496   0.087308119879347   0.181937150237600
0.380330819306973   0.009776498633778   0.155560056494878
0.308864049507298   0.794723891442736   0.201707565663120
0.437505761812988   0.961714941359287   0.315280103533129
0.173872720070511   0.987640506633930   0.450457098412810
0.349847715454436   0.888002643493052   0.358601346406632
0.399664033470143   0.111260151548429   0.519792783805482
0.339134936291215   0.942655342927872   0.485725047880297
0.208913930418593   0.096867398111641   0.355266507868376
0.516842196455447   0.115001337234651   0.522227801298321
0.240050933294679   0.039783997970780   0.698062617698795
0.335729299524697   0.963521609433551   0.553638014192529
0.429614878607773   0.075302543651818   0.902153907606040
0.487531770169394   0.903080278613769   0.832981742424634
0.213784784287991   0.111114340567457   0.724234089321946
0.261271369956106   0.028956692724985   0.029149753870310
0.339220617007275   0.059991644547773   0.012946405997381
0.553996286683678   0.180004859549425   0.973761524849054
0.222346004824857   0.150761317929234   0.802292879933207
0.212521908484427   0.111446811090233   0.152682914010870
0.331642584398035   0.919826204504280   0.117401363173797
0.392113068357759   0.029076249024177   0.278728302911865
0.309723358374558   0.023373332718745   0.236125518238319
0.264660141202497   0.837283232896160   0.215334837025037
0.361684776236769   0.939698521885264   0.412164465934342
0.152438272324580   0.975172093640857   0.433751061956673
0.317708533817994   0.985792086053983   0.546447394640452
0.444559910746341   0.996346514491369   0.436353666886922
0.387635093234719   0.964722154804395   0.527359444573074
0.496169249991201   0.132137491032041   0.508962456738039
0.511862706112785   0.260910633112959   0.647677619819816
0.179158929690977   0.162069121172478   0.643948705462152
0.485286011557404   0.234537615708463   0.586428084185438
0.314611667491855   0.006588313574560   0.971654454888312
0.353294117875001   0.163838109396899   0.032705841494479
0.257509489457074   0.024601639915257   0.057307120805090
0.457920548780572   0.031150475106698   0.854436415182370
0.487852687348935   0.219833025647337   0.199188327477213
0.383330050159142   0.067233366838063   0.879865744607681
0.437253427611307   0.168854548568190   0.043045423974743
0.149580105139517   0.260572389951653   0.228752991575044
0.388326963187788   0.121351425757151   0.081615533041962
0.360638955272501   0.174485705873931   0.211694019882621
0.394166045641304   0.174047300167500   0.326925261808393
0.047592779345749   0.137255341763871   0.418848154689303
0.454327916311328   0.102104029819546   0.314013571843377
0.315038635805988   0.161826728158833   0.374239001874106
0.274254005017296   0.066629459692544   0.665332258720412
0.484415806551813   0.158417048010045   0.609664678754128
0.426509510102562   0.193760441667146   0.560308577283036
0.419836004079474   0.340704939005850   0.522370527604971
0.600611564257392   0.208238805828634   0.606211029958389
0.233628842558256   0.142366629013440   0.773191081570322
0.340807662541507   0.203303666946843   0.704112625026126
0.344089753601170   0.021330965032020   0.747568974485929
0.516934189751682   0.211550043928472   0.953340033009732
0.418515254208946   0.271783861272478   0.777538838730774
0.364154277821501   0.277563055260416   0.100905067114657
0.448855724902888   0.172478635117020   0.113472313021786
0.430807671329397   0.221493853230267   0.147899125525970
0.337955528624461   0.095470313788337   0.061907421487635
0.371775926808535   0.205309969700762   0.212111442170770
0.486039480204393   0.239624063555573   0.328602726788568
0.382177819324486   0.106770962681950   0.281027228655224
0.397447416618787   0.138595345724763   0.510880877442999
0.370322227484636   0.214262417673097   0.506022480883999
0.355518477166840   0.194982235163287   0.363968498529664
0.261172264067556   0.228850555557131   0.580787719099567
0.393824441008177   0.155675718759281   0.535152171811238
0.325412089545196   0.238029968356799   0.610219156859366
0.545792759555350   0.152105339036136   0.773508814626803
0.214442626763902   0.217439763851006   0.898090974410863
0.210769180481997   0.178697785868186   0.737987545320200
0.324978370139902   0.215291032391031   0.822608250501173
0.348073705210477   0.178328505658541   0.688169094322791
0.250781318832439   0.235467799236380   0.114570815954777
0.295138895993597   0.149671741971427   0.914793808559279
0.302206113999679   0.431149987212159   0.016751093495355
0.315260365915472   0.236172289884961   0.027812203306956
0.558273647773944   0.178102289193992   0.901443959359539
0.412562476650293   0.210346235775456   0.019194699121838
0.484664130593763   0.266619642659007   0.314299914689784
0.625046997444837   0.166607693685375   0.168842916497044
0.151207835278149   0.267461535771384   0.518278649176432
0.290663595373680   0.365002126490153   0.574343581104344
0.344168382186515   0.277641234129015   0.313723543600666
0.418657637707151   0.164277777086808   0.342303081014781
0.315020589013701   0.203913568826744   0.469504979552088
0.312845681881870   0.053447790060587   0.595368001247475
0.285796270414093   0.443758739142591   0.677719409414960
0.342169753981198   0.442339802747300   0.687019628286775
0.368329227986449   0.058339148831270   0.641488622211511
0.515371108230254   0.140742537289846   0.697011716500500
0.342255339324665   0.156876290071228   0.912253619095794
0.367675200427086   0.294068074647075   0.838596071356423
0.300159820562700   0.133449082534976   0.072542771049822
0.220014718270872   0.202860381544066   0.782623713123986
0.230290842050836   0.201852424452563   0.028992320153272
0.323079073901032   0.283175928009930   0.805628239532074
0.426716729000834   0.389475539246710   0.950248067783692
0.477217260797713   0.933990559095490   0.089194270602204
0.341683794692095   0.161375006175329   0.233114477733289
0.339483703868592   0.120753985736505   0.263265251268810
0.394704899462269   0.216920114838336   0.363768909110613
0.500770151716371   0.408854148906212   0.323043708335133
0.516799859750378   0.244880365810808   0.521002821555331
0.339244420853416   0.324422481173087   0.469610725322273
0.310189976135976   0.364612129822960   0.384636890825759
0.317686964337098   0.347054291626766   0.719444055071256
0.307278470591798   0.555525849884884   0.611983493402096
0.382399464030323   0.291357522272688   0.682133031168080
0.340135376927411   0.264946360735904   0.698436226594941
0.365495456339711   0.192646395601960   0.811131103684303
0.309675729976906   0.264056610122423   0.892620004652861
0.377437474469616   0.365851155689418   0.976965260740439
0.229246958759492   0.154531288719020   0.746037699705209
0.315365049588975   0.061984412726434   0.085832049168596
0.395780568757700   0.486211465564113   0.982127184598215
0.275957417385619   0.421475995292575   0.899890812690510
0.124186643497603   0.357790263981488   0.854218428315601
0.228823004467753   0.301782554451484   0.270664155834422
0.345515372126493   0.413423189417012   0.178350111191241
0.109404070012476   0.390188550819257   0.306895162431812
0.347678482525404   0.439579403540509   0.346043275174411
0.286632231875081   0.359215115556442   0.426194370956071
0.305687172685603   0.075188609177117   0.285231508506688
0.395651843230963   0.291463146071669   0.594535078477720
0.271574433321697   0.232250860874404   0.604235807318185
0.216263649572223   0.250912817719202   0.315022296666001
0.431799768785531   0.375742369331290   0.558719867699933
0.324234638309420   0.505520953199197   0.694748376876343
0.284762203994348   0.386930185197509   0.730666616314733
0.349283655290125   0.372754109922079   0.759020384705831
0.376071783632700   0.144874694510569   0.802876136616792
0.292392315763124   0.350236495899048   0.970242283593515
0.295818394431893   0.319990957658583   0.772905166964012
0.325407632497354   0.344375153970227   0.890753812363291
0.413580939904720   0.260661230322694   0.045502263781299
0.365757679677057   0.261227903597285   0.121233257250338
0.396809394372971   0.323126378233633   0.042993886650269
0.516567425977785   0.506411626302629   0.031741913328437
0.217052903666361   0.326968703137148   0.319351582544235
0.316811054607136   0.338834286683022   0.455293933188399
0.381879693405559   0.383130017287725   0.502504739523579
0.459837751353890   0.366948135851062   0.373907347850134
0.277537097465383   0.452989153311803   0.392824227601283
0.388657306589569   0.492944772570097   0.468713452621867
0.517562054727325   0.506719098958983   0.627682127727929
0.253389889944494   0.485852202162947   0.589544819831283
0.249758277599544   0.373764088016615   0.646121226542365
0.385284146349814   0.167972722187021   0.656024993927787
0.419971920761515   0.373169440035407   0.667566159474839
0.528832307397840   0.380092488524879   0.708124498500562
0.273850836776529   0.281969502757506   0.700274714070742
0.309288994543089   0.458205302946024   0.915968755935850
0.427650325821147   0.304225767950794   0.106525488447434
0.269266215596121   0.408541303490019   0.076445910144489
0.276413404191158   0.470311957215637   0.006071334844422
0.398580732188521   0.534732002957773   0.050132847156424
0.062388679773929   0.676247776320814   0.896697981099922
0.162647372555255   0.548635299866225   0.199599589436636
0.316748867572000   0.275330739247132   0.269071851565972
0.293436610653311   0.453777754851327   0.342795213268640
0.367836358378779   0.339359199604134   0.353180630518548
0.478948335485692   0.419255669477544   0.544240525751071
0.276708354274495   0.548465177011884   0.424231204434856
0.414772107803433   0.464764016542892   0.376427342523227
0.343572317861947   0.461134541348335   0.394548115495630
0.279449521237858   0.489220707728565   0.458452870524601
0.266908068914610   0.284653718425658   0.646893569160059
0.369555909713152   0.351697292211027   0.709592982313349
0.136165115525000   0.443190772114741   0.688460441038707
0.218592802080668   0.204988914080240   0.690118721706354
0.504434529715158   0.568517495552321   0.836294044564085
0.171372097732475   0.533808661040892   0.803578625469286
0.509577544539249   0.554238858650559   0.815050357053008
0.520932729228557   0.416842433914220   0.034621875657460
0.574627579354644   0.361571328982447   0.085895453384786
0.365955069999585   0.404795181280327   0.004400871463262
0.264573327599285   0.544585259688813   0.986643552331284
0.345199947532197   0.338758134812387   0.173819608581587
0.440596207235993   0.686874175833384   0.277289475253191
0.187065567866350   0.579752139550750   0.131793781875953
0.367473089585805   0.495278230011265   0.421551423466614
0.347078517677527   0.490355494312669   0.177815135519746
0.361979903421386   0.742184800063801   0.375434376092354
0.348470900863150   0.464894309361918   0.364738495319830
0.334779763444933   0.569105502020492   0.538084137676860
0.339124522372131   0.504470164119393   0.418416608916177
0.540700609088180   0.511408839417719   0.648132332749327
0.410258156295976   0.622952675970170   0.606918980454289
0.385349413528214   0.412684573501484   0.662065122199084
0.246871412972935   0.466439778729511   0.657382122657984
0.361988355663105   0.402371730969805   0.703952591912793
0.516104385751484   0.589935837816421   0.914134569847035
0.243076220713272   0.536691210386703   0.098820574056217
0.403947786018698   0.594300463154304   0.916968945490332
0.153715528923499   0.505301077400147   0.961658738236326
0.321785792967549   0.378569424835318   0.799533100339534
0.361928417170491   0.537889118203017   0.310589741637651
0.229042941859032   0.643924416964889   0.144333354612669
0.371285359051122   0.531644721521195   0.189742187374477
0.401310171784873   0.630703388121611   0.203942206239232
0.261076526602324   0.800120299570655   0.461067396562184
0.271628519867140   0.460064046953437   0.362309236917952
0.485891837360976   0.620213952658706   0.064877281117003
0.381233781745338   0.562084805721294   0.525936489222236
0.181161815432345   0.474686260798193   0.578448863658878
0.314499302525038   0.576437285686451   0.636277094227412
0.368500506955126   0.481576206053142   0.606407374878576
0.471259935143486   0.606501318179714   0.497887610903820
0.396579032514251   0.601130705011663   0.588152946695178
0.367768272007975   0.594907405679896   0.581448930247726
0.453484950166093   0.666753997637559   0.743498501733575
0.247847233256593   0.498276680373902   0.889546934730021
0.207615530388558   0.762962670948443   0.930598228736883
0.317885210439802   0.482181098880628   0.909760093035993
0.364801588984692   0.302970148197594   0.084742223687897
0.389132874866084   0.668252604301945   0.073669845824563
0.212509544407520   0.501117035360332   0.008066235095993
0.406417863632179   0.601610585012690   0.210143085928064
0.556019216160653   0.549058901638246   0.077735718898554
0.229049682599173   0.611553642629345   0.454284432048751
0.313413790444274   0.560396540001856   0.286917325223535
0.447862894737899   0.686000998341569   0.382181064661403
0.321418691614790   0.580961650792291   0.488352859908675
0.257502738401490   0.533794599944592   0.484947576929224
0.244217082537013   0.587127582138400   0.455877772109752
0.278317326868615   0.556644037502687   0.481298591581605
0.231956241119566   0.565217275269000   0.517132499364223
0.414892071958587   0.641157937241966   0.723673518815721
0.315812696468106   0.575995671553088   0.560192150825109
0.256489984386624   0.346677119436165   0.771697759831903
0.277058766603513   0.567186567741853   0.867356328201073
0.299795280725052   0.527947500079684   0.844115183317657
0.259427931195282   0.679607691210392   0.949707721601659
0.438783084499310   0.807582093708718   0.942812984313325
0.497825474840249   0.572849106321932   0.999068310100764
0.327998419732209   0.489928027624769   0.050985921048739
0.549884756123827   0.732645688379959   0.226444338663765
0.363753412844865   0.670196192952940   0.120202291788819
0.248372215331729   0.493363290014484   0.312277522352184
0.243353013941183   0.694232001825599   0.070264946573553
0.152384586227843   0.754345933706084   0.222318895071753
0.161548935163618   0.573778613496157   0.451235738058532
0.283745897046207   0.497857226706112   0.425967802410902
0.145289785526446   0.823895131807337   0.557669318797677
0.334866249605029   0.560361035290550   0.428661915710276
0.190400325799377   0.580653161710324   0.688231465488855
0.226346965135354   0.600428085304730   0.665486024339515
0.259279566276426   0.658980623403218   0.475432702181345
0.389427831117642   0.688406698500845   0.626052058167763
0.503076134679284   0.552978063395600   0.764942835551824
0.384772139529676   0.715995714425234   0.786685422776028
0.365119791592594   0.671519134902433   0.581775090984935
0.384927309050124   0.698756781894956   0.726704629647274
0.373860681423401   0.588401634560981   0.925893066188590
0.296475338802334   0.923900623989938   0.966153639116055
0.511965312788802   0.619828342364199   0.166531020985503
0.512823765665700   0.600291287277340   0.992840878471133
0.301745185459318   0.757692597758969   0.043224992430909
0.374003669201014   0.733720166346705   0.999252265591934
0.458102318822526   0.729538343640802   0.251367469308283
0.359103689568040   0.739979744229966   0.099449639561894
0.283913953209668   0.702767440524045   0.237661851737034
0.316718544141234   0.757334929089455   0.395185448566650
0.409748343418990   0.833345595194176   0.434347659479540
0.223597597269084   0.893599590402544   0.452280481459570
0.282861082570827   0.605352314311195   0.584249922149462
0.258727331129091   0.632179221956603   0.615728777923077
0.461678916235263   0.571409710585375   0.735959419206325
0.350579832200259   0.797428992219366   0.663472000615045
0.200468549418176   0.796384099665661   0.648700997626255
0.380101918516866   0.663185724932879   0.871616842516915
0.395265308307449   0.685673835756000   0.702460329172052
0.360791427209437   0.957502884493608   0.999531206002377
0.396120884621661   0.677775114633148   0.973373014041351
0.367121194944273   0.006648473379237   0.022859112525657
0.471240136735461   0.968919812190936   0.218755332020943
0.257030261916488   0.936243228916131   0.162210649884739
0.370994827298311   0.903817388820923   0.239655345251529
0.300204288961363   0.862572991267471   0.249928247162426
0.273719345256962   0.832311470284773   0.287431301941461
0.456156073624811   0.818396984763486   0.237285002561138
0.314520723005799   0.614443279628423   0.350190666598789
0.339979474358736   0.802077127245273   0.144863627448457
0.283878808362629   0.706747943017748   0.619896638380274
0.319910319044243   0.986608146232684   0.383695714022393
0.152480880984703   0.946141749791826   0.689708090082601
0.293421314780132   0.660452940188784   0.597014738418514
0.343222482659872   0.771691787824855   0.740911832397875
0.167523740297069   0.783351598518394   0.694086189003233
0.335928667369296   0.708080325973703   0.744957036874943
0.264155018839643   0.667553035185319   0.923901500809310
0.279205211447331   0.767892499641715   0.912024888254568
0.387505538398474   0.851477100690231   0.952099277998534
0.374494752174176   0.686159439625937   0.021210260101684
0.399376931813354   0.712626191700608   0.044416288664272
0.335672177722039   0.793990988310278   0.054466184650079
0.347853333233841   0.706001244303121   0.194881169165612
0.377611493275739   0.895468494491694   0.127570794471872
0.215967434128912   0.868028672527231   0.242961405211437
0.241916851734384   0.816387935199659   0.097787267830108
0.385863268660407   0.736974393365151   0.165639056352744
0.274600073263966   0.779126920401804   0.452921575870950
0.421128055977201   0.813321603151955   0.413501159384635
0.330719918508206   0.895323797311727   0.415788493111572
0.366258147683904   0.927031034092110   0.565002173129593
0.360766570068186   0.948831853394813   0.537250565163509
0.314695275920510   0.897585264316693   0.777305648285779
0.360342611249752   0.791034778714606   0.421249832741282
0.337287766955276   0.700185506802734   0.811149840770719
0.451663872294846   0.735964921959454   0.720623734184467
0.507690830112336   0.753585615650192   0.914614728254632
0.433815144588270   0.723677705311459   0.898497017747861
0.485906463444568   0.862695513640553   0.072337533502515
0.301360051857284   0.725283488566926   0.782684658229431
0.564333729200708   0.148658746112647   0.063171551024685
0.242861540077272   0.778594930150273   0.024917654234212
0.513609610525966   0.706964935806161   0.100469380491843
0.585214013852800   0.868883557960128   0.062579373656869
0.253715601183998   0.702662091693790   0.099563257777372
0.001085757950811   0.812491824787737   0.121712058157923
0.360220617080958   0.867631752147418   0.307075919834376
0.211238511696897   0.815148969859925   0.477136220192057
0.256806292904422   0.839154242772182   0.599078003425481
0.197035636396040   0.854539120072370   0.378866212067383
0.268906205965292   0.988422557508352   0.377659893466752
0.382888494005958   0.901350751337961   0.561357885765700
0.367712213689055   0.738769049580917   0.529593104837989
0.211885013153330   0.904236184872946   0.666251605826611
0.190386640272128   0.832742629834046   0.748578515707162
0.423426964967905   0.774061115490161   0.828137659210751
0.600263210338085   0.783622863351727   0.754259599464729
0.265995895690229   0.772774337455884   0.889242405391608
0.216586320315213   0.938589111191674   0.866566391876928
0.164815983471391   0.959037509259528   0.051110649668746
0.532389628774794   0.987749169717901   0.180616964704706
0.542326183635654   0.869041483614114   0.902084115017997
0.363967771533001   0.925994395375422   0.053811164208270
0.449869300856079   0.989482218156559   0.213361820981589
0.443683436869415   0.872150245727221   0.101197104288621
0.229971828492676   0.030781331515475   0.308276262059662
0.342176963212862   0.997693250039370   0.429301436392038
0.322265744210686   0.664583986174549   0.592156259586786
0.343610599070850   0.867432829250256   0.333294656084993
0.514932318997167   0.980906359069383   0.583755682448032
0.303070901603849   0.887935591383369   0.672218300414262
0.358171107077031   0.048495359393996   0.615649009239374
0.565795458578946   0.863137731153908   0.553755702165619
0.374296121845214   0.944729108568727   0.614089839784742
0.469077966247575   0.904644397607460   0.662256328238105
0.214768101674918   0.907526679312132   0.568843052231856
0.296634995152967   0.930148265592936   0.841792773984342
0.392993981352982   0.800495865452569   0.894174408617939
0.412785829357726   0.876623174650021   0.917438480168229
0.239235208019593   0.846403469005592   0.832382155659316
0.561737470346774   0.128980547367456   0.085735504653738
0.348368681530031   0.182081701676833   0.897963706938852
0.464942330515692   0.976866300173858   0.121849279364290
0.166042962498742   0.951032163351363   0.122967279879042
0.299832291148717   0.882465575261481   0.146744380323240
0.273293127125743   0.831100146409628   0.366944708136945
0.260954093092345   0.098934069359879   0.274408052266813
0.464281531543828   0.883211881768681   0.271008690814221
0.524994961859157   0.943627526371901   0.385352465261122
0.367598242270383   0.948018387067944   0.440982206101190
0.447644082377068   0.974556004841001   0.635241634987298
0.382077537437291   0.944642277495465   0.585393635423188
0.359732157639251   0.006335614327086   0.652863179155661
0.328501346947655   0.095137241473700   0.697064624193285
0.319897129550521   0.893806892661459   0.726445230064513
0.402551522630275   0.963285405889268   0.576281188231389
0.261090747916451   0.896961953649721   0.778053806940550
0.290578283397671   0.903678807121138   0.825124825582161
0.389706487405697   0.065312983135397   0.831869052298041
0.377338022354911   0.127759546161429   0.053209547416127
0.582414171597213   0.001552334020646   0.022472583435921
0.334710113447191   0.999607250482574   0.066036407658933
0.477854304233370   0.995478597159356   0.207001845455657
0.467018286798520   0.941026791955018   0.229845391981173
0.384848879832441   0.008378179997783   0.257509936415002
0.378840717808573   0.976598467365275   0.262386226237567
0.574452283656353   0.095772392007933   0.346960793294580
0.373565389926004   0.952276194701877   0.386821714843147
0.451409012814023   0.957080147875654   0.401710336189641
0.429518979881038   0.857332285914809   0.442117181589288
0.541664561360017   0.036382825842265   0.686693600451665
0.455847182127551   0.973823017645186   0.662451493915857
0.306177892530524   0.202189087032237   0.497270850233918
0.287498345750558   0.218454597713169   0.650978640047743
0.504495227296691   0.938907486382277   0.646209756216824
0.456112541912419   0.049330931962365   0.776019894311471
0.401295864591016   0.145196434429675   0.648583467869949
0.379119230981764   0.046454339213932   0.857036269250123
0.372877221238413   0.979304135699023   0.657481678987554
0.485801217685222   0.032414621013514   0.934904324253602
0.345096036971165   0.938084141894010   0.990079894320340
0.345413502896644   0.276997880446298   0.015721047357737
0.615937535939867   0.102531665824401   0.175479685326173
0.337489977570750   0.045885916280775   0.038503867496691
0.255940523489810   0.052036991113216   0.193823522447442
0.536706569224293   0.251156700173919   0.368007735069616
0.418050762870946   0.005415014628340   0.424993328357818
0.303357440362667   0.988649753168415   0.463822471843459
0.269140968461388   0.167543912354229   0.610146780063841
0.371827072136934   0.230420502943580   0.196473826573926
0.389839709248689   0.963274556129846   0.634753434947927
0.491325876723913   0.031396149746023   0.686821159042560
0.467428871262481   0.977520825443857   0.611216230597968
0.464535997874930   0.911355597071538   0.733797884699637
0.454856614119435   0.062878506881668   0.707750189231450
0.344391162589906   0.081534397485763   0.795320105907572
0.305212413840454   0.114235854141567   0.696273730130203
0.546037351894511   0.926375761987711   0.679968752127568
0.561373776486723   0.869393726161211   0.981912994934278
0.486283180835012   0.062825010968323   0.077536879638019
0.319718491000128   0.084436148090240   0.780956439414299
0.509496383738936   0.850756179116973   0.938937529569723
0.428840606601302   0.092397520415997   0.043774572355450
0.612758406454852   0.025493196631052   0.100337983561753
0.575613802203259   0.321795016841326   0.363189460177645
0.419701554978374   0.256138909937640   0.182444886885540
0.312815965786650   0.084373535176139   0.357319250404385
0.185421408724063   0.036709498116055   0.467520457984061
0.434722296844185   0.257880670813506   0.536718849179690
0.341582607459350   0.055401016971598   0.592389321348796
0.254284316069757   0.288725514850991   0.329531887554529
0.414352870457133   0.066971224905051   0.545006919417662
0.411133188934850   0.121415124860820   0.654707518542936
0.377736620474291   0.178845239323799   0.683357593218760
0.226510419114096   0.088272918161525   0.855663515030275
0.416584573803233   0.913240144217062   0.718506783058135
0.385526526052030   0.170629534239212   0.817731903720566
0.309184571929375   0.151866895761050   0.842517733839370
0.435575381713001   0.145028385365981   0.889722975162845
0.289022168530660   0.104817460339969   0.892657556879307
0.446378786125136   0.057409362627903   0.919963396438104
0.302066253343510   0.078230037975892   0.967340653159402
0.288552733812083   0.190862720849925   0.032831908417529
0.366737814336772   0.115762336765541   0.101503234358983
0.348900978608907   0.135636284568645   0.046767730988524
0.324388628864798   0.083725804016136   0.103995187743945
0.435483980585582   0.216427731948715   0.208840745771788
0.487567170441398   0.257922780245620   0.360492218405050
0.347270951470908   0.296278432760358   0.406433096663501
0.467226342267971   0.154659578249600   0.450229148107723
0.356868070160997   0.168233048084056   0.577690555924761
0.450536869793706   0.076252220225513   0.732162891433133
0.357370543030559   0.099530975644395   0.707747938333993
0.295121340472973   0.143815667641678   0.862911147473309
0.153517575344070   0.095043569417967   0.661908605717485
0.389900997336685   0.130766838665743   0.779673478493629
0.435546803038100   0.257497979069441   0.797764812596302
0.466623513486691   0.120087519669075   0.796215074971593
0.491344474229171   0.210260089930640   0.937689918497857
0.461370408532326   0.164763520478098   0.931517841647281
0.480731050545403   0.226839306894351   0.913684991579575
0.563274849261442   0.190635470778322   0.027306123505186
0.448515826662603   0.477528251807860   0.027739034583685
0.462868614094969   0.226679315709632   0.214261973227476
0.538792646111724   0.993763037829719   0.116118663416299
0.140597199141948   0.197365235818679   0.278934320151486
0.406290179541552   0.104272908203398   0.296870260056953
0.488710917694618   0.204639127002114   0.400196155150334
0.490367421771589   0.201497055401305   0.372038790747023
0.266792825122479   0.257925504273827   0.375070213793030
0.318440235252695   0.207069820231873   0.443238930154191
0.388430969338658   0.489483380072760   0.586594604186941
0.509010159857908   0.074427095824627   0.583724870256612
0.307210350042337   0.144328974452909   0.693091330299616
0.564267081707917   0.149066857878237   0.535087283943519
0.559127034767748   0.009617133161240   0.830636965457085
0.558170216451255   0.179048498577505   0.822876809780986
0.309135787184367   0.307915216064230   0.016459546983284
0.532206881972173   0.278097828451067   0.999850926261673
0.439466358935579   0.027733409907139   0.913303047823214
0.484650636460217   0.341925005610484   0.952297762009650
0.171225967807295   0.391035979275407   0.064162019107051
0.382194867511249   0.395234619771061   0.980421202624776
0.535971064748096   0.213180364141751   0.075468249605363
0.503539801322394   0.202395566631192   0.152932498246222
0.436046755494433   0.251830821531569   0.364450479594620
0.369644321447852   0.215833574388209   0.380409905810919
0.395278717426058   0.321530680910644   0.523619647010184
0.350024320463756   0.395451808973502   0.434506281299153
0.411082309092877   0.223690918885653   0.472381396559400
0.443424740471440   0.245540848490866   0.439430896856419
0.303803261897201   0.276397559241666   0.584542106359558
0.317506097221454   0.248626482496719   0.705016658857129
0.285201602806462   0.163883377581673   0.588366161743722
0.190734271653618   0.448284706349595   0.767055679370427
0.226006466618102   0.321810817175160   0.992920885534792
0.321820538838903   0.462838595470134   0.731075870397681
0.374333392889449   0.278676428050832   0.020767295844307
0.321352718105770   0.142192305794843   0.928187880405106
0.433537701804254   0.393074732023784   0.919766235119308
0.268409113635236   0.464237136889100   0.035349183027660
0.393770506004762   0.228544528194263   0.012983122754822
0.394264567355283   0.413807709013551   0.124669521396736
0.539115945863796   0.224222956546381   0.352418964369483
0.517511011178600   0.203225958488873   0.356421570559453
0.459260197951598   0.266255698733746   0.356176110930198
0.400277167782093   0.483854300681681   0.334942768687280
0.267991620200848   0.273948449480838   0.251734688355886
0.290008765975106   0.235393194855917   0.370865427647855
0.464656152830939   0.350475876110977   0.500202695854784
0.246295349131306   0.226190945129475   0.554958145509805
0.447991152003294   0.241893887771402   0.556266307199933
0.309969993340681   0.367309288675203   0.552108285717185
0.406212439621194   0.240706637729945   0.866201588272237
0.363799202735753   0.421711935102455   0.681392074541347
0.506592452382158   0.253292006283049   0.736952128271228
0.386152846502636   0.408253797440202   0.823600803458849
0.495389772825484   0.423802355317020   0.922788768491575
0.364902681807431   0.344617132374967   0.986308660137120
0.368820157611931   0.220662222113328   0.801561992222647
0.374540546566532   0.332707511366077   0.170250154803451
0.551299266136627   0.238704644986508   0.072296717791191
0.323863262231418   0.638057662060257   0.107858651764827
0.348591605071354   0.296348199727535   0.335222335636190
0.477926935022431   0.482145571718283   0.275156934499679
0.296542497168922   0.421038199809606   0.239251128791004
0.294738869171222   0.469577860696250   0.318055460096639
0.282199289265059   0.402800289460242   0.410031648828846
0.397987645791643   0.504188469106692   0.495232631998739
0.498247463439135   0.298539089601481   0.438937836397424
0.217907263159805   0.216287928673961   0.415625333634575
0.522449604923915   0.327471566081381   0.561306729005331
0.425674357763499   0.559608720603409   0.630385236178899
0.302464275827863   0.397361799971254   0.757004949687642
0.468086332797270   0.351570827754736   0.580760670358064
0.334430500505175   0.399299704343236   0.814206456147956
0.564436996768391   0.574678893854604   0.724386032283690
0.473765890942291   0.382116272567587   0.747044857126887
0.546376959759460   0.366638864262774   0.908512610647112
0.441086385382961   0.311722989627581   0.871227266382863
0.504477390156580   0.494179163769606   0.007175765168842
0.426247219596259   0.442413205984109   0.933961128604064
0.418524681095113   0.518756525081813   0.042614154131690
0.420845079709276   0.373507913246114   0.330408952807200
0.505570575262657   0.523997260924066   0.010146946013840
0.478136104335763   0.407804303950776   0.244040078729331
0.363511772693917   0.462603683064712   0.220923361854030
0.424836745752740   0.416936632923922   0.425939426757965
0.559900386357949   0.289906838086432   0.397716638659425
0.463131011703260   0.377393086775981   0.510157868928315
0.356982528166361   0.381435605660976   0.457004300931108
0.372141137204027   0.463407818246807   0.463800034593840
0.452180068241205   0.436238845988969   0.590250272611542
0.649492138345091   0.374662007220338   0.494088193037361
0.416628420653775   0.325938486458845   0.765930973206430
0.235271710782183   0.344597618987747   0.565999331250480
0.318625150265162   0.511191558028640   0.904807192536746
0.295067050475436   0.266883594372613   0.712613505277673
0.332644947300605   0.252212137188253   0.897234880265607
0.360266772919134   0.321614222354896   0.002495882118680
0.337736307893457   0.315699996968948   0.083946600841556
0.288545018338294   0.293050765968813   0.065269163629863
0.409900341694712   0.642475734483736   0.152530554833504
0.268974316928551   0.330478614753966   0.161211752855910
0.358547437630354   0.451721456750161   0.317854558533055
0.321979178907222   0.557194818782567   0.179542176780088
0.343705144079770   0.457331794300311   0.464257198828735
0.219806226873782   0.554417068758222   0.377863980461601
0.349463656733106   0.281671724992369   0.428358740707539
0.362546861074342   0.568666932822174   0.434784768154813
0.436485282795974   0.349861561264817   0.330654967249980
0.353982359973861   0.617545705225928   0.597364627454306
0.301190425855803   0.521908027621945   0.683318901831464
0.351099589549759   0.508965847294194   0.679556854769538
0.447130148583277   0.514148771055418   0.630218142377857
0.344389091375039   0.412640721931338   0.726116221425180
0.294032142335916   0.583710699908826   0.684389221503129
0.415727320503560   0.324450731284088   0.087404845940366
0.278743381094622   0.534211176689648   0.868274578337566
0.556030641790071   0.437532790125795   0.940795627488591
0.553218304630895   0.499358504856027   0.130870828903754
0.498243789734128   0.524045063353653   0.212592788259031
0.439362236613315   0.371752955644473   0.997260413312885
0.401238735985457   0.568229125013498   0.253868600321532
0.451098153078570   0.577480317371347   0.310943908855300
0.450807819111174   0.418014301969441   0.240286849616203
0.518132379806418   0.580538091910194   0.139356753871950
0.203446023478897   0.497571325821555   0.333675308792391
0.436576731673306   0.456337381867235   0.304137616859139
0.373774149863549   0.322080069629015   0.505863470905874
0.323222034413611   0.387517212176144   0.370705375548508
0.400792001232615   0.647878080877051   0.618513195034455
0.273689203347742   0.444714789848976   0.706498091131571
0.299725385509970   0.501148820457666   0.614939862624582
0.326762565272967   0.470973669355256   0.646745083762448
0.521025326790660   0.413117320322096   0.879270159672235
0.346189757362207   0.644725878427569   0.588413614121773
0.368831779671239   0.424659191275217   0.078207527679036
0.509375852843054   0.566074418245964   0.670951184377185
0.465906021223099   0.515368317480187   0.091634183744271
0.393112853906073   0.256205599830882   0.024721289695144
0.163202439125637   0.590215278377238   0.021584343648184
0.534932331281701   0.448806361300361   0.139917855142748
0.538751889220120   0.488887170341483   0.214126664123690
0.388874193318832   0.657414230043270   0.250266774123524
0.488452000511082   0.529597412460050   0.105086707409973
0.225981253362839   0.509055020346294   0.186502181023556
0.521229795176640   0.508674002479767   0.299826454186197
0.403607827317302   0.529125691554711   0.402854062120710
0.475574604708815   0.517248923928201   0.531878801548594
0.304732871283334   0.558930228125505   0.495583731920323
0.390664080830443   0.472933897089103   0.560984219911511
0.301007543763921   0.536446860332686   0.657258696689504
0.356490354785217   0.608486731536479   0.510581687393678
0.363799339840766   0.500498463378837   0.627766299057360
0.496256746581622   0.426808086392095   0.892158138215126
0.336963643944961   0.440864590412017   0.716878924313839
0.561800957029515   0.495566749496846   0.892021029659110
0.242690768577507   0.692710371790832   0.820054524009594
0.248698517175609   0.599593059078340   0.041346618714656
0.477894198955440   0.617823059946116   0.128884065509366
0.320932193217741   0.759559735518490   0.945404395933449
0.540748476694284   0.459840844574429   0.226236836295925
0.516180831523591   0.562879316639103   0.163728597538299
0.254850930110070   0.681844869517454   0.121481258474022
0.254262233952125   0.824540404324362   0.193732341692540
0.507452831466039   0.686589906675660   0.339495811071030
0.416466045867798   0.760711489856890   0.273941454092438
0.341909863270106   0.526426759389238   0.258465466645071
0.387644787572941   0.507638400320755   0.442266274539352
0.489000950475218   0.505222340302073   0.557055743559039
0.247974381444545   0.603530997266909   0.619396460275527
0.367834046866830   0.797663499005092   0.571226761076214
0.434399786356407   0.664387713769951   0.719431064418458
0.404309322513156   0.573299361050072   0.647179717927210
0.342941646331247   0.528536440593616   0.912046779128892
0.507400422516259   0.410495369800230   0.012716770367103
0.350177183988445   0.786575490401079   0.847736183280407
0.406936478948877   0.714845420258938   0.740349715586275
0.366958582352123   0.583263156039395   0.954225393041033
0.501732753677963   0.552593433704188   0.089667397223024
0.364878928557246   0.583726282554346   0.856159459253865
0.560913054364319   0.605515631332083   0.052608966416534
0.531311077684764   0.519352380049201   0.138511124184830
0.367108338482215   0.755135186596600   0.287102257439656
0.270679691516964   0.705214733057077   0.168486662927395
0.359776364348548   0.640809306057339   0.458330189229788
0.044350878629355   0.619461886074814   0.374576292634726
0.336700819734108   0.631315404397609   0.357745615105203
0.490778347568494   0.663111775661425   0.460329667557857
0.381678504478121   0.678012741566574   0.556893470096036
0.338895161952357   0.603130412261365   0.485642232996099
0.224980213442630   0.592042338468629   0.636004879085095
0.372645436650654   0.759457590406803   0.602384192068373
0.352856029731795   0.816880630739620   0.683701718944476
0.474960995894218   0.714610202682013   0.764089049262067
0.584792137883798   0.619557699119029   0.011493426859908
0.397237743228169   0.672300929257264   0.923388344709108
0.588622610229003   0.874823837769876   0.837432247674591
0.519488294010115   0.551880051514879   0.005780762821171
0.341283842625911   0.799027566403755   0.026788929923595
0.502136629249176   0.739209083157731   0.944593032837549
0.469354953380026   0.816471254458466   0.042797924825656
0.313397719220036   0.700371859877039   0.237437114287453
0.279298172329346   0.754071399318487   0.226885061010400
0.312119554562469   0.535521424140188   0.304523370475674
0.477408304222673   0.639714726553086   0.413279139044635
0.443071724334624   0.733213323484621   0.203617909084790
0.291158432989290   0.615519497089772   0.369055634368118
0.336669550710220   0.758483751616516   0.373737437790326
0.408338246957470   0.700679394565363   0.426438434058506
0.275665392999609   0.558068391261473   0.608295145828015
0.446462171498979   0.521553095448644   0.524015608773664
0.358200134564377   0.605128307205581   0.628207704900505
0.276561967745023   0.678766617669386   0.614794632273621
0.381001385229039   0.557103401414240   0.691166213860330
0.395341085647725   0.586934115871622   0.864363902428145
0.248173814105521   0.778741877179228   0.732664645377055
0.323213912594142   0.780038189790839   0.844545056211979
0.396415524303912   0.584931348064735   0.997851078761107
0.449162820514837   0.612386714326432   0.121684926932736
0.435795793075269   0.777753843490741   0.938244394493537
0.342803843068774   0.779139487108811   0.326145499878279
0.428184426821419   0.931405326747785   0.170002961751104
0.432966172946700   0.886476064439972   0.126071351009621
0.561253548571493   0.877652178579163   0.347448993333951
0.310620382711347   0.756793152338747   0.157170405915007
0.259561224901109   0.799145015786352   0.142715079586408
0.499013795842589   0.628102560990350   0.531554197664546
0.359585429755996   0.583337456855519   0.527382666577946
0.330285250729975   0.601256812665751   0.638629807348879
0.428184348345507   0.873103800742581   0.386380604338000
0.518121925369356   0.653809011316875   0.459768852343005
0.437785961761877   0.759513412529757   0.556260697887528
0.353259411104801   0.594751957405636   0.724077429390462
0.321527329389056   0.758468937243656   0.753385335703925
0.145746722376022   0.827145352602833   0.588001052253247
0.470932996726181   0.783920908529013   0.886500611882014
0.217983386437494   0.786479831677640   0.980239360909849
0.151168331109798   0.618609191185709   0.078068803624171
0.558753928417511   0.970312839528145   0.116875160517532
0.297130259361312   0.826995491498743   0.129380997216648
0.397728170291804   0.879106745698695   0.273430683901348
0.341721215480969   0.849740700713500   0.144454252065974
0.347594242386437   0.898288285656657   0.128351248547680
0.537684316387530   0.716386843515607   0.011481193559215
0.299185018068585   0.487060165531556   0.209781211654401
0.350246530323446   0.889832897535006   0.256735868179578
0.472543240926554   0.732177723113660   0.386615522510283
0.411082286131998   0.029485863653452   0.409931550343094
0.601843960742064   0.960376476937276   0.454091610088969
0.431376111281802   0.665870596134434   0.395312572588776
0.356283991561149   0.826287897856600   0.485314836058412
0.224756547595404   0.822017821517246   0.687608015413298
0.375787054025398   0.714789710503744   0.623062260903017
0.178841345011683   0.634851232067753   0.706617184069709
0.351299963352353   0.667346533196979   0.712892595466672
0.462313540953583   0.764381124890068   0.936461827158102
0.362908330467276   0.708060026398246   0.797628250415583
0.347143888746470   0.808320883870834   0.002971875838594
0.504668521485157   0.001970014182427   0.979369012487075
0.451308306551954   0.893901114725795   0.148701193280295
0.341308848365703   0.753686081438419   0.961888918343299
0.395519450985162   0.646784091358011   0.227411680304197
0.510168546638950   0.883652893016783   0.365415774964638
0.221495181819007   0.988098020034502   0.273256487221455
0.189591123812499   0.843176727028612   0.307989642861271
0.600302980083769   0.907262443751436   0.376329600412788
0.510798915745171   0.792590632837072   0.512912347204923
0.371922262093552   0.885806201534521   0.524402223089508
0.287235564219369   0.872256183223774   0.549680544086882
0.348626366061585   0.927938719120403   0.615300860588213
0.376272049557493   0.824574344721510   0.465771664658254
0.264045840050295   0.870593272761907   0.533987282803055
0.364635834729361   0.785344899208790   0.734712031747515
0.374952767895739   0.793300655664218   0.851972977735895
0.292316960205612   0.942073797895075   0.894631604496191
0.201017592795615   0.788168090327221   0.859186591460673
0.283298299295661   0.022792007617318   0.644718541925976
0.456275558595374   0.707664306934255   0.891451189758862
0.446781600391177   0.020020017522290   0.772621370353059
0.388370225718556   0.024318915111126   0.129052765738161
0.385309646978587   0.965733593034832   0.178762575809182
0.141674216631083   0.832868429832058   0.217787019984232
0.360741455893441   0.953837009893784   0.187118375699281
0.324342966087501   0.881935144418444   0.243645019856301
0.758989773983866   0.875949710956841   0.174464081237753
0.336774870683446   0.801871858142304   0.205191699036057
0.615761232018138   0.125169877092765   0.360732475866426
0.321213215078891   0.894142044925685   0.579632280907321
0.162598127538849   0.842703252031065   0.464865017085969
0.333243983194173   0.918015023908544   0.637404150438051
0.376513640008428   0.770820099727420   0.574961175049312
0.282872306441687   0.749594232248721   0.781337853671821
0.254365228867297   0.944735099722890   0.624877800616372
0.418927784862509   0.969747987916164   0.624318829154451
0.328285648391004   0.862588499892576   0.742756979745530
0.304299595444918   0.883785125672434   0.702462575850394
0.280723977915381   0.926649478712434   0.917432278070271
0.436807654304545   0.056454178218430   0.798692931241043
0.220609858438165   0.088617171250477   0.927610125446511
0.470941041373969   0.956909978383205   0.105569894719695
0.461431586819011   0.110596923166444   0.087269912337750
0.350015102270478   0.936901648863983   0.207380894899638
0.328832191817645   0.971945958722050   0.324812449633147
0.478535533682586   0.894932137529856   0.248341172486098
0.324184703822966   0.920794590876585   0.205037992062642
0.293978255799726   0.261633448090472   0.258770080365769
0.466894734452529   0.023589180905901   0.505459916846288
0.624474852096983   0.125266510169623   0.390419501239254
0.535050294052039   0.875728556510489   0.361492483903588
0.423311470962452   0.905105101037267   0.525459385453361
0.339744057147966   0.816588947861688   0.535571159390777
0.429859233446607   0.986868009280805   0.511286140243859
0.399518729645357   0.825392359187693   0.741656071495501
0.429199045216132   0.716240617712892   0.718546326706510
0.567304083892266   0.965337770826065   0.713987807912454
0.483217973540430   0.836472461526543   0.714363804827270
0.529876624049024   0.798018659864946   0.921220380272292
0.386616301157059   0.054681760517373   0.803061777644109
0.333926666759572   0.997056231993212   0.985735873185563
0.287087018577199   0.795219173288747   0.128300178490110
0.566871826903559   0.077952786301839   0.176756160202496
0.514250486361103   0.851753195565606   0.163228338848469
0.492634373875261   0.011010959402460   0.186707764749188
0.436624793719938   0.941824819771926   0.237501677283374
0.583188139028917   0.956930800457758   0.355581376146276
0.369450940046054   0.005811855748240   0.420665209064677
0.381019188609114   0.046887827511194   0.353941714429846
0.564482074689734   0.058300145210530   0.384099542324406
0.576541927265147   0.945352314287469   0.404923476486706
0.552339398207284   0.098819260664980   0.591898041356018
0.637135510218921   0.117272058336348   0.665757509575066
0.633122908056797   0.948103351061815   0.597743851991528
0.511160980510706   0.964015528019564   0.629749592863139
0.471072007618540   0.894189337084589   0.809441681734323
0.497723924842293   0.084971286241339   0.814577649601189
0.473107810612338   0.953813829771756   0.849432655370310
0.360972699366813   0.057401918715461   0.787989048918330
0.448487191835522   0.273664630980820   0.140359333976569
0.532286969665529   0.911256546753120   0.985223643180940
0.703690485798643   0.146363639239010   0.062227823133883
0.538298991428108   0.825649826074362   0.039138101628290
0.515668951162854   0.824558400022391   0.252848460685286
0.393777726780314   0.985233787124393   0.423098652827898
0.430535110452101   0.088383028883511   0.304592903588190
0.413726481783363   0.050006992916431   0.273719026607914
0.608570590857651   0.047002726265240   0.208337645297550
0.456553442217942   0.041568122656824   0.301097188113750
0.534321692604197   0.243603815905229   0.574542649462784
0.387991798934782   0.137289623353863   0.382568729536697
0.565644331241070   0.058333108733482   0.496813620602751
0.446247975626258   0.002731360868838   0.492142478882271
0.429499870331066   0.037678493305387   0.851227542519376
0.549749077541932   0.066278689360425   0.825363218195035
0.553534555003876   0.989747998309839   0.705112652144708
0.604048501140109   0.949313215199036   0.845422197408707
0.629121016511026   0.005275162333517   0.816732431415509
0.479830791672044   0.005018558945245   0.889343605066181
0.361347104188938   0.130272854134399   0.991250050892673
0.444281314918691   0.074332510486395   0.821977275635339
0.422608798072512   0.118699053716239   0.877098800958000
0.336526936770234   0.969926796391810   0.072992039634296
0.546837979972998   0.113720588415832   0.243922122842485
0.494761482764388   0.978435835156843   0.410788825840342
0.542191275553623   0.202654791772831   0.230559740763844
0.440732596517091   0.079946428784468   0.237966830411115
0.520092990202596   0.177353819390225   0.342255575897802
0.557107255199765   0.057435156430487   0.524892903968062
0.512325475640178   0.243177019830951   0.596255489821918
0.581900154912181   0.136695373152298   0.619575270556860
0.668068601356445   0.086927509084278   0.509957452562870
0.477746076153208   0.959903653101323   0.708663332130134
0.522088856991447   0.095476283284708   0.602506757337545
0.566648941067888   0.015879144728602   0.694101228036003
0.575358546933861   0.040316476400169   0.716914911248896
0.562042613816458   0.188655871907723   0.700714795112010
0.431728183141570   0.276105103527690   0.094383351421764
0.350581216518712   0.134569991596764   0.813869498697362
0.433085976566651   0.089921868324271   0.873780887396586
0.473709696994105   0.072625847559217   0.964381583703791
0.483536033688619   0.906579614187552   0.097385901803175
0.546018474377119   0.052614375458018   0.976240851479821
0.413253198027582   0.128580171898811   0.097855752703686
0.395191376898508   0.315446628421161   0.208685226688799
0.331287920503724   0.115571721867650   0.170046883152432
0.457581605697735   0.100202082943258   0.227180363145932
0.309268636158959   0.135241262745149   0.374127391535104
0.477569449953768   0.180604384665139   0.596598398333171
0.474864631752673   0.117237155630360   0.319316669373756
0.349085504009324   0.145105440005445   0.596442877562537
0.455524752139188   0.331494493729468   0.561310568399305
0.614113843943441   0.181046020031218   0.607670786533336
0.481954511742443   0.282528219290042   0.561725893787669
0.603895010377544   0.096110492449631   0.759343201794992
0.515057379978778   0.233377043297748   0.751631703054065
0.423481091427168   0.069114251373466   0.844912505201309
0.342997426927173   0.234735972483012   0.804643409663045
0.378297723604114   0.094592162604248   0.867295965333396
0.279097652802197   0.154625001823655   0.067780596454395
0.240302079109469   0.178048359939091   0.041803581908757
0.418431618992663   0.394092943127431   0.168343573987875
0.341237683974877   0.217878496201550   0.126708005436113
0.591713497246172   0.270347360530976   0.268065377640804
0.536962380211334   0.251595079612182   0.191015718363826
0.427306047794984   0.346524890645993   0.234796507795089
0.418772226487021   0.245874734841346   0.212755424565860
0.362986991673391   0.417161648173297   0.362947521399238
0.493889107370725   0.141658272030908   0.232516441492460
0.540899979936568   0.255398123399091   0.431424418742201
0.531059578651591   0.237419901998006   0.448655426928018
0.504179760703173   0.228730862902728   0.495886961771544
0.521213073888385   0.236107468216874   0.660119028323711
0.373872305839260   0.117196441975251   0.758849681452543
0.471364618258159   0.207052773405421   0.583786298450639
0.526966451733206   0.133495868530495   0.723870994458529
0.433867935871570   0.108787081253918   0.763091138029284
0.436089775247408   0.171708069032437   0.869494596402190
0.524731912902555   0.247770851105305   0.819649467945332
0.381038198491692   0.308883303362410   0.021115193331596
0.410908624998602   0.043991815952074   0.790443757017407
0.577967779120035   0.994409635981115   0.073915265372232
0.290209213524886   0.228653166964890   0.153680096180709
0.474244300900976   0.213630104798774   0.328201735840893
0.662618110430919   0.122703529394088   0.357311086418297
0.390302229956208   0.129670861971758   0.298206533705376
0.477942183429857   0.285208248140164   0.428096048106101
0.416366832595027   0.234772336117372   0.369398857203383
0.510327596624635   0.321480279838322   0.513277425052041
0.272626463997000   0.225190772661293   0.320843056310609
0.292418145780381   0.238015719536631   0.626825731916004
0.636799835449830   0.130339304742003   0.561687008321118
0.516356946273743   0.337962204663497   0.584844372143172
0.455248907832242   0.334014174552989   0.797134453721149
0.668633528598826   0.179003588158525   0.606827908763491
0.425760916861618   0.210496577162206   0.824784737548789
0.284365288770594   0.346936485195773   0.780538103687913
0.275692162629446   0.107682620150096   0.699605729204564
0.512558973562360   0.244711438072402   0.848073478260141
0.599555590066689   0.261315214099349   0.017783736793137
0.600982567641229   0.153826354358241   0.983494434983516
0.403108038203302   0.407102682686433   0.961988900803409
0.515321323126509   0.371743505127876   0.135876958381336
0.573895857058297   0.307361890230558   0.073838165700208
0.424647055424302   0.379872366710148   0.190841887692094
0.513757458152296   0.457954918936397   0.160363955598841
0.611179928111928   0.192894475344064   0.342359998975668
0.463218586007282   0.212702919895918   0.472392174286770
0.440161328316001   0.400468766900212   0.411719359927994
0.431835876384409   0.332897824447452   0.281733799500762
0.294332847476031   0.228558231416349   0.510202517704942
0.405528973434512   0.438330400850080   0.424787600127523
0.434094313260540   0.253908640661724   0.685992721191260
0.445103274233596   0.377061925411164   0.660173878918611
0.467444916979610   0.395957552704220   0.667326971558928
0.487785522685037   0.301833511314467   0.888463883881085
0.468466192501934   0.348523235618293   0.930561503456831
0.493850416501559   0.363758951202611   0.971548498162414
0.540381944826838   0.302645910145624   0.985746296507336
0.463246327496510   0.321914700259819   0.885488507548870
0.345394430416638   0.385494035614819   0.016343998818371
0.503162202656807   0.421256772940176   0.231867031206879
0.442125671082077   0.441568066308805   0.226424918080839
0.407294172677111   0.405716009545492   0.146597469288115
0.269472409113564   0.472709908819095   0.132990783195614
0.586381553628589   0.294884630737428   0.049928948334071
0.339944579378346   0.450671045931827   0.294035610171229
0.396188040212981   0.448908672431933   0.395505352357416
0.437586616350376   0.226210228495866   0.461161603054875
0.460341623966898   0.302756154938150   0.554947357234649
0.272140298364067   0.506148610614354   0.603582679992943
0.356465433139315   0.211857008808873   0.528512792194206
0.377310831888871   0.578901527568672   0.632955195712583
0.397613466147262   0.425145639938353   0.638215051540940
0.309099972621797   0.527630310575081   0.628797020232164
0.499380906098232   0.482563238658137   0.630688991309845
0.538888431012800   0.158501074269250   0.742170588260051
0.393257195068425   0.234806943673618   0.792660627317136
0.366326077219921   0.426861787083252   0.024911671530196
0.406434332504798   0.435974022258864   0.956052712521395
0.445046043476991   0.578264770404920   0.984458508919955
0.287057352891456   0.343063717949098   0.044016983252742
0.438106599267780   0.266689789183592   0.229202812441575
0.535476135847740   0.351762587035708   0.139018652408525
0.468222120303908   0.597778832055975   0.076212385545645
0.486963616931331   0.356044689065253   0.331190647091645
0.533653735270404   0.533964275951216   0.367983637598536
0.475492125469051   0.269192497707302   0.493063486209931
0.506438087875160   0.281059709076448   0.299608404032714
0.558249525807951   0.323951465516653   0.387657827263280
0.514222772583193   0.550332403013149   0.350193016645430
0.504278379925193   0.370511763877574   0.706383006351978
0.496010901385973   0.370860149613653   0.620685319517928
0.351102174598755   0.226977440735286   0.652145016293701
0.452222985543082   0.515072831297195   0.599499735538844
0.469854652477565   0.431334135643193   0.879645523719912
0.343621319487757   0.329837409189093   0.793049996714589
0.456342450293233   0.390825614625785   0.792050832404872
0.431006095919973   0.421671977913788   0.912028318394459
0.501387927891011   0.315845964314138   0.957460468513121
0.597973601084001   0.569307381512373   0.041893841209105
0.396211555892410   0.457518104197139   0.973552402341338
0.556509605754954   0.469278584153526   0.133600338251232
0.501414372368558   0.517755172671597   0.129690424524802
0.355439936788034   0.643429446610115   0.342587324851845
0.388984182061490   0.683846020649935   0.048242937327013
0.593452668255789   0.537178854959560   0.425340021414560
0.514263033606524   0.448898622280768   0.242923452169136
0.508691000622225   0.432636330653708   0.313230808013469
0.384175488483426   0.282646753455632   0.618066802198258
0.359622729847115   0.338765263399053   0.486385389890918
0.608736991401740   0.316331327639896   0.640499596433354
0.522197413362006   0.576198955901704   0.587956833826275
0.358527971460764   0.281914494292058   0.690306546125298
0.434750866478405   0.565853422668264   0.688589100818423
0.553963954524971   0.681768251971606   0.818775126130914
0.266340976438901   0.388682468353503   0.795196783307391
0.375372484289841   0.245592523888468   0.870524041294931
0.469817257075088   0.567080523867822   0.994740534665434
0.447481022714797   0.383538782186539   0.971775581439521
0.565806937192246   0.549340966454158   0.166946699513730
0.182675977767635   0.395162783327058   0.009989056210550
0.419074629055705   0.564826877211767   0.993605742708805
0.426525254526628   0.365531880394353   0.213151789254752
0.478379338610408   0.384484897013397   0.263088078003808
0.551743874501729   0.663937113122906   0.312000128247117
0.547022192538480   0.687019690491039   0.295617611362663
0.326612544498303   0.499428717313773   0.254605122659182
0.548908699144553   0.688869399929115   0.154241206311647
0.682538956603432   0.512468744700044   0.525737157169155
0.401922284456879   0.298885535354419   0.570076248699863
0.679132170642041   0.554416002952203   0.586051743412810
0.507299619128730   0.369869472664627   0.842076916562664
0.420888888550812   0.435813362260252   0.588361269680741
0.399509349080072   0.516169793871501   0.595104770708969
0.455575284123170   0.553402842367228   0.670402022355911
0.334128385748590   0.558011091847620   0.913121933905495
0.481035973482470   0.392923196714639   0.969108466252280
0.484217574781177   0.625979582534256   0.927421725118471
0.303919173161098   0.600585507839890   0.845266353875832
0.479600825053699   0.446836273460201   0.996136327358684
0.501937718678554   0.365815941090604   0.263978775214644
0.280862136456181   0.521091768131353   0.990001380823128
0.492442626693762   0.578518572842106   0.078212667614980
0.417138209852580   0.649742019212895   0.304851100723387
0.367763786033450   0.528678683934349   0.240702027335568
0.590318560036776   0.629419231635560   0.129968002583251
0.435467550767596   0.684263527935150   0.560920637859655
0.417335343216134   0.773524021713320   0.446918362739846
0.435764376168942   0.637501279956307   0.384503404379333
0.370008818539779   0.515595375134550   0.214695383849103
0.552214945125585   0.424467947593288   0.507224304018389
0.444559398280171   0.541405125628921   0.644825553430439
0.427641785628768   0.558748926809013   0.600029052956209
0.703769092004115   0.494394717784649   0.769986915329283
0.478444887822373   0.474952159833243   0.682373697883539
0.574843638174233   0.369340489642270   0.910786637287682
0.487123175741852   0.393872521228544   0.793498003361989
0.459941120542616   0.640222135630558   0.934468432792791
0.474807197191916   0.361090563666724   0.100223953349768
0.390559362001785   0.639656019827371   0.175621520344936
0.532472924657431   0.607868061199487   0.014225539928273
0.733662223104795   0.606117287262647   0.255740144557538
0.441455466387975   0.715598889657596   0.271308473649095
0.425911487589615   0.640355843418281   0.331323420507761
0.431132655748771   0.660100259479063   0.138345999866324
0.336270409411621   0.531064072606962   0.323328532300407
0.370963589296711   0.653254679876102   0.323844831640731
0.615723752862845   0.797175702701136   0.395429885060698
0.460453607472200   0.493080774935158   0.223303944334723
0.523370236670578   0.440609917809801   0.758836616965245
0.478661958514522   0.580427469999690   0.497001698168551
0.386978769513471   0.651350868089406   0.464227171392566
0.374752265464567   0.683723392565198   0.527602575251259
0.414651580793267   0.756196312974216   0.539276201999973
0.638904269617571   0.683307471254385   0.693800527543779
0.525623625959377   0.463120841684130   0.976436763940797
0.497277863783237   0.648193640937363   0.818361064367270
0.416926805812634   0.741920956561165   0.907608412270653
0.486082385142826   0.496920328920008   0.931531625493559
0.296411910010131   0.530472736950021   0.896680788209324
0.542948282588936   0.709091350667726   0.104577402306309
0.460164775774038   0.718237168024165   0.222624278780803
0.180480493849874   0.709742002089710   0.159668220493494
0.499220934136375   0.679058003836833   0.206213933251576
0.378030916607902   0.668608534732298   0.275081285781047
0.315148769804855   0.583716525416174   0.428996196132873
0.545739787387651   0.600333490571986   0.407453921905814
0.505066062793515   0.643618480757079   0.366694556852636
0.500407821115354   0.641754041072092   0.392779087297846
0.279682423814013   0.633190898358716   0.595586300328699
0.363687935158413   0.669998090432807   0.456438201275649
0.305822314979998   0.490747786198735   0.477454170532923
0.553208819621709   0.741807718930442   0.619087865820527
0.357398751942830   0.713581896296142   0.488635289526609
0.365874114466849   0.656480519513872   0.664791150988256
0.504721376318144   0.608030195700554   0.935858573982494
0.566251847317545   0.686001338311563   0.738150373596728
0.395985034280274   0.531641636244824   0.911081698933702
0.531919888480783   0.554446133997726   0.094597682426029
0.515584649464698   0.863014171115134   0.071379740983381
0.442370660188134   0.726516598994778   0.078228209144258
0.470479150937982   0.841497211867929   0.058478070992815
0.327861567229121   0.829883713484178   0.123784363882920
0.416783063137544   0.881698339058898   0.220834140244833
0.389933439874939   0.771767277807867   0.280364745444117
0.467210516464971   0.694242931807355   0.112530888134501
0.407178588122679   0.727736736654070   0.309589138609972
0.352676971212240   0.766769965364385   0.433537838469900
0.669160105493338   0.670649354645218   0.403886958248913
0.395987562368398   0.672409639249357   0.599206420606127
0.506224715244991   0.946735300426085   0.544435533212039
0.432310553173495   0.728769431780423   0.497573301658559
0.335284482917729   0.649656681623852   0.669788105369019
0.471439014511696   0.726734049710627   0.668158535773892
0.383955835028345   0.661817417110824   0.641033704654957
0.229013901536443   0.730582369456555   0.711240681442439
0.389948459620882   0.785274361592231   0.916297492442314
0.614192719804713   0.625690350452663   0.959058386313090
0.352382602890114   0.847412674702561   0.729605920442689
0.546946855201918   0.656683208123252   0.000552358221827
0.377320254827053   0.902285203834860   0.041575008018582
0.644938942377886   0.907956295538698   0.109671170803330
0.562830260179175   0.754264332432840   0.053746985362703
0.587417517618753   0.705765242545785   0.125005701897439
0.356670633748776   0.792205908529667   0.119406583716370
0.338377163949764   0.828889683466617   0.394271381681943
0.535527635750173   0.758537420215806   0.333064918985017
0.673186590028093   0.650392810011665   0.346829891055637
0.421571499370434   0.753669074988164   0.508100850320006
0.581261104729170   0.729897337692852   0.333517332497259
0.402560643980270   0.656330413856899   0.488176355373283
0.447279563442205   0.792844432493397   0.376437852336842
0.408958383677969   0.677360071099613   0.570626653250285
0.268963025650547   0.776307903706611   0.838156844685792
0.416770628427375   0.633299813823037   0.752327736661746
0.396463330149823   0.642017548810934   0.858178254796561
0.537325249720261   0.763615465621026   0.784994676024172
0.440557786367526   0.649113870512050   0.764436107272192
0.477616509365993   0.960196522609549   0.945405433835557
0.488063976178967   0.639620510689504   0.867058591636615
0.432161089660320   0.753090199455701   0.064851590086468
0.367496129733707   0.718789976647098   0.175261101665692
0.529426897161963   0.745699971184315   0.244245347076172
0.711792443066205   0.812875044249672   0.075731068780229
0.375200947495381   0.843431762855155   0.297498228803879
0.558585684296802   0.703010804992485   0.129933889567792
0.539027108057067   0.708950153051951   0.282286066790128
0.485718471848657   0.917235395951501   0.230889880125798
0.228843720333351   0.924129555635247   0.376454897558441
0.291632551280789   0.744565925476643   0.305518712267874
0.341990777259354   0.716956447169999   0.414870272508879
0.457193620919433   0.789259744384451   0.507901587882310
0.374209867412901   0.630831325699616   0.519168812669315
0.238686640943503   0.068689862457568   0.700981175219309
0.425603903319520   0.689012962383324   0.702864284047493
0.287837298953889   0.860185894598621   0.714717689364263
0.400237869070672   0.797500763503636   0.865606199525605
0.360127451211880   0.677046828995517   0.855362175342241
0.653212934688804   0.685615027624857   0.881145492672844
0.483619272200293   0.777336801215342   0.915692960875086
0.454997245624959   0.919663812853985   0.046619664548960
0.368472129826842   0.838554016671175   0.965321277488496
0.436465492466614   0.107848820393297   0.103512797635861
0.509275027994528   0.940826296966577   0.163804744745280
0.500880920848347   0.645206214980087   0.248729845729699
0.496445213089759   0.709495325810191   0.347348228228147
0.470729111631910   0.879718926271992   0.090550879959436
0.375845871603059   0.834573936610438   0.436112069856769
0.544671986828678   0.914769341445459   0.526666404426959
0.341480647510264   0.015002063575572   0.677017104093936
0.342899077885594   0.954612757741933   0.460252679270449
0.391538316973357   0.707422958307919   0.403614158759271
0.404743054716455   0.973520184735507   0.501521930610280
0.517778840887787   0.927799635111411   0.522643987385994
0.412567279102998   0.766458571403365   0.923127130907217
0.467933969949921   0.655169202268400   0.997149480141721
0.386622884776119   0.668573120763952   0.899919584940187
0.459027037697849   0.760040868533156   0.703016591962621
0.410229612676890   0.889642042183867   0.894596265195173
0.576639925021177   0.956275108586793   0.835997445050919
0.535618105697901   0.114391597277155   0.084590048885824
0.359724106808032   0.745726020592312   0.980338583929392
0.366988447751219   0.768580423175362   0.106852867664841
0.617733842131532   0.959565847395913   0.065516932380351
0.259523566989894   0.786391232211384   0.267127951630012
0.466921155957663   0.784236113315211   0.356815353150420
0.547892127454113   0.954890848710801   0.401854416831967
0.457225702062618   0.916312494564896   0.473790192562791
0.497501563651735   0.874081090930734   0.472151081440772
0.472327415798528   0.935509570363738   0.394563736766167
0.564865854333231   0.845517686134584   0.534013439201893
0.529498799054204   0.897607322295116   0.743489196477080
0.339426105731141   0.921366277149728   0.584633367910499
0.405583595019293   0.913393003779747   0.789408141670065
0.378754492535110   0.948296713645110   0.699924415780867
0.439264305537275   0.905404205611000   0.667402025382449
0.337236453836623   0.879195076701693   0.768811727463198
0.259728448543964   0.948294251271176   0.782410527609241
0.353557236834454   0.948003336036078   0.063341038118289
0.469060620795266   0.059078884289174   0.939706958889022
0.463911726695082   0.008033701757775   0.916490521138695
0.353936780769193   0.820828278917864   0.979828379099613
0.118750579356971   0.031552545343860   0.156067096145142
0.484779745357339   0.813493682947127   0.197722963488463
0.445916044162108   0.885826857742566   0.290891471378284
0.531775170361343   0.940584327943607   0.355859605635967
0.400476090544663   0.876363990985849   0.380713055498970
0.475482119453001   0.860501424443994   0.466107179171772
0.423339079612915   0.970979433379351   0.595193941688794
0.476988489774381   0.915515248598761   0.612227564942760
0.456150127243555   0.908454024990712   0.564873108314908
0.365901940545234   0.971743407629951   0.686366946078088
0.531076532785982   0.942989183234039   0.661573597497678
0.377287958058098   0.918935149777922   0.776122416678363
0.435346217408644   0.911377503091544   0.743795084370284
0.419901365996455   0.761653361585017   0.805221111882712
0.523427690069007   0.992301191759005   0.704136781564805
0.335240884341478   0.999811022462300   0.727353985084370
0.442005491089112   0.833402990795898   0.069071145030145
0.646354553501949   0.033002937799751   0.959634413544396
0.556746202302731   0.038699552473602   0.837391630261637
0.585533522633182   0.962175856057754   0.992580875555033
0.415570938572219   0.077154191204234   0.141446788526011
0.418363282512385   0.890899674297322   0.294719203720522
0.524823014529934   0.025401772898472   0.072714300616638
0.411033503174629   0.951422535824397   0.172441591649570
0.466848186567960   0.905856912011487   0.390924841430295
0.345349550124554   0.915387379423941   0.371007478896223
0.407300669387265   0.916312187341484   0.305989151945780
0.531190414923103   0.045743715131937   0.535625712538122
0.510442462002709   0.765004653721316   0.333293987355383
0.489864873661622   0.041878057563769   0.496869186337519
0.723478197589158   0.031722615470298   0.629635102978656
0.403486372017856   0.091139042690265   0.692311623217987
0.514544529375862   0.114550143010848   0.858342281301538
0.418066003377572   0.803312265821269   0.744607951580418
0.541722073844339   0.884352973172044   0.766251391729135
0.533368480469190   0.121353318702776   0.836338545671713
0.566231911264838   0.003397821605484   0.047796339652819
0.640698439131602   0.120908375486947   0.981669925433249
0.586815498504490   0.099116166339661   0.185951539358913
0.633436971833503   0.125947380404652   0.128171539384054
0.622136968491388   0.158176012835111   0.078684607820871
0.298383198359017   0.083010267110018   0.196569558909289
0.424658267150651   0.062467129277871   0.249433826039083
0.420652314099318   0.990181550771982   0.216988010454876
0.548550091681162   0.069062821462742   0.327445484924976
0.612040717084839   0.132260212958616   0.415154906614012
0.370332877465931   0.051654787704073   0.230488136066228
0.520497632601524   0.028029346379994   0.408157155431975
0.269782620397683   0.042021334408404   0.625321398289374
0.480188472412484   0.051312250781669   0.851533078116540
0.460024576754309   0.032335721892450   0.534703087180145
0.508397328131348   0.086559928325874   0.512826142262420
0.554317159182176   0.827160704618838   0.647510578757702
0.470397483815561   0.045988566475135   0.693707749221263
0.541316251584800   0.085008014400312   0.703855010128696
0.460143825498456   0.101331863317458   0.773531709650320
0.485525518216655   0.009856920849382   0.957596138351175
0.496165899877248   0.066320542034118   0.012717767449280
0.531394439821990   0.058835937506805   0.912078411938035
0.493228862484170   0.289270657508557   0.194822692452963
0.510819700496790   0.051855290748276   0.032175494191324
0.395416681959597   0.005869559094696   0.208176883332230
0.545901449251748   0.113579169024839   0.270882121605620
0.488405426808259   0.158864876403898   0.515605023895892
0.381668829135530   0.158033782139811   0.304122871054810
0.493582377967422   0.056420633855473   0.445479081526390
0.445059136694174   0.019585132198085   0.380302082126963
0.411115966001371   0.037705521025133   0.548105219643760
0.483797654035496   0.918235771066204   0.639698483675541
0.565141221971228   0.039794279909591   0.428966814221186
0.497022028532128   0.978197223609413   0.609182710346515
0.370293346315999   0.088923001051379   0.838214117052277
0.467397384995118   0.185986624275672   0.720540634510057
0.410194546420182   0.182947500375586   0.856076612726311
0.488363762841349   0.124611542701830   0.847406225340366
0.536223889041202   0.097552981334542   0.782359875033026
0.407467792987718   0.078756546142169   0.031198460612576
0.600762281672283   0.225935276524607   0.934572868528000
0.582780215508710   0.108325093968072   0.133478185611435
0.555624858103051   0.956973654059657   0.350791531755727
0.535600280092332   0.037041152940243   0.025291848954373
0.659517419265404   0.112280055774597   0.126983950908300
0.339957736302135   0.985413050432522   0.299066515764420
0.351510638025233   0.315150777938754   0.356720570748632
0.450347922620777   0.012697573006951   0.304416751348838
0.550834455241949   0.912521935354269   0.555324828729898
0.539388862177870   0.085810639867111   0.671613638054492
0.458134016250416   0.972964057305657   0.556865566983896
0.691856840054185   0.407024332283482   0.517957346749290
0.464787144546553   0.072734186120862   0.759987842371906
0.577654445591659   0.017860791765888   0.664285416310031
0.441648161834344   0.137721378340743   0.800039507966482
0.550463327567814   0.176284052740591   0.793016408345988
0.441191053030016   0.306344445474354   0.804793281039690
0.549119302339570   0.206183229005817   0.831098291848195
0.415024445795036   0.018979761750001   0.774279591953107
0.411327999530900   0.205914264750424   0.104122422095909
0.541343882344447   0.188536467937462   0.921794709310110
0.496855704821385   0.996837144822034   0.006383911531509
0.448072212235138   0.987447957764576   0.311288836212725
0.383817065567937   0.210505904206924   0.093642637394100
0.430574295367601   0.227049456178797   0.117723249526352
0.376047698894306   0.272698843271265   0.226564579200981
0.477455698603340   0.210037712670391   0.499970471586954
0.433415996099128   0.041484829368673   0.394290369805658
0.489846931143779   0.061931523307452   0.473704571967613
0.483468764597806   0.183169594911111   0.507436867213780
0.410007085632896   0.151568529661994   0.370298568551830
0.499144780193469   0.260457936382560   0.503639961829862
0.621143435350327   0.995741908924699   0.517618106757883
0.416760737492770   0.180586679455631   0.821434566749322
0.543595793155580   0.139837572941824   0.658941306879515
0.487253394489054   0.260105379156612   0.854098641333168
0.374569206981796   0.089042771286904   0.686041907625271
0.527748950833609   0.078102351023600   0.806397554935287
0.484256446767620   0.271100952712420   0.882938542397651
0.419945178830400   0.343712461436500   0.041802777323668
0.390172029454964   0.316629451158661   0.072346229940822
0.602778740049743   0.148412887589252   0.167748863041949
0.585610529293873   0.204901528777918   0.346224195012874
0.513809624465274   0.156397262012630   0.217635332278900
0.340041023078598   0.248755928814511   0.319155406388618
0.644840367985393   0.149686998022692   0.514805368842055
0.604428998851025   0.424596300604766   0.310595076707629
0.502225722444035   0.311672921308095   0.295879740712349
0.569244262131189   0.364063304397092   0.482027156669766
0.486483852291576   0.210396343955705   0.453515262204980
0.474741580810154   0.120054166734444   0.225608595416129
0.335705671704662   0.293563049828243   0.472855827519393
0.570191142365061   0.144553683557173   0.647681300997005
0.480401244361963   0.396266730802349   0.618857111914015
0.438666274283539   0.346800394409993   0.773885165947216
0.407130558883044   0.175117975335887   0.554544889596984
0.487861514621214   0.255125813812543   0.907984681318338
0.540145924700346   0.204063152079676   0.784988638471670
0.520695365980563   0.323821949860109   0.978499915031679
0.424363496479898   0.269314287029278   0.067199961950320
0.701399428403364   0.350925417992310   0.020292883722659
0.521842250734529   0.335437828321019   0.875006367104616
0.532041517736507   0.210763462300110   0.158599935489680
0.536833372679661   0.188565300335698   0.950196060871800
0.446749710555681   0.301936703854654   0.317237224063613
0.496578656842912   0.264763864524085   0.120253484200703
0.436125950271270   0.327427260073161   0.309799010010468
0.491903218681130   0.264835052633181   0.215418983039783
0.457288638911787   0.287076710630624   0.485476966071531
0.595044708217270   0.506110672426488   0.332510457756237
0.432876125423953   0.347892226122729   0.548602229193700
0.471510739833093   0.255098887279981   0.569467856643090
0.447453398172772   0.212098747618901   0.565257796605093
0.465689858316510   0.400511211710681   0.698207584355115
0.430236681603356   0.278894729890671   0.675642449163114
0.623090112437076   0.420833521210819   0.722535691206385
0.471962102247262   0.424836718740516   0.571092211412995
0.478511303698159   0.274514935646166   0.827888248380995
0.559808769360107   0.240738708192693   0.957781104320211
0.590386424414666   0.295702936059117   0.975418415318553
0.576909035087473   0.336363074118110   0.079145458928760
0.534718494102257   0.300977147743897   0.918475694559875
0.451794404852095   0.199586362208113   0.163110398572346
0.361337791364415   0.239261229204717   0.140533212957159
0.431986662762637   0.293699872349977   0.236912169982016
0.511164469414907   0.240199052774246   0.207929677622539
0.316080129608248   0.435313122959086   0.350382077264852
0.503694738209550   0.339199123824805   0.281417984031711
0.659410106530175   0.479032910440041   0.378947326648535
0.625803541622968   0.226921234915891   0.561908368369735
0.340214745515279   0.211056270271719   0.606820056991858
0.587142896286987   0.500657416610298   0.524527659465931
0.510721546259671   0.283917059450564   0.553400161626280
0.674005292486751   0.465584796706033   0.492298702135430
0.561815318438733   0.294405896262125   0.626123747247664
0.604657588720606   0.400955795410637   0.681351058422095
0.480513245766250   0.343492130084730   0.810704637724743
0.501995144499578   0.293836510440609   0.821746277020200
0.561583111771320   0.166586524745875   0.044087240787176
0.559280266696851   0.249734915918655   0.929851586853687
0.556788723902852   0.395991613354256   0.917071505829253
0.562111983576277   0.338829816891747   0.245932543443380
0.455756178812419   0.356320333958171   0.081548528233665
0.649828805172631   0.368329743547630   0.015964896445602
0.418378105301809   0.317593048374346   0.228604326865077
0.438776645058915   0.411026264415735   0.268913269827944
0.634062097053653   0.186034593954544   0.243428902057148
0.468380402757552   0.566861380194898   0.329668266203779
0.662891358779624   0.452884727793204   0.380561475381052
0.666233003984240   0.371354660998763   0.638098555467628
0.389574207487130   0.217000108556246   0.486233404738031
0.325088385517967   0.530976564617784   0.424001705714836
0.474580171698497   0.443154324737466   0.639772569212340
0.596074305104501   0.463186021581627   0.614734043683330
0.447356705426983   0.471246856581037   0.687538773419666
0.553116410131544   0.292600534146185   0.823780818297304
0.493088253852250   0.404576829283550   0.940910929552568
0.443366778413437   0.373252446711869   0.897544542156513
0.683970757590328   0.509861930035365   0.943532526825646
0.511289666920045   0.340426017798434   0.847069278437558
0.544779020785137   0.454448860817213   0.961427218560577
0.434863238395873   0.303667946844620   0.135004990873466
0.501500486508949   0.639012239482496   0.087499078802522
0.505367604502400   0.555806061032607   0.214269019148285
0.509008269215395   0.538599024067074   0.259533820209492
0.416853311386245   0.455070717418195   0.218682925691618
0.437634063426539   0.587370354261490   0.289938071800915
0.529113860935764   0.566414016230251   0.328961520264999
0.548070707465166   0.282848333836511   0.425202881215187
0.547485581468773   0.304883103186566   0.448238662821693
0.403951471558423   0.447431458238226   0.565314125999541
0.427514920186874   0.543800359473212   0.520325333064368
0.617049002082925   0.648500718383787   0.454331838016545
0.287608447090884   0.442425606843507   0.579731997563232
0.616578847261690   0.504504981351025   0.602623097303630
0.430439508693603   0.358940513110066   0.018659057252202
0.444180182006389   0.431978946228819   0.886649445356551
0.339901193097904   0.358607331407547   0.782582038822910
0.744889921729019   0.253715714403437   0.940367779769112
0.457138088705606   0.458869811682258   0.010921658275960
0.403618362166496   0.642926840845432   0.077648137680981
0.631879465780753   0.572950255952017   0.091917584180396
0.540449185746157   0.419668724518000   0.133368113983402
0.578960060268421   0.514252669878709   0.129101287872631
0.507154460874466   0.482470138633595   0.287816306665215
0.313931814323316   0.600892031936345   0.323706166231554
0.496382260580304   0.517738482677100   0.243080770282444
0.317657551423415   0.533066772926442   0.509335964375442
0.373217031834897   0.420873098165081   0.221375572848787
0.316134629828277   0.462061498349646   0.468273540345170
0.408291427575188   0.419552189783859   0.563057237401083
0.540265365844656   0.485349762631265   0.545149922076295
0.422735388314343   0.584623414599544   0.587507926397981
0.371689808143267   0.580632765041467   0.706819807031911
0.536011870804812   0.525271990445736   0.674997456290160
0.549193285738985   0.270336021168317   0.612890727431263
0.431182525401139   0.490196005968622   0.641348499098358
0.578696914318189   0.575082438611643   0.776363222624593
0.343103578481921   0.468528341127491   0.035377880177103
0.504834593429278   0.580278623344538   0.861598604233025
0.535320999150504   0.574255491443306   0.956268944236633
0.554549573930994   0.628122695071341   0.008921460799866
0.501853413127948   0.606140408486117   0.140989806978763
0.388652493315723   0.658473887644437   0.301657127862393
0.577778147968805   0.502990034389861   0.308967893021615
0.495238212251299   0.383079204481356   0.327408282885014
0.314332460468111   0.585323409521934   0.302537678103440
0.513580974575570   0.656267423741249   0.340833280838345
0.656841684718822   0.713685397859534   0.435138087330496
0.635418516069514   0.578053206789903   0.408797785740787
0.630989001871872   0.568241846596323   0.535023180831052
0.368205003833374   0.531505290540073   0.685677848694246
0.420040486503296   0.792789516787289   0.470610049958332
0.711152711360938   0.587103194521352   0.479296360281483
0.432440059779048   0.637829657552487   0.815497344784315
0.396924000200451   0.618965719942205   0.767682922429701
0.431133856827208   0.465754270371336   0.622296453693308
0.439455331104964   0.393995118330938   0.815258682148128
0.626972657293990   0.620347621320333   0.079220974112425
0.356966169993899   0.578635882646181   0.827536249788074
0.411696780158586   0.678047079269657   0.948827620696280
0.436079788490652   0.662505679888609   0.285616798020655
0.580516613885752   0.606770728729781   0.119506782406085
0.578915802373841   0.564430312821344   0.089130894021212
0.537441973100070   0.540546359751782   0.160979433447053
0.617868479642850   0.538393220148169   0.373889781567924
0.338901167677887   0.644511637260685   0.155991198920681
0.425034190371894   0.675179344965013   0.423820815410173
0.386596986544976   0.752481826918518   0.550214403380744
0.454549529818002   0.623820594095923   0.401520026712399
0.316356685949131   0.507422614404864   0.496986903844409
0.411397043899170   0.568428946242581   0.524301225932419
0.606861577560231   0.547268245553500   0.579581554496606
0.590671925152423   0.757828825278407   0.557255672616788
0.496942128626518   0.669301888093583   0.801502355042622
0.509438167644541   0.587517923109641   0.886348512813042
0.520652774466024   0.703027994241657   0.853522124684608
0.614297138563334   0.440505528041823   0.916901724452429
0.589305012397035   0.601953890254843   0.037732588306747
0.583957795739438   0.538154447416978   0.004270589560688
0.639429226564783   0.612944798597934   0.949802086311135
0.649378274926711   0.669298027570998   0.079136990322623
0.516197198960284   0.696366068335341   0.186685937161578
0.506965050114132   0.664853663699717   0.132574479605610
0.610129030683690   0.905228718299681   0.236358459755573
0.493236410330948   0.771975593585106   0.413327198975139
0.551490398941434   0.470500568553467   0.256087491576990
0.619252602099206   0.831980065549361   0.353462574938342
0.349446531055872   0.489486831449327   0.347666315690225
0.413239530471292   0.718885349549202   0.451231257359191
0.422819638353761   0.518150871741059   0.504951418648225
0.357125278297211   0.743916889018212   0.481737611515638
0.427980855638977   0.625383441398934   0.532764752255891
0.658789189158184   0.523871249278529   0.723691804456912
0.534841892747220   0.661144664894219   0.701067253588384
0.335272022334752   0.559455290433087   0.815780654087571
0.495273218233534   0.693162496451546   0.866245686454453
0.672846311935362   0.797509937009546   0.791135174914090
0.493016034262115   0.662369230073187   0.002908872522640
0.519958884065794   0.665258153659561   0.004195563899754
0.452058476880937   0.504100961764025   0.072525775824727
0.636595903283866   0.702194066457990   0.040500318399325
0.509025034401315   0.823954764668348   0.155296574286207
0.571816519623740   0.652127537477443   0.073543786495919
0.482630458877926   0.704920814898852   0.209121180803456
0.576101744307209   0.834394088037546   0.116560592640567
0.421604447006065   0.733286357587877   0.285465274860780
0.513540174623484   0.591210543374816   0.258317949534183
0.340432670230696   0.824784442063156   0.507604937739773
0.470768074235342   0.855005281717733   0.377101827004839
0.358144710165688   0.819476941000572   0.415535837782952
0.517118278707422   0.513914043467092   0.696032597202618
0.485161092822954   0.551863553754938   0.678193629419240
0.494923387778541   0.532593933395456   0.513239569049368
0.569334622924422   0.684706574475589   0.768742126844855
0.470995608734384   0.813513132077134   0.710292477704278
0.428921630809581   0.483327775326244   0.669626867698566
0.513394444949324   0.599311320194332   0.064601402517776
0.415674845372873   0.631925563124220   0.836783063111622
0.528818379633744   0.731010242080827   0.869478211471972
0.586771299345666   0.848557182801949   0.039866024778216
0.496993340048978   0.690691889566971   0.119312309717850
0.638853124552658   0.685450182942720   0.224416915032413
0.654026080599386   0.866493912926823   0.273715220966853
0.633263529558557   0.792679568243332   0.271504523231284
0.421490643232724   0.623597044351875   0.080805849364492
0.597769393908565   0.693776634443697   0.471180685161617
0.546254498142717   0.546676128373429   0.393047372335232
0.410411208389066   0.748413200370301   0.164497063422857
0.620508690582467   0.809939809510425   0.367542314028119
0.426985183608240   0.785186943576393   0.420847088751633
0.499503222729456   0.718653539744193   0.782142461965796
0.586447724525699   0.788771917990889   0.482950379032411
0.507056719705756   0.696816939230330   0.801436688748323
0.491759722131357   0.709160547031145   0.553576510054445
0.445289731368817   0.681724836766792   0.473191574084195
0.559783943669930   0.760874996390650   0.806038223521788
0.491992421117435   0.684063448866213   0.691539791113119
0.610367476089115   0.759827591888122   0.821415582844722
0.494692435639913   0.632148538861675   0.840228206173019
0.521946848080503   0.012562893617669   0.188891270082415
0.638108853856056   0.870235514406086   0.045144157176668
0.490481527959538   0.921002329717634   0.163221183863556
0.480398286061438   0.899935470564934   0.145948264051486
0.635231416257884   0.759599803450429   0.047329675449307
0.291020816678083   0.840584463758927   0.383244283563773
0.390360120505759   0.801569825168850   0.282813747191161
0.652403321797707   0.923255007431818   0.265444208607823
0.581449389331003   0.864934242435664   0.272949772381857
0.569528202195104   0.654333698426266   0.362888626783321
0.446623454696971   0.915197476470640   0.538747572298232
0.563484200663740   0.803938593131439   0.498576330676935
0.477611394149733   0.680041399847163   0.481130715134869
0.554712554554378   0.797984272198501   0.643291426528481
0.434978708534816   0.902324737052523   0.696052348986014
0.444071638786144   0.627900973060507   0.958256514114711
0.479942857535306   0.701514713988462   0.671164319262558
0.585178993043905   0.710055983586906   0.774815556584984
0.609989069575033   0.772836990539000   0.700807609296996
0.606871031658225   0.813299972576573   0.972587851644988
0.604728703221478   0.837893017292054   0.753797794204151
0.326808597961744   0.744526700743468   0.107187137539652
0.547234280089960   0.822331719242858   0.926066811423258
0.615027300245448   0.910430538142493   0.113954657563435
0.431388293732848   0.743782210274115   0.182735900502385
0.599216550228473   0.973504448834234   0.336421711684311
0.571070473691918   0.872618992763542   0.416589572116471
0.532131607880338   0.800786645142742   0.393810778868928
0.560798952858576   0.747037705061241   0.332033870828859
0.389249830356255   0.851473203927512   0.368695686963937
0.600507534591507   0.817723089073940   0.411305169481365
0.605989567190823   0.867843346271438   0.507978027684865
0.524262102897684   0.005845893502717   0.573118875603780
0.763808265542497   0.791293185477769   0.562120081413604
0.512777323764217   0.716728873689101   0.724843647963811
0.580150513784947   0.953605153545530   0.614354819146108
0.587517436984005   0.730027403007434   0.752810447633468
0.464872961017309   0.752662343745701   0.675336987400451
0.600818170224539   0.855451125531906   0.012125454373654
0.536911084017689   0.875180923319185   0.091499413632332
0.685285790219641   0.701374187117671   0.057267865533174
0.542529583191034   0.020469719079704   0.048715776415197
0.502328208281218   0.725663825800493   0.051383342625752
0.350638128603650   0.820652044349471   0.191176702254556
0.733718401143090   0.971918315756274   0.205471332225061
0.634629386399067   0.993752035566508   0.150633097219642
0.485519648418932   0.763255829832566   0.348363593936612
0.437222302803557   0.776991664488282   0.260332367745837
0.593002492452441   0.896353554187250   0.510150441177665
0.435900703413979   0.887559832334733   0.432295087817658
0.583191177370444   0.892648824679924   0.438222084759262
0.289441275041970   0.970509048145007   0.655833460907410
0.406265021337423   0.972155606008469   0.548826972971952
0.671525275726196   0.920239904823478   0.668198336788237
0.459892396439105   0.967325029994287   0.687734968561297
0.556457390461801   0.765355439976232   0.599830562616422
0.676062907441928   0.973435467135668   0.732419618207012
0.500564758430385   0.802104224841330   0.925377975624501
0.646980365257660   0.840190070858264   0.722749688900624
0.555596201004622   0.922019744335044   0.000986475173810
0.502178846523483   0.025932396929395   0.889590098378429
0.457095872566718   0.130612946059985   0.065367577001381
0.618776412629822   0.134769858348842   0.968967720819774
0.289105764719983   0.106343683671395   0.211122028234102
0.432020766143029   0.906617771424276   0.042042957997164
0.361619103671110   0.968077174316375   0.287196506123491
0.304398961066020   0.738121611674597   0.440965380273532
0.508711131401882   0.155030895893219   0.334242866151826
0.452193120799222   0.848084793048143   0.457566160376738
0.614922894710768   0.954180880035754   0.285578686761570
0.280042137774944   0.869470380394372   0.658757547577157
0.435636943434673   0.019870578850785   0.547407825371731
0.572159651355147   0.831274040267634   0.508434824856820
0.479592862323106   0.053261743084481   0.545842850415882
0.359956346646521   0.074176919369471   0.665054923682944
0.461690047492979   0.894840473977904   0.707724686795322
0.619541290325572   0.979687518685945   0.685121421358222
0.582349559409630   0.072413221600954   0.862126917501196
0.574768142854524   0.969761118003442   0.091460818651798
0.479303631573839   0.928754933392140   0.846415556217206
0.691750203590169   0.064361093271668   0.959591990350540
0.591316952163211   0.042627141373677   0.955603543508017
0.651498434690911   0.926861912190459   0.968033973876615
0.556355123867754   0.099297264773599   0.322324874634006
0.658150472640206   0.010207525774761   0.228397879275802
0.595647081263601   0.908466326219303   0.298918483921592
0.640058837691713   0.157380486556849   0.321777081715309
0.433106367816231   0.987223748071209   0.541758435600464
0.494192558085831   0.138882817974420   0.315039031782702
0.586897739598727   0.962254508083633   0.429026917613337
0.511921399423653   0.049440609711174   0.297132532856522
0.391888836432990   0.965721987665232   0.446928600420592
0.462542423375851   0.935343408616055   0.522779731058547
0.610666775111428   0.962077137295357   0.478776242642757
0.559441911276783   0.940839039841669   0.727278254093010
0.775374264138522   0.181806637940560   0.798039704766615
0.298284306347979   0.774538372370461   0.839895685121066
0.457401869894806   0.001706835398615   0.792312984959686
0.513908669033716   0.871264699144774   0.957923801093060
0.466409108975649   0.003383339584769   0.862812673346546
0.694383672931408   0.037370190240755   0.051658203996532
0.574987621962860   0.239390614054369   0.054447966092805
0.663558232717883   0.897292784795741   0.129459861533210
0.662705490275709   0.093164650645081   0.199207560520510
0.776576238618227   0.009870020270379   0.263853813488574
0.405498059115210   0.151339633559628   0.118084865590222
0.730119835422401   0.950676467647539   0.440173680359627
0.757977550038600   0.075037216227732   0.580549480484363
0.714287017465377   0.121426576154629   0.335620917469624
0.635116414665240   0.055507484928177   0.449671028906881
0.458126093873151   0.174262419890811   0.430640952429769
0.559377473164068   0.249519129085877   0.592642248810287
0.526517719190228   0.111816848500968   0.655592186639498
0.420028957676475   0.128288832288465   0.780510457941743
0.483768414729485   0.066609819850552   0.571398388315525
0.551117167389627   0.057991483212991   0.663901225875329
0.517544845347075   0.182126339016933   0.743086306927990
0.498706929444040   0.280091592134879   0.665856823305566
0.670688078997393   0.045498634097122   0.973221794657702
0.331966149182337   0.157444517229868   0.825261235874767
0.446710098407393   0.147905198525413   0.915348480743772
0.467607404967096   0.175628362127923   0.089347785184009
0.532446877254504   0.231811976267445   0.969727652912880
0.571637447925134   0.078172976173575   0.147202407577957
0.348794874771545   0.022639712168763   0.305807565487264
0.589410415760584   0.268817717125156   0.205712124037257
0.493526535422226   0.089074830346172   0.487536155414125
0.658242076593144   0.005495996351737   0.282345691312811
0.654391676767267   0.134632728226231   0.282193098607471
0.649372918587458   0.937852863459888   0.574858659011091
0.503273040485201   0.123124474198799   0.674396238837182
0.491414077751697   0.135312158688046   0.627455761700245
0.736092435200244   0.121180014653302   0.774858505058565
0.635276327679961   0.007469171467260   0.763220455990824
0.475225499132027   0.071325654044746   0.829816436335460
0.676183516949372   0.269282784331642   0.784611447547520
0.581893894269241   0.918437683894407   0.930534480030014
0.696436434390595   0.111173323534314   0.929614580219847
0.422440113783061   0.143165003708250   0.034682886792043
0.565687526493384   0.007851908699650   0.900539066938785
0.508152387346740   0.266188123226230   0.926431882941705
0.584186982324192   0.149452010622287   0.938093424037629
0.558991507896774   0.063035369558604   0.924379345032737
0.408380990836034   0.237366346424244   0.162255532611251
0.566783423486749   0.248434638535019   0.149260762801662
0.599786283367619   0.288543941047639   0.184943137931397
0.728704987289868   0.241000781682607   0.448006978600487
0.592611104683678   0.065218888772785   0.401539934603022
0.605772270780760   0.184076535976002   0.289495229349365
0.433573814433621   0.166562908903424   0.414265810557037
0.621369853659440   0.107921134670445   0.462796265120911
0.696153469208795   0.152898771033760   0.430509273873802
0.615044171557893   0.104075105853775   0.518449008571909
0.493366948812524   0.351033026094762   0.597305405857035
0.421879837425485   0.214970296573631   0.858178142990033
0.777481738764091   0.320528314103398   0.728393897599583
0.534125775785645   0.959036254812194   0.980519005912373
0.724272035964435   0.114195124765777   0.801923644148988
0.525564144596759   0.255213750114113   0.547976779257985
0.364139318061838   0.157327124953593   0.893323837293246
0.459240195589398   0.347415092758337   0.904328455970654
0.424305900077669   0.296927154099717   0.853828533638422
0.469698000598056   0.995568965706098   0.142231606009784
0.431920273410205   0.088208074134872   0.124079981819154
0.461450742437131   0.281323407572959   0.328179988416454
0.529904469164929   0.264401397698756   0.292531185833642
0.665374500131419   0.155412828662608   0.303384931094770
0.723000635216518   0.049850781784654   0.492416890073559
0.485754201923204   0.047774114264153   0.298473352600558
0.434542776435980   0.993033691295401   0.465053841434992
0.406440435352720   0.150997939864998   0.457521741541838
0.435445150849213   0.289351155132801   0.534514942108517
0.531198630311071   0.030188979572857   0.561665414894349
0.511960527871254   0.111032810273254   0.626229870628575
0.510628079947139   0.944040221155584   0.731876232153156
0.575860326601911   0.100820775835926   0.754075473099431
0.539079863340780   0.223333814784919   0.809101682302350
0.553221989816886   0.291830810655113   0.090090541895841
0.462843522933012   0.213637654862104   0.895294188966040
0.546191636573063   0.417879573447822   0.897484603309819
0.537904030349468   0.348581016178911   0.234335670821233
0.628586140342585   0.287260185946625   0.176938411382462
0.464914985153535   0.254647025535210   0.224151564388993
0.651463667217467   0.209428129416106   0.118984319994610
0.579314837167181   0.208448084248191   0.176615984350415
0.595296231512346   0.487472751694973   0.233956317601026
0.509825718992709   0.259826922815407   0.377316271925190
0.701649774378434   0.326409662991467   0.380035896098919
0.608360683262237   0.331214413948084   0.418909456309903
0.756173666502968   0.071505548861173   0.531819012480455
0.641870488602957   0.423124235750804   0.474551398828403
0.622050921009207   0.342198152418571   0.645128589202404
0.478280131210188   0.198863102560921   0.426386861715384
0.579809004189985   0.047645347326900   0.658182615206001
0.530111705085602   0.160379416505335   0.677003311809429
0.516408621724676   0.018900461858479   0.689441326035904
0.793721886543164   0.364967907659288   0.852034644309878
0.453281436426409   0.161604795174153   0.845878262564338
0.558807347235111   0.186219937472684   0.872208853862585
0.621145103575822   0.196753327798167   0.983105274432218
0.624328298257925   0.457927956827674   0.934512682863121
0.562358548793095   0.486730719868135   0.039093957246772
0.596883057571084   0.308717863718007   0.025756088221966
0.572344719457088   0.203398861862690   0.232022843096397
0.636089585544413   0.349123162778960   0.206709994133676
0.643937761518222   0.456298411647248   0.322911196504100
0.549569191849543   0.417013356569865   0.080021933927347
0.699821554210424   0.380920290312130   0.326266740345573
0.674610830802897   0.223187558094876   0.302677655657151
0.741058893945737   0.232469366650165   0.470187490898574
0.413898093034907   0.419386838848240   0.358602791453265
0.590531764241937   0.411697681853457   0.475838285634889
0.441807836897296   0.182539108677699   0.706506417553558
0.547181624160097   0.426538970563877   0.704710536803084
0.679886431650454   0.408656068201358   0.582228685849169
0.637504066158013   0.177407105469154   0.679280175804337
0.421054659870503   0.101353524816612   0.671106106033595
0.553572251335125   0.194411623958936   0.169955427522236
0.544483262898152   0.509581372093018   0.042431879324684
0.566578174115551   0.303431274368529   0.961882684601984
0.538343753096708   0.265346844646629   0.914060326093452
0.488673223062830   0.191269137933494   0.129480417901694
0.673738679436291   0.428907518791494   0.042779472529452
0.336282243959629   0.302887904384293   0.005003961274766
0.435286244565076   0.278523745212239   0.170900964780187
0.603271875071944   0.098200872775352   0.353429722805178
0.662679983133180   0.355207626638995   0.216916836106914
0.619773127371046   0.169188634198587   0.264055972348208
0.698628041700480   0.462899624707251   0.430850958841920
0.665284317588935   0.248881972919740   0.588431241581139
0.442246633942331   0.302673769142825   0.504266736567454
0.644679173818829   0.438837700062224   0.680172767397475
0.650265874431431   0.462373829580370   0.585328192741944
0.518400086623312   0.310038690806630   0.538856706017166
0.706220334500706   0.478328241742241   0.793615796812936
0.501394983319174   0.417539903234683   0.525394204357202
0.477275580617640   0.380846015882571   0.717166629934151
0.699274316689324   0.449248230436878   0.697999425915008
0.624219642518872   0.418533088913190   0.799983817767845
0.517280367628115   0.260009180904874   0.104909665359424
0.530235764064019   0.362837429259078   0.884081411848525
0.558544091988403   0.393885731404066   0.971180869860727
0.534114786499947   0.590722363637208   0.041590253998906
0.307597615312354   0.353755535708337   0.062513302960469
0.564156996670266   0.358937193747905   0.152226792530063
0.491679218014084   0.424736434893520   0.198399873749817
0.351796088744516   0.489369325857566   0.210497282046645
0.663199251952345   0.500278816495863   0.451361113257799
0.676365231810909   0.334841058563205   0.232869062404733
0.611338667193462   0.564073687688170   0.555853283338397
0.662807502230452   0.412895902938153   0.522116262684261
0.460780046251542   0.456404894317956   0.612400531750848
0.660172010871886   0.493366578489950   0.480993627674424
0.491198568459420   0.498946995434362   0.692375325514599
0.412321637863898   0.441484522595128   0.619839357575561
0.496473639230144   0.395506017431708   0.763493765993291
0.681047268913733   0.323970978052119   0.819149637917511
0.652499909156494   0.282770954595091   0.792312233957348
0.490823883231201   0.181738652543769   0.730993051294369
0.415630254051737   0.308596356415400   0.826682334815332
0.487745545880413   0.415560755405397   0.992246335656909
0.595235432038020   0.443042158565121   0.031078366267670
0.610750332056270   0.248297683233984   0.215052097302206
0.678811703179758   0.454560363539819   0.112107216283358
0.517066197235431   0.536377340071132   0.288201794477552
0.567364139700616   0.644466349326364   0.387341899987701
0.265017286309045   0.277835175502871   0.302902042920249
0.587413511854604   0.442812033963422   0.328970608237109
0.541510456457099   0.470266517961997   0.322366447676340
0.407726630810485   0.301125368976845   0.542400882237964
0.417633484188790   0.597329310828841   0.527782917071068
0.663829038386912   0.376293029506405   0.434838798131991
0.606293975068569   0.515834386845280   0.515778859841517
0.379089486965437   0.526508203269542   0.615746652200628
0.507852821219939   0.522179479708980   0.603818271113950
0.493244523143190   0.372577202075763   0.815023169080735
0.539411164319172   0.466589987641159   0.800288070754274
0.568478547297452   0.542921910644261   0.822223334378818
0.575631991231187   0.428073248878556   0.814728643262226
0.787791603683362   0.412819328270287   0.916925771294138
0.501226283452376   0.519114632585808   0.927123096211346
0.577722787034082   0.401423088578156   0.993006871083354
0.445981169332004   0.434961656774125   0.285812748453659
0.501907486499010   0.468318387148427   0.992686104483722
0.466681670295454   0.510869601636144   0.172250387298194
0.612681790213136   0.362690655623180   0.204977543125033
0.407797113397914   0.491648174322630   0.364631479596254
0.524513658647294   0.463706444037604   0.267911331450602
0.578194763281807   0.513045969298876   0.356275127213143
0.518383172587011   0.458753375755944   0.306188910129401
0.713335473928516   0.603890691246022   0.392594323846295
0.606093416586452   0.585609703264579   0.371718811012200
0.514664454767406   0.607058437688539   0.544469113142412
0.532047763684239   0.588085698377043   0.530435577572865
0.573056119060410   0.579211004096709   0.750334635524876
0.518175928628981   0.385051869236026   0.866914148150463
0.520189324644416   0.599665107818561   0.962127270874587
0.464222020778440   0.481974821240940   0.936796200401213
0.405464776517111   0.614223504953324   0.858111103374043
0.765228050385232   0.530913892064188   0.908613894703970
0.438434752981595   0.497653002364984   0.046587884070817
0.493188700284474   0.367563665462498   0.118791380532496
0.558778192810018   0.716304269970420   0.203627961335464
0.580599840890770   0.575273576556727   0.175147512562103
0.382055960804062   0.420458336147218   0.100981149558234
0.697830964835732   0.506850424863551   0.235332046296426
0.407155844636485   0.515873069053984   0.380274406846992
0.664640063452594   0.575295640680894   0.338599839967372
0.574678019921116   0.536140474670893   0.402939532937332
0.559680219495860   0.626449579334297   0.409460684534649
0.588139540058416   0.510189066488244   0.608230401410181
0.583080316189984   0.707443001793931   0.634664548758313
0.677987204071549   0.521034445442605   0.616041407960864
0.534901067587717   0.563278771622693   0.521002739282603
0.490972162213571   0.528373016853969   0.697302339638321
0.523846351409013   0.511820752590578   0.788730425346933
0.429026001435258   0.584139329289268   0.934320035996580
0.530706932140875   0.496403902994657   0.762864272036561
0.543909531141315   0.371453896845061   0.980997533632309
0.543517151996475   0.555675804099991   0.977942702940403
0.406224220454590   0.512503773985141   0.983885276851845
0.343612085546020   0.650469587738221   0.126101963004070
0.539168002234909   0.573386217985901   0.117153284107455
0.624383257355863   0.472765428052093   0.194236782579377
0.624586510535986   0.698690206960904   0.248146719838655
0.642194826044411   0.656175780555791   0.220261695041531
0.568633345812747   0.600991032799841   0.181654561559059
0.510503220619649   0.564089188472957   0.243465701171699
0.350135548912783   0.519611924953118   0.170337803737809
0.463351869098546   0.620809156415751   0.595114630778988
0.431508861494842   0.781635465654756   0.496541331625935
0.481233747929213   0.506749050290602   0.588659721385066
0.406416037567459   0.817833403231727   0.463565688111538
0.562739958999753   0.702414287057068   0.585484802044057
0.535261469368542   0.556084723876325   0.681377434214874
0.634033899235536   0.714128681750541   0.702138452945371
0.481854911876443   0.667417201744330   0.876243318584311
0.507234204460022   0.604643493749212   0.191532942744951
0.614281432260261   0.649704836062676   0.898227614645196
0.601660743538030   0.414682439495367   0.819658387152872
0.533443408040527   0.559466025348049   0.033539143773562
0.514878315094650   0.759280005186492   0.015934542260130
0.465948297329573   0.713317247126514   0.089152493776652
0.696934095862982   0.642817279702334   0.139436016683854
0.535819658412897   0.639285136723673   0.166151802144085
0.512211188946100   0.771189335208546   0.239492746916728
0.584072979334169   0.534691101957507   0.149559141515311
0.568612546769183   0.481371958828397   0.539602529392196
0.486207512748230   0.611208375079545   0.586192180849975
0.485091870896326   0.554588032425103   0.496555334866155
0.485107294862263   0.733932949267183   0.359835844471387
0.839527883488821   0.639226817638717   0.487141161937366
0.399578353053931   0.620589375178004   0.531793516372999
0.703153705697492   0.721086603962423   0.621835053467699
0.649720494326566   0.738986834947425   0.704164785935687
0.665450034822187   0.645741802579480   0.669706809365954
0.520995012422783   0.740227046481465   0.771563208059127
0.712289443239089   0.579243231653276   0.842939782386302
0.527933016098377   0.694923690539497   0.825531607264154
0.443764824602531   0.465180957432965   0.936113056187588
0.454622705263923   0.667955161262826   0.924272685824315
0.469982117212990   0.845632803955186   0.231363425071797
0.445504429113551   0.680290245695334   0.125821912333710
0.493211213376027   0.642253080794797   0.117196076262853
0.376886482297613   0.032759959729829   0.305074114664794
0.658308989502775   0.688238269542519   0.150674883538201
0.817138080432811   0.862975393394805   0.343226309706097
0.354727738212453   0.566611202897043   0.589843235673137
0.424937085822922   0.447139173818175   0.354570910939021
0.164757929924827   0.853395264777079   0.309597889052942
0.436991159822680   0.611602540445945   0.599467986704059
0.393579825600453   0.738079712200514   0.330648938135707
0.479473209536051   0.689764027538710   0.533195709462578
0.488289601073872   0.688647956379038   0.505701680531453
0.584061083910037   0.767718326396162   0.582639028463595
0.638732316531626   0.767637560683803   0.821268095267633
0.643250624062570   0.663744900263506   0.895973295487321
0.483907067982078   0.715773145529487   0.882244052985789
0.578251686430725   0.582881393100159   0.830777145528280
0.534892519007764   0.769770018741072   0.912517414995610
0.571956305924174   0.676647508005229   0.991096972989193
0.507617364528607   0.616437001497559   0.244103245198432
0.492332961840339   0.941987321734928   0.957842840509579
0.460657046889664   0.760332695579423   0.251676648110607
0.641038509837887   0.845224757297257   0.103731899403573
0.324567605487114   0.772385708158124   0.349712046058339
0.665345317844667   0.615433683599368   0.308114861953310
0.559449041058606   0.882151817854381   0.457261169045314
0.470544416912283   0.757172342658723   0.404598853616643
0.483770266825709   0.791177093538440   0.510497167987321
0.539949490979449   0.832851083946295   0.429740990044024
0.534614834391575   0.927828720809324   0.737462788765348
0.588217799307890   0.895416161951886   0.676877518917851
0.423863939977293   0.749777508834974   0.778891630211515
0.594842015400355   0.757233273691224   0.764440088006494
0.461881155978892   0.738124214785524   0.749604072686115
0.682294814576777   0.701250858254918   0.633348723047137
0.532983007247724   0.848402265408677   0.918667273990508
0.720798417949383   0.705871894548803   0.003006136797294
0.559959894705284   0.707870105496561   0.029408073570777
0.443451916786657   0.805686954333709   0.054952791129996
0.568636083939103   0.581977950668319   0.112210148537201
0.470089878149190   0.737010444550617   0.946347568377859
0.443999089667246   0.607690222619955   0.091677787235341
0.597307062726921   0.951506063882481   0.087880515632305
0.443375313196292   0.847672785136990   0.378935496252158
0.651493375003378   0.624963805827502   0.384025043314409
0.328032383967348   0.745990990354150   0.421951792094936
0.577848973823457   0.831608966743142   0.394221359863310
0.514964218595380   0.909100997840062   0.220435830544268
0.705603014605923   0.813549359798240   0.421956859251159
0.791407079345310   0.685186948307672   0.591282632912235
0.583832878754591   0.992753738326942   0.648827514095928
0.558607639190503   0.772452677851302   0.689985488406783
0.573533236368377   0.746138334441573   0.855002592891443
0.510389212726731   0.834604707978710   0.752957038648777
0.734270027535475   0.884206250131146   0.700417655552218
0.343795855150036   0.815219282226169   0.101997021560409
0.687002054126294   0.773223201659503   0.702315854042543
0.566352968908396   0.776509540892398   0.068394931133599
0.534691905213454   0.883280826542708   0.974188003465956
0.586252940683752   0.882684949301238   0.998054758611430
0.429442981477709   0.848929192954703   0.088658255551912
0.636047200463342   0.686582172768716   0.129753183005555
0.655738173679652   0.893755984235474   0.262803184423148
0.504767210803208   0.861744912763882   0.191301675372234
0.395367349649635   0.848189597999331   0.275477663127282
0.618436625306738   0.864314382718271   0.355082069288623
0.630899964445170   0.847849867578681   0.264344190590902
0.579543096140523   0.861665442505674   0.390402369525812
0.582145380026268   0.903835050718711   0.589289154164639
0.767285466946002   0.731043836370747   0.726159971530470
0.389086789273443   0.797647883435718   0.739005358114934
0.563124655688831   0.748940250054096   0.646280253396948
0.572840092759683   0.701955334202099   0.481957001237897
0.723031336603002   0.862302766815391   0.851343802322291
0.635896852250406   0.002014931818214   0.734793268682980
0.561160694524355   0.758182088883787   0.902993388988908
0.403604229610448   0.892830472980531   0.128508214153992
0.461236728803834   0.827504706422951   0.942965646634050
0.524215607642442   0.880514358036570   0.119676667995031
0.406004480889399   0.900328555522968   0.040653179018421
0.564503928210043   0.877005454677941   0.082241197941549
0.578373366880676   0.121769183042760   0.108763109405857
0.485275099076831   0.842768611333983   0.205083223498947
0.387290978937093   0.049085324903898   0.327307726625365
0.426872425173099   0.968578729996154   0.385651279809273
0.569430965016127   0.120897341496567   0.538309636676564
0.401017937232214   0.747666849823606   0.452456659013607
0.545384818685784   0.934438289240603   0.575077808243838
0.614189568890077   0.072141909670492   0.508217312640405
0.587087577702750   0.722078376094714   0.462648880912121
0.625238950806652   0.931559257436509   0.689982878884615
0.751338993479468   0.983153529676574   0.568121009894337
0.656689171579496   0.815528798342228   0.709862448702728
0.616064743308467   0.084064692083202   0.641662956012618
0.586008773253306   0.770984868708766   0.910090137467876
0.490154865340735   0.827641271600869   0.937073619820966
0.573072341851237   0.855329482203890   0.826580398905322
0.472966996828020   0.939124449819634   0.058366386608357
0.536038434258039   0.918006257856108   0.833737881534022
0.673076856971252   0.047864291149013   0.029936259632653
0.599057213143885   0.024251362712082   0.977843515783330
0.633116367112501   0.905613874195529   0.419894929593855
0.558917080465024   0.876726600606162   0.162758663674067
0.578915857596697   0.014143430063208   0.438696167642329
0.687574468251418   0.047770504902025   0.177387188018214
0.374356790806375   0.041341397522850   0.379323635777805
0.622339895005778   0.094527310499607   0.228309621734213
0.630088185707242   0.911735187379358   0.640356998809689
0.477442528477493   0.955312255379107   0.540669682618610
0.546300598774997   0.892889701811790   0.481252881697743
0.506301686396644   0.970015156941727   0.714903246009295
0.773682356575528   0.873996231771686   0.789009956433371
0.353131638783270   0.101907753540655   0.817410213134912
0.695278037088124   0.971971893041908   0.756060220390071
0.591833029817492   0.911075203113302   0.953671115343723
0.461422884678931   0.988535814003493   0.814249847628534
0.599948191877840   0.921960395343500   0.090436143678680
0.480612154502447   0.011724027098836   0.160598591934292
0.598875497271359   0.111066888274714   0.895172041389180
0.633944248488145   0.900662610474656   0.979001879931314
0.555879125117069   0.991242874876596   0.919334792714482
0.543749341101372   0.983928377680280   0.942258160240718
0.560674631448137   0.055636926762128   0.278108846227952
0.662886156467197   0.027159205059632   0.177204281187892
0.695491486281469   0.075877585079970   0.244059665967270
0.761132481063010   0.047691296609947   0.458229160429342
0.623510279608310   0.942869949404915   0.524979834598217
0.544524268643050   0.981669434133726   0.414199583120542
0.613898824819925   0.892124560209177   0.442240613886440
0.571112977941125   0.119605236194552   0.599658344701115
0.686602952227912   0.813300360632859   0.516737556516836
0.728064443023683   0.925083556798675   0.615168776997277
0.796360733655148   0.048420314052612   0.828068824361645
0.632103729183584   0.960062580040343   0.702264918785673
0.659042263040510   0.039315501599276   0.909239576690969
0.466502987799635   0.981890591870816   0.842966911290976
0.603648298207973   0.896695779294964   0.841324718105992
0.525813144315100   0.843772894394058   0.052887728780356
0.546741727200259   0.210498143191424   0.860149751958876
0.563437089402999   0.054641444441343   0.952833559986513
0.394286273383105   0.051715375021458   0.022037521874885
0.639389840736733   0.137964043281258   0.344534962923036
0.730663255686741   0.016794540969586   0.170871269599267
0.581977734245184   0.195250475279223   0.205114661174056
0.493152932397885   0.147366431338502   0.261550767780143
0.616592032117813   0.132579088451358   0.443663105134709
0.626817987823056   0.046604029116924   0.342050702038144
0.665622926575988   0.988906393282208   0.304789752692531
0.538834981753431   0.967131789892830   0.641844394802134
0.263590537164029   0.082134448024751   0.690336626300395
0.523915995376721   0.954426594154802   0.568569307660621
0.625851316584991   0.858689676520849   0.634723247185417
0.599554297465792   0.080620253828628   0.886108105573110
0.629139100884592   0.994033723384934   0.840711752529364
0.503142997832382   0.049744425187997   0.871573467912794
0.698599899627419   0.961805419876968   0.781829002872058
0.837156997161087   0.110420019536994   0.963558556866526
0.692631516459638   0.081557008155086   0.933827865770693
0.511014735714606   0.293383493639320   0.940317954139291
0.701255846120051   0.233547539014822   0.993840131382249
0.663704723025804   0.076870677185022   0.030723564073325
0.551898613391671   0.049150917491099   0.250271225289065
0.610274505729080   0.121089274437591   0.150274126118500
0.717495879003225   0.213984630180866   0.237892502275246
0.814327974519973   0.153287428924433   0.332236689979873
0.624701416801497   0.021778757740276   0.519856861603263
0.466068400380089   0.196667669364908   0.351423875724138
0.485600714272240   0.117439808981397   0.484077076618337
0.617992537789351   0.967602669461618   0.507466230139453
0.631018353817645   0.051048486043604   0.520341076689219
0.697456005427789   0.037728497690029   0.501068460209917
0.555721587861044   0.077799346474240   0.570692098041085
0.563410682012469   0.116336777358768   0.840261984401762
0.788639668625210   0.022738505944224   0.532232922355986
0.745121358269753   0.252606042379469   0.804447914894381
0.490824139384552   0.116352790962998   0.814665518984267
0.550423007565462   0.056654095655847   0.710657049257685
0.519598535428194   0.071962113486666   0.887626908652086
0.549704704336809   0.196606188637324   0.001160718706968
0.546711207006964   0.254247799741542   0.886351063267611
0.717593768235836   0.183364616851478   0.232485249580756
0.587740347941217   0.227201837377280   0.155837086912297
0.491485033520825   0.284258852926152   0.166911880007588
0.607538459432066   0.238472165643485   0.135224088633019
0.570776814414085   0.121463429077692   0.197052253426466
0.501024550786313   0.043652166147442   0.423749438544727
0.595796197286471   0.160351941291203   0.655234220109461
0.602851848862818   0.055629183598623   0.456835859123061
0.604941435199088   0.158274034253745   0.625761409715256
0.559254126489183   0.069887951949252   0.356688885200561
0.420704238280565   0.204354621246593   0.704774990102034
0.609264235986906   0.228103438290361   0.585821388212596
0.433174004500890   0.229496396776001   0.696587948664507
0.701281565958756   0.315930795829214   0.800651522132845
0.547578270870919   0.094416109488836   0.754681458151520
0.885623309669304   0.024893482504407   0.750419011481349
0.700275885422527   0.990669399931624   0.733371633914904
0.476910287865123   0.148806725445280   0.854293817558705
0.458369049344981   0.161055718855227   0.064202455098092
0.604992299290161   0.005871524592793   0.080041174986961
0.714046620608618   0.037611650263414   0.178491976376670
0.552028301900396   0.106650744428263   0.215840548498133
0.586317871587560   0.207248636389050   0.284352377997589
0.627200285622984   0.988393096534047   0.072381658265151
0.634261707374669   0.241670837669105   0.195656109280998
0.596825328957523   0.311429345776520   0.437904792600222
0.709580780343864   0.099963363015895   0.315907038597063
0.741937762697004   0.938221427362445   0.597058501181147
0.633648962191762   0.126842097403659   0.533253669544686
0.582904129861977   0.232461757901800   0.596808333020381
0.293664971788511   0.207283631093616   0.676801283742338
0.535690398056148   0.104623835173808   0.726761294461305
0.758398303225845   0.212855776485700   0.602822051745985
0.650793233545834   0.083194328152572   0.757100033756099
0.695686085763325   0.225853966587614   0.776897716895151
0.444089576809315   0.202379510293430   0.879189661081765
0.421192012862380   0.231952914187028   0.804921668686536
0.572460260945753   0.303269566310753   0.838445349828257
0.523816790064242   0.373784260592298   0.244131821259296
0.603628702059125   0.220801210739204   0.985004563563578
0.730077984256904   0.065246613318169   0.095295403046546
0.807848647010897   0.387938835247447   0.114139037286544
0.529143136928094   0.229928082910408   0.232557805688637
0.614967315263772   0.066360655841130   0.226136750467516
0.539305332432265   0.308422628527745   0.109587386366677
0.554005527461327   0.349055117842447   0.402227473024145
0.650244956652150   0.199667804829876   0.531339191601999
0.604713868509103   0.333862031195091   0.364045396106116
0.628480621517358   0.145678241277649   0.489883845680068
0.766450854477119   0.245146914616047   0.415808757517349
0.787689628166268   0.356785364406051   0.522939641817566
0.772501218239810   0.165358514452160   0.490093259306667
0.799154595291495   0.149552575523499   0.573275790791676
0.476029352479505   0.413730727858786   0.643873484983618
0.602785495088351   0.328780654827713   0.906510695780559
0.724306485233139   0.373900274375591   0.780830680275635
0.697994863494441   0.311172188404930   0.769554394940764
0.537673710618415   0.224603742259462   0.998754785610754
0.631677567982495   0.204525045185977   0.097913604143602
0.584634568503609   0.306282328462325   0.910528182786515
0.628222808673472   0.227132449505941   0.119336963479145
0.551425749998902   0.380394431363060   0.170566708406541
0.748143787898467   0.184529388683818   0.223980481415421
0.442381992426816   0.470208864754624   0.221204451903187
0.678410043987315   0.291262544764924   0.122520668703683
0.605368058674467   0.279335259294522   0.370947109699874
0.545088303917773   0.502382113349835   0.320354461784055
0.649371691023343   0.287344199059447   0.402577743889778
0.510767050526632   0.320929024721784   0.483242153988424
0.656240671068155   0.337297466861513   0.351467252437816
0.443782028708613   0.163053966924877   0.684392712820176
0.651844744562967   0.345432923865596   0.646587451325128
0.557584776417507   0.464181907678491   0.667071841719795
0.461685919168535   0.151900337622596   0.668349695402657
0.427361490619335   0.094281897560603   0.738184928142494
0.729994640541422   0.282374169255327   0.729242922618900
0.558360062950363   0.408551998431479   0.944185732204502
0.604160060657994   0.394892601004898   0.004930400764545
0.625515152721232   0.147642436266649   0.051043598450192
0.536087104690766   0.252581574471363   0.009676520448872
0.531953251095338   0.395568701649816   0.150969388683050
0.543006675570997   0.323349515258035   0.132891236570007
0.515050443522458   0.200786379290337   0.085481234881047
0.592681845902525   0.447545724399298   0.166518732815229
0.630252428961541   0.350208710858707   0.412866404192426
0.550777514245647   0.244868844035926   0.288214964442706
0.630260542490611   0.426367354696543   0.268518432458413
0.564678381593418   0.368796693619207   0.418206596175354
0.674724636866181   0.251852439939316   0.381078424464972
0.637215892751113   0.347959854269114   0.489521240233905
0.589646051714094   0.177688182522413   0.703082121135706
0.568421420621540   0.173560991229774   0.724679324011279
0.580200022348997   0.514944719518354   0.747701349195749
0.664772894145243   0.522324970793510   0.695143461064058
0.528809323891153   0.464907496510896   0.771736742338082
0.628557076393090   0.279961168591439   0.803584418313161
0.590047428805236   0.291909410606985   0.859386123921681
0.598766322519763   0.232372266161466   0.011758895195521
0.499589580626251   0.437791768359898   0.176878287949519
0.714686109865397   0.422164430432707   0.942079693817196
0.535323802032281   0.174607085920925   0.216647428785135
0.648539476674557   0.487736937602670   0.203671852781081
0.597794655055282   0.472105111668030   0.208467299944408
0.527677140763767   0.400800493768065   0.232327783798450
0.590968344255816   0.527201614562883   0.378845483559038
0.519176964056565   0.308306095378762   0.457728596275640
0.629709408653074   0.334885122321760   0.348516891234032
0.582682591252732   0.337154478673050   0.477813980815890
0.516207562118363   0.493395273948729   0.552329681628274
0.520251455064089   0.263211355549104   0.618430226152587
0.577529818763161   0.425458244989326   0.497225401935139
0.545429294926942   0.318137035882838   0.632950858463126
0.518775914402310   0.413619605473743   0.749917308166797
0.476271726049980   0.399020878243338   0.521107727721779
0.386514555384085   0.310352120656565   0.821449624768106
0.623403995097121   0.419798038764278   0.693500639231049
0.625888146780539   0.379001093639919   0.010221117937003
0.359653815122170   0.415201027906448   0.052399696450776
0.610763395306066   0.475865548912781   0.128967795308490
0.555127341852885   0.471048122695339   0.901338367587024
0.537644306346579   0.417438983374193   0.056715074018861
0.389266844880292   0.448944286386197   0.214108017748231
0.633994463613415   0.566315572310498   0.436980620936869
0.510149356588214   0.487453802376339   0.170121191880376
0.667499143020176   0.441011093804021   0.469759529263010
0.617021081058894   0.176832813686608   0.316861100575370
0.549611254918595   0.514771606282547   0.350195539675756
0.650637028429173   0.435777693445681   0.253908608072476
0.491242697878023   0.337021664463308   0.497380125293179
0.678636638921112   0.359578341645746   0.456194897613779
0.444324795335238   0.571800350773149   0.716316931966109
0.809410935357198   0.375453174392135   0.520382997808478
0.453907805083035   0.377716025856372   0.578885052567243
0.571246213209452   0.559100970236250   0.847901751871645
0.588059686120607   0.229984256579932   0.961347888664756
0.364373157009307   0.272579301541655   0.773029822804298
0.517036917694524   0.312506475226607   0.894027887218015
0.727324804724053   0.394638167352596   0.798103107506115
0.593719747721364   0.656468232490461   0.123773658935271
0.498755959994860   0.323655116270940   0.825192854580444
0.553606901458465   0.630226095562599   0.068258240269894
0.675528900302044   0.452566291135053   0.262786556893861
0.734127185007470   0.447402587350942   0.991433649868689
0.576581200101421   0.320248329084552   0.258714552603030
0.528333703971628   0.612822077707014   0.309351958992447
0.485833145841780   0.554772580652478   0.345686728376322
0.723951406217658   0.341308365765525   0.390468303733867
0.495821874434002   0.336924540258257   0.309597908038956
0.438907548998255   0.446575915438953   0.700242041249934
0.650688814872485   0.576374872262086   0.487756201208652
0.563773962455033   0.455808640894917   0.332458950809385
0.625832903485542   0.475180804213057   0.608382118649313
0.727939282154813   0.492314772865504   0.810956866922823
0.630976649574209   0.525869702208563   0.734613926793249
0.613170059552496   0.462855615155822   0.779647309437449
0.616332879790532   0.434131010262007   0.774910189208215
0.604378438700841   0.712023421943602   0.952048604326748
0.697722778082549   0.587601767154232   0.073993342823986
0.435659031374025   0.558401713660618   0.921796415941826
0.623751520491786   0.531726467857181   0.123918209375969
0.638675976239989   0.354705246742690   0.131810999026458
0.621601707056941   0.439775953382482   0.042345884705026
0.520778049799222   0.590440128181429   0.287467253014046
0.507044006373306   0.574110021380598   0.190567355834138
0.481537832213673   0.772562494184933   0.234137528558373
0.587525350239268   0.586546227713404   0.352527336538293
0.725957714431528   0.610314447871354   0.338741477742543
0.623326771455090   0.566692729282157   0.384123574399215
0.523791953049195   0.545733101650281   0.594937185381116
0.487610986971165   0.465829215469733   0.654549945173215
0.563945153977086   0.712998330428266   0.612781732943100
0.731023391888123   0.474337884477717   0.630704169573386
0.721559065341033   0.671964164784664   0.617479406563586
0.512768452112896   0.663552202005972   0.685328782385734
0.581265855706119   0.537576644446238   0.596111164470965
0.514427150038831   0.541772924505842   0.923816477218799
0.422732380619978   0.586370162150357   0.265596615672136
0.658869937358664   0.661825774594832   0.694411465836006
0.532822509582872   0.662881032526826   0.148479559833073
0.546357004202231   0.699495401082669   0.182219438726162
0.576319580890966   0.716952742075585   0.229165895191824
0.640321082582349   0.602102691677155   0.099253923078776
0.780791973630307   0.620094326104409   0.987965641317576
0.541622111269769   0.594481102818061   0.330139526499407
0.469715898425002   0.511564365908597   0.201088566331193
0.756809971940089   0.505683652219420   0.505730096265975
0.687322555303092   0.438994681086163   0.446413805194500
0.715233919437241   0.648836493477581   0.186389473503891
0.832685492972471   0.778876600616726   0.598358171903832
0.727534528623049   0.444160529873609   0.531254345214287
0.584764168719612   0.460947720701895   0.553443825239728
0.534403769305439   0.407204336066655   0.721731369812179
0.453920191237224   0.674911967041286   0.540682057280726
0.666522215053907   0.535214128089676   0.670223775326331
0.553414734674517   0.758307222170859   0.835077167630026
0.677815036846475   0.729959400054000   0.050684996521548
0.715086267073493   0.599619857478486   0.867511028353985
0.505981336018363   0.733716180275854   0.890288676112007
0.611297363802620   0.695406459745044   0.028044076333525
0.726905814291974   0.548392338053842   0.055694586938555
0.656418273218525   0.613282785555422   0.123353058388351
0.689440729167381   0.434677184029004   0.211336414086852
0.505737668730043   0.622339927921992   0.214447991865518
0.501312629833992   0.653180248526740   0.219638244965974
0.620683993373853   0.769719835785896   0.409248965162108
0.513594369486046   0.791619538927992   0.415850849510736
0.540288895197930   0.642885244237911   0.452390184758928
0.565169597984055   0.635347586494237   0.438920069707287
0.591734472816833   0.732534153228760   0.649071916837061
0.594846784347677   0.709515021692092   0.549557044283903
0.644693754122533   0.606195311328966   0.406979628067035
0.724682634596104   0.537856962529736   0.676984190783615
0.605693983312195   0.523505339227420   0.741122366199309
0.554709160590824   0.773766986355462   0.660988575114775
0.887778558553171   0.736069378174623   0.850803508879186
0.599581656868463   0.629614969080164   0.986832199477509
0.591896790346159   0.805481892449084   0.949038861199351
0.622955917459188   0.550749907552253   0.905267630804305
0.539349597790082   0.715303729076823   0.980353671481976
0.624707353334477   0.650807239370434   0.079426714367196
0.679008760077731   0.685367700759932   0.126342876959624
0.738813082573683   0.724226494077845   0.113103500625683
0.646510177428823   0.638602598148749   0.300166719422368
0.528995936678626   0.730867292561386   0.269641780067619
0.787785646222138   0.687100419211887   0.365977047953386
0.728535151803408   0.545389341680502   0.339990105620945
0.654237406882261   0.665695346050447   0.429276267265937
0.696598398199753   0.719941260215065   0.540190188721509
0.567722747415132   0.598902379279181   0.339310796582180
0.445551466972607   0.774432191322242   0.400469718299657
0.624225112545695   0.804351684961276   0.638425022090621
0.479985505667249   0.731797142947951   0.561047036194130
0.599561950319258   0.739577716098977   0.843296609755490
0.602382723654826   0.809166251868839   0.747330392012914
0.554199936695327   0.445060820601007   0.686250762219230
0.771113993115711   0.901995629943374   0.831820431225341
0.462811579418270   0.677988172065918   0.897825098487717
0.627145475386620   0.747119664717869   0.072188888200474
0.602481481468756   0.788897289025872   0.925326154353637
0.520750502636416   0.726702831847113   0.960872721469325
0.595334689710696   0.662407567543196   0.919370142563286
0.634191916985808   0.765066381425768   0.276515191842940
0.842275518245471   0.691872130321905   0.367426866404700
0.563695210059003   0.717524484459716   0.085019608932825
0.584507786319609   0.880131087393749   0.145824199309108
0.519316731687418   0.798785163135418   0.246376409030137
0.790768254597499   0.883017042885734   0.277926924349854
0.699191244433112   0.775033849686681   0.487289444817493
0.471729287395556   0.656559501987926   0.438096601972582
0.641606256683459   0.733013217670641   0.632513659076896
0.447037767025960   0.648554964439755   0.520949764083990
0.583766411605815   0.769728955907205   0.699853827889787
0.551149100787597   0.668465945420564   0.721632963191244
0.788959679811813   0.546913797769410   0.904206937041818
0.373039067659447   0.593748751359282   0.808665487065313
0.719537901149240   0.774325610110683   0.864356137148355
0.502981046015239   0.852692551210509   0.731290811063957
0.567246217080177   0.823508611885651   0.948376105855375
0.570208367079195   0.913834601268600   0.904907907013180
0.593666104071800   0.854311260869068   0.130463827405908
0.766218442480257   0.082459721996161   0.064403844391285
0.613354558737412   0.882079480887481   0.059716477434061
0.587957621045916   0.922608357577094   0.248758660170519
0.571015403078855   0.818560729637910   0.095618105797710
0.560920454210021   0.724604317448089   0.055936271093417
0.692634548595335   0.964743359605686   0.086169639908239
0.372427711023858   0.808100696819178   0.358172443908589
0.695389640159243   0.641838079196258   0.365596215933632
0.657912896658374   0.858010417579271   0.394017355141189
0.708525042882626   0.794504738002488   0.510181894674453
0.740308982165518   0.792898481454525   0.579188210693523
0.561896398608987   0.901585918054291   0.505184520491821
0.758012494191979   0.680793347126918   0.686783060440817
0.716458925891910   0.884873998330433   0.872475295147040
0.678996737779802   0.886197737563025   0.828529754156015
0.599062787168497   0.650467778898558   0.946865631307943
0.771666837606174   0.755081793979234   0.777731221902674
0.426776316815484   0.788507916945746   0.853535115337406
0.630485687307357   0.796063854479462   0.920060056345736
0.560704439315621   0.734036444773714   0.880807512087043
0.498789320626609   0.802692603045711   0.173466786839475
0.500225908576575   0.748543217660027   0.181795370489235
0.782393348075009   0.948471502882268   0.125735939231536
0.538181344278715   0.925709173222941   0.226679906579644
0.510051785381867   0.850969244735394   0.259093618923468
0.484452115330681   0.864924008070920   0.252255261658953
0.680187092732995   0.860787488276667   0.375535518808885
0.445161632962887   0.906025049670625   0.453058825767294
0.442675283910533   0.786427777978382   0.744095978941764
0.566178064923535   0.974185349803486   0.631356292749435
0.659320335881421   0.061979767513595   0.522598615031272
0.557517333820124   0.934039825374248   0.833192229815811
0.511106545520803   0.888597277214209   0.694689583519169
0.624640228334158   0.025419447410897   0.718399351751804
0.616540911915446   0.874840303266575   0.783766361071361
0.695441436908656   0.876152383693874   0.889352334413579
0.710715642274345   0.725174880068535   0.769351921757118
0.451390522486482   0.715127480687524   0.950432512692116
0.570152958096218   0.843011803071265   0.971975263679086
0.436300507422245   0.119798607858283   0.046843388567296
0.533389166857741   0.870434203577319   0.147341182473149
0.306143140693349   0.112008039389829   0.023114417247075
0.838528895223952   0.977768613906386   0.016655218912555
0.501329463838152   0.773074647662532   0.173140247647717
0.374481331128650   0.814359980649999   0.304783088601561
0.551667522841621   0.859600367264694   0.436798553499329
0.635225621669848   0.025035961688088   0.446393947933249
0.441611286416843   0.893509973921078   0.403305501017558
0.635602763876835   0.683603303232227   0.614641423577599
0.763444277942528   0.800631840653063   0.532243176913188
0.557370732158606   0.856650383317089   0.658666123590318
0.514138288638093   0.879559637824063   0.723692061822882
0.632697323547980   0.871462819835275   0.382838141077590
0.698066601301911   0.951369735424080   0.879535113718916
0.526540758222291   0.788797560612935   0.775453106940388
0.680066333286606   0.854441514394014   0.895173446354228
0.797839917179214   0.889716925087826   0.932930981228799
0.587747105663006   0.056280979392295   0.907886709266171
0.586602805551079   0.070903613914306   0.278410061452116
0.588178668165451   0.936007194359762   0.147941750393487
0.637787841995349   0.907949520452608   0.244665380996047
0.633814354113727   0.858771597956029   0.013506446139848
0.648007265711408   0.877178730518689   0.991233556265484
0.564240976393093   0.914885089063608   0.231924179109492
0.522579043953488   0.884831131611477   0.202328056240981
0.686565657337694   0.016662282329215   0.453904880530174
0.640187574553051   0.877356270402290   0.550773961299547
0.677212959324181   0.916634399565009   0.504410686417238
0.533988361792427   0.797044781901501   0.494905287799980
0.630605935076303   0.938318202963973   0.625961819752030
0.622087396782859   0.886155660993993   0.626021895719938
0.760217885751552   0.146737987350895   0.717142334164701
0.668985869742514   0.078375192433737   0.738765925490396
0.693124014513805   0.023830767617230   0.698064723036810
0.570965166958146   0.935676399293822   0.698578404416737
0.522047347569837   0.099073910114018   0.880778216667198
0.406560380517234   0.905999042010175   0.843853819737209
0.699394269706841   0.762905228521258   0.967300651737129
0.720640153660528   0.092803649220721   0.101970418357372
0.704081149852426   0.955590739946069   0.019427792653779
0.716317731100944   0.958279369465107   0.162615585915200
0.639375035159693   0.946709640112371   0.160909166841524
0.579017237256774   0.054398749569882   0.132543310055212
0.607644850232665   0.972521636460076   0.308358992561574
0.495733445188483   0.149318488696062   0.286981154093575
0.540256249848526   0.242930673742499   0.162250268422392
0.704995831850928   0.934694445791703   0.433502412677039
0.690915169451567   0.011305598875746   0.485494087237186
0.856207196289117   0.042378655663108   0.471529998288313
0.532546203090373   0.059390562956918   0.571542922512634
0.566711686326468   0.890165226181986   0.566973003671855
0.846034187318025   0.229009149284166   0.748014915876900
0.603541840048647   0.978937766449972   0.663886060269131
0.403820500926341   0.097175850648560   0.721643257830032
0.407033247701577   0.910313400445523   0.817583490047898
0.480995538012713   0.936249124256700   0.729477184718917
0.647225332533345   0.877111728275785   0.785725764142658
0.656390548312379   0.034126447583515   0.125568242730022
0.488188294016003   0.982035340141656   0.026971208527804
0.414505661777004   0.028862389495293   0.896862262861312
0.844579583119258   0.186158065703955   0.983941357318551
0.742689510218857   0.044575702115416   0.248345113138814
0.550333269781043   0.056385375577424   0.224788277250217
0.768327256587588   0.179743837311710   0.280939768526229
0.757018031679649   0.988795802824599   0.503799248159971
0.610101635936221   0.999220072904354   0.323915689555124
0.756466809180561   0.177142246193678   0.443746844004929
0.619831345989704   0.060487639575361   0.388779356434241
0.604944406050591   0.022278503935586   0.451088404479114
0.695630831476597   0.204056904559815   0.551319619346430
0.721327311740376   0.104265308140981   0.720823789815643
0.562070854711218   0.880863363695768   0.676249235846913
0.687275078803574   0.061730849968736   0.661877763992265
0.682621355604738   0.182558458022023   0.712642347142736
0.816052922118799   0.085086274197610   0.892757052031720
0.725496093374438   0.147005898327450   0.868307907230641
0.732721821728719   0.139222462665322   0.896666483302435
0.696202842059191   0.988137431372049   0.951931654698653
0.681692856769254   0.039659825320429   0.001525611290669
0.481561729818403   0.963875188676720   0.045794687426129
0.745608594693528   0.889448950364787   0.949833731777621
0.710270740618731   0.959045630644720   0.190705817460097
0.630261686282268   0.260653105973145   0.315086534790124
0.760156875501252   0.153670751510648   0.261302413838508
0.431390997017333   0.193819284052491   0.187400653640057
0.775723938759805   0.298673489207981   0.371433480753215
0.666985941806303   0.098904208162111   0.430706298071384
0.585547186625188   0.061752324063033   0.430996157549524
0.618723484870612   0.231794398155372   0.406787278648049
0.592663769713408   0.064017955085168   0.486404310508805
0.770537418973473   0.194611156940697   0.720916814956343
0.537854194693034   0.897549901917426   0.683055548938644
0.706719683002327   0.085232187179355   0.703147093385710
0.782887363161711   0.047657285951643   0.652882793817843
0.574049587502234   0.138691208009293   0.857975332277247
0.693288893314157   0.282347061696004   0.763691659328410
0.531362150325534   0.234748945541308   0.870051624961996
0.731454863032590   0.171228164677698   0.851420450971001
0.717697314630029   0.058064034875048   0.973992580422234
0.652507167697284   0.281653445258819   0.129934714193673
0.707023930656134   0.171913111538405   0.068504376856032
0.767587907528795   0.012530222414284   0.096526386378168
0.657479133933184   0.013467934809726   0.202093052842590
0.654866899720884   0.073090002259286   0.437856323415635
0.646371715376290   0.250557737157553   0.366831834173222
0.442211185825893   0.179963501797695   0.357499971944478
0.765990933418816   0.208335151748032   0.269741378588331
0.574975713225578   0.387490666880131   0.465738053084524
0.689372851424110   0.025104640337979   0.548571581547736
0.431265227431314   0.168109461151530   0.384769404766349
0.663239655435557   0.181863108797590   0.691788246313496
0.658558273788887   0.068770647955450   0.658951276646505
0.787640726943705   0.117620649094386   0.764292733331504
0.519040785308087   0.130621133098021   0.812557554571302
0.534844028424863   0.127640038857126   0.787192056125589
0.738028698529846   0.039068070232962   0.822554150908611
0.691031111770498   0.206938206638393   0.904447316857508
0.727231371088049   0.085984193440753   0.812774385400765
0.635781207595923   0.194625366499729   0.956673472911613
0.639996335402612   0.119671050006407   0.054133448001389
0.803099565469633   0.168792521570146   0.125347968892370
0.630832876912295   0.289467916840123   0.146461779198312
0.696708894296522   0.203717948112382   0.299216323854350
0.575591419912639   0.148440399380252   0.186254498553955
0.566874062143875   0.295146533016190   0.349992823893041
0.653195402599689   0.115653362465873   0.384786452097505
0.782387765893850   0.097967154457837   0.636362003901838
0.741328663686124   0.078260863642290   0.661778389084608
0.530542166795083   0.213174946859056   0.668654941990493
0.589337339473024   0.099095008057110   0.537008978681143
0.691310092188350   0.122845728960088   0.483831150776957
0.750937129589424   0.227534993406469   0.787484073680672
0.670849963675419   0.187292181990439   0.634504602136823
0.627196928815001   0.086217211176253   0.770821740919568
0.712871955537349   0.079352984601315   0.673865514345212
0.780645866061805   0.065266972062762   0.807523263138920
0.525070344608285   0.206990622080123   0.759475656667982
0.637509697415804   0.039883287110597   0.931637187732274
0.813336531146047   0.145257510835517   0.907075122557215
0.619028168738773   0.170955097984439   0.031905672974437
0.617990720463201   0.257391982413068   0.266170805479183
0.588323068049215   0.264049294944249   0.131307889903036
0.565063285954341   0.388506157559518   0.196023374105991
0.662300826559160   0.239660079142510   0.281283902690174
0.698235941884039   0.369267064286705   0.352574027366220
0.612181787753840   0.393064314077376   0.437418900416349
0.818332267650618   0.324182704204973   0.460421013491082
0.607093293085266   0.259914788376473   0.413899667383569
0.670258035116244   0.427956199853014   0.385785726104193
0.699789548318174   0.186322293690249   0.810170873360951
0.528068335030392   0.279704543304953   0.817176938307632
0.600778452591555   0.409819762158875   0.618152064168724
0.688121294859550   0.207142287346087   0.830664760981811
0.378991654547002   0.274229789157000   0.857300889986778
0.566749815801790   0.166787939573667   0.850052909466817
0.784484730624712   0.289544393688585   0.952511304039549
0.561610728638299   0.309542883021348   0.932309969801283
0.629025593266709   0.979990580122184   0.011470320332194
0.823408581946341   0.280900568012746   0.989813628129126
0.748697143715937   0.212382055119064   0.239650111440293
0.700289990054450   0.373286199985269   0.912133416530606
0.549863777045367   0.252566159689567   0.237317550918075
0.568458134049643   0.248042413794365   0.261475095856383
0.791471309398979   0.225142491330317   0.266876188644057
0.747974377598337   0.447303107030554   0.225745332690090
0.616398124806217   0.413325951833870   0.460729660685010
0.630356840771441   0.224545634044714   0.379221788469194
0.920126154974859   0.353484910547392   0.395511662042788
0.735526756738567   0.241475184918022   0.419301804402022
0.627962540480123   0.308723200077840   0.472561835418838
0.696033570337683   0.376877025362107   0.645119167920268
0.781154509245735   0.341085198409104   0.837136034210379
0.779387611848557   0.294208611742282   0.713652936813861
0.685483605461953   0.303786439131056   0.641945657763421
0.724968902984624   0.301046377930357   0.808504397063859
0.751344606841324   0.219837399597190   0.908790447759176
0.708351087975800   0.501727730030904   0.925660196396279
0.521023670662042   0.354575269742010   0.981514294965644
0.587694291978847   0.264783326327267   0.044602947130991
0.541587070186114   0.263294468085461   0.088245115875689
0.556746874665577   0.438196536725728   0.210064609770013
0.600974752623728   0.290515456998830   0.137878967123181
0.518951338473369   0.330643653116453   0.220146960448421
0.614916548900758   0.235079310840177   0.244584863419562
0.857771494556256   0.209843658073120   0.145049384923327
0.554061238381232   0.538547995269980   0.047929411993181
0.637789679861201   0.254452998787160   0.287201269503487
0.605050793967803   0.274050978077687   0.318589517688872
0.653612936801825   0.325252166275579   0.475771520261326
0.710331519711137   0.293791211802080   0.630914791976219
0.803170918076829   0.277609981452925   0.668134919281837
0.744419674083091   0.481847977227667   0.569204138796887
0.731024208138840   0.416217587363757   0.814140389037802
0.695553797379490   0.395028733767947   0.710199401934207
0.595250127345506   0.243663763252405   0.862523695663285
0.606197164768573   0.424402284241745   0.896601698803016
0.642647551404317   0.475248992645367   0.945625819268781
0.614132017483504   0.365987043660630   0.133576642439829
0.760677790632418   0.205296587238491   0.805868916795318
0.578162845899565   0.466333236240027   0.035111007488215
0.798728638777481   0.497528781407696   0.001756816207837
0.760740863272814   0.412803803128537   0.964343782549604
0.489101318684104   0.506207681576969   0.154658313010050
0.558656153872205   0.625716536973782   0.179094006009143
0.634905816299848   0.517760917928108   0.361447153740009
0.641764789292636   0.486565708543833   0.318593616558373
0.629759937037470   0.560120264716975   0.504899392750320
0.865855409737158   0.361433379868077   0.572293734990272
0.651090845891128   0.174605318746749   0.453135738110645
0.533597009678387   0.341166028624134   0.639028678191640
0.677078480862472   0.374813689227897   0.482736408762414
0.497555879540477   0.271949469768251   0.718701623864089
0.785286018156870   0.339471624600381   0.808187311641417
0.619335945855130   0.388416353411712   0.624728051594042
0.621115956669986   0.117136622279000   0.687609272709346
0.712487781536120   0.322433995369284   0.895468552300947
0.725213849458677   0.443650934584688   0.819991245733965
0.479702693290206   0.272675445902997   0.143358614544431
0.559264036079433   0.261729514083515   0.210167918368847
0.919076885245170   0.333178316475309   0.072790621651127
0.523377615704430   0.563249090110535   0.300401593293952
0.550810375713793   0.409149538361478   0.214577571412142
0.791616772198944   0.447554510200498   0.334106377805605
0.588114456209166   0.298314615474875   0.269223617324917
0.707172173327200   0.420860856090441   0.290175641686509
0.687121658893141   0.490376223412413   0.433173300669407
0.720947777745575   0.575270397948198   0.402386128596673
0.701109075759828   0.411011538185966   0.433771630138676
0.664394149195254   0.522246056755736   0.406853265595032
0.659694413455897   0.437430995499110   0.541664159492387
0.634658961224777   0.375889380866127   0.426921415053541
0.630181977695071   0.529608642038990   0.504864099859558
0.556917811398202   0.506074317368595   0.755089727071289
0.671072449126862   0.440401007911676   0.693634421015473
0.765388124072679   0.469466789823747   0.843399969616563
0.798037861957859   0.624302668603376   0.915648797296599
0.581212573174994   0.515060060011105   0.820136098474200
0.574296718031278   0.568555280642009   0.803653725703064
0.419428988408731   0.176974230187889   0.111292726823793
0.641595520217142   0.563272709012195   0.974880172364977
0.729561994546929   0.632751556444586   0.976750659712861
0.655827079079743   0.681144198049517   0.106011219766802
0.748615739779544   0.425263580740209   0.131641267435182
0.791471546089215   0.459617116565750   0.195526799546731
0.539131289938811   0.575018920754829   0.401131220566699
0.457586113676435   0.462633421571223   0.283940189520675
0.692152267072608   0.646970883576681   0.284965185357432
0.647377615945419   0.583902534171933   0.457814081859162
0.619916641604037   0.537613306988942   0.436498899347440
0.704237971338960   0.476836855237826   0.493455163462883
0.772871468951842   0.577428873765535   0.536246342135798
0.753339221074252   0.529890666178720   0.458495118625215
0.378051291637842   0.506473244166017   0.521046959819133
0.811807231150059   0.553995153068145   0.435004145219730
0.552832486470376   0.444293975796562   0.911133665764007
0.736249567408660   0.248895651626191   0.863212333163673
0.617663148677865   0.622824049613017   0.889248590613109
0.569060513117266   0.543692792331855   0.982440377887755
0.638469341155932   0.547802790685569   0.105345630021867
0.610352351870693   0.546331194827822   0.147590247546492
0.769764170254698   0.491416659215410   0.009264426269162
0.751075168679430   0.651431398409876   0.059626334370311
0.804131967252323   0.436492456533811   0.308835541516924
0.706104221519976   0.679424800757620   0.249365917285556
0.638308336620201   0.639539877356496   0.244601328512951
0.668689676388582   0.665345900729915   0.297638524900716
0.755548326331102   0.548158065832144   0.436206850149000
0.671116257311205   0.502800244998669   0.246915116086281
0.568856675287701   0.603100071409620   0.596680565583330
0.673214883635987   0.576959328960128   0.509750817223009
0.700452182714361   0.542947003539149   0.604440379511173
0.656611621950407   0.537040760851975   0.597882335978792
0.555374671358275   0.550991221780325   0.597234820075512
0.414685364195863   0.551672280391999   0.902281856465003
0.579339622451413   0.688594273394113   0.916683735476103
0.577073598127600   0.690072855293368   0.837820319694410
0.609148160006813   0.604151475265225   0.062673814099447
0.512863577883711   0.539155944356498   0.789951006663310
0.697065248210617   0.774853864334553   0.019057832215592
0.773261886502816   0.652050767012883   0.876823288577891
0.609980683962329   0.572472470066694   0.163533318999240
0.815701971179748   0.416735126515695   0.069960060087118
0.727338272133889   0.441418889482193   0.245220435010380
0.695271093716304   0.481312052992830   0.222483379350627
0.656888566124186   0.682433857433256   0.180090987560099
0.602336090498923   0.766920192517357   0.435131073053044
0.704415888687357   0.474965276505013   0.616366376798296
0.819221119575831   0.556461170855218   0.404176940081367
0.680421204811414   0.642901359925514   0.392848297648121
0.752464328023896   0.516476487519930   0.481054946171481
0.527369951702336   0.423265772303440   0.516404794975371
0.767896298558651   0.745207964807091   0.701550648056616
0.592996107657316   0.381464381978250   0.666746482614294
0.674558109821580   0.608173272785492   0.847967730380399
0.577181060091198   0.545820170662613   0.874512914267995
0.611850679103171   0.483387561590863   0.795883549630605
0.621276131990286   0.577427152420829   0.893580943787408
0.754400806939823   0.617789311953297   0.935653484948009
0.697506055450020   0.543023984086138   0.759511483276697
0.526892532842890   0.624921781839336   0.079179316054940
0.660310655095055   0.681380233376747   0.050918530613399
0.759194608853766   0.564947699647507   0.271057109369437
0.782634253025693   0.507993972269284   0.154602641797426
0.634882566848890   0.461882908651312   0.142711534897565
0.739337990179662   0.549662393518453   0.286697171841595
0.721487014037942   0.612399225138299   0.309784665021993
0.666840399290923   0.694573825365607   0.283632120345400
0.776480371184028   0.650725755403476   0.552055614294798
0.549961188746451   0.821700461901927   0.403072228299835
0.697766308521582   0.622616372868925   0.410356372957651
0.643457557939046   0.404284894497465   0.500966939882660
0.609321041637253   0.682360943869889   0.690961907471540
0.644079538762381   0.461318106409787   0.630595677159819
0.809041711158835   0.621583170686230   0.423787674267683
0.586841100424248   0.620110012892021   0.606207019690288
0.703036691897799   0.635430551774809   0.804680651784594
0.407187409659538   0.578485128374394   0.889684330185806
0.440929518555394   0.688636727819136   0.944733290962358
0.691704644598481   0.652236898788894   0.918157115570986
0.589176176936009   0.655918954784279   0.975104409849518
0.696374178542456   0.633108072541323   0.092913593647427
0.727860151046791   0.614248267744893   0.950936445808552
0.731041845880325   0.713924679726446   0.084167891485744
0.843383718980752   0.820564115996381   0.222761581416075
0.632415522171291   0.818735386234183   0.267608525620364
0.721564627887092   0.676708963032114   0.224161639633839
0.722833861820586   0.783216254613510   0.281991034677908
0.712521766968313   0.759086543878117   0.295680944486778
0.719389661811320   0.670301618202467   0.547642914418142
0.431675771782181   0.711267509194174   0.473771904812043
0.592398151163006   0.790275668599297   0.451447107244589
0.825179428197801   0.846180561695854   0.550464149630085
0.754643500369616   0.660997602400220   0.730943508345204
0.636720608259781   0.601858032783730   0.886103397041599
0.746633712422067   0.649310117331979   0.783144729434049
0.557421798373750   0.672298796846405   0.791361654857859
0.672035782007279   0.913474610568605   0.839398276864829
0.552876001563572   0.794773358474746   0.001547547446636
0.604557472749935   0.899078172249162   0.976344616375863
0.674216303603542   0.747873666683969   0.965443749937154
0.662285945867324   0.651724654445036   0.914509121715218
0.688962576433831   0.728692302034357   0.257321742823560
0.667970837179594   0.727055790389081   0.210595730858722
0.645637659100362   0.503250888589339   0.229836945314431
0.756926695514131   0.826615450357106   0.276751922124797
0.733473031120850   0.568370495466121   0.429497433235299
0.528148369466086   0.642961831485629   0.317228380800130
0.793040582380681   0.818569326484324   0.400885805238144
0.567748510868761   0.700539152542656   0.559454111715883
0.593136676974854   0.845470996161168   0.490618340733318
0.648216225773464   0.628259957824761   0.351149247248466
0.719517263646517   0.864030298125939   0.708475406452447
0.474344907723715   0.688744664389791   0.745357924454319
0.555791832275488   0.850459588805881   0.630862909528198
0.492618131910824   0.695595615246291   0.721726684485796
0.595462664891799   0.712240630406470   0.827531024415067
0.704797382935724   0.796336293394909   0.751098554680955
0.528744362614427   0.566568695087732   0.928016396615679
0.577038390183811   0.908063056476510   0.016215701861386
0.627417438039166   0.012787378775721   0.973301343947464
0.676489420394353   0.826429163030316   0.009901034665117
0.661240224991455   0.850931801339380   0.085651674228739
0.644471500714175   0.946913738346540   0.281098320730458
0.649817664388032   0.021125510916606   0.150953521438152
0.697988696327856   0.824680803402843   0.578247234298084
0.556611133250809   0.884923223986833   0.317660015174655
0.664222044104368   0.958862181680553   0.299418383564798
0.746618076160472   0.759636402774817   0.506981650100115
0.776701382674762   0.666526407020456   0.471853469340184
0.787039571907031   0.810946398880045   0.429609640578969
0.767536664909865   0.729300101605472   0.591081315765896
0.483179356055291   0.894077893547766   0.686580701173257
0.883834087007646   0.795726876078333   0.834308082168539
0.713656712095967   0.788869553378156   0.704332668711095
0.704503575449352   0.867607963878367   0.829042281608193
0.576884599374941   0.686826103061312   0.865946675717489
0.570432490956198   0.852435294686214   0.797469852209025
0.649211145959813   0.586672492366944   0.959368003903297
0.514558807964087   0.732080076361256   0.026096718200565
0.848725228601713   0.964349409163312   0.964939008860337
0.552931083277063   0.077208709163152   0.204145575140834
0.620863369499935   0.848634288654381   0.121206269475037
0.570516831714799   0.988025634259040   0.427956378547731
0.594073947015583   0.924511226126232   0.035961596111276
0.589974566845422   0.934954664914089   0.379114806498531
0.685504064419538   0.926167838975103   0.410887597414660
0.615091538233340   0.778919752878077   0.627925906040153
0.630041857681737   0.859855526350224   0.525464684660868
0.618398619292249   0.699377081564407   0.563702213397580
0.662110876998323   0.910702991265740   0.424715373110554
0.608119140245912   0.060135986459457   0.655427274120527
0.596300966559129   0.921165934237891   0.689312398342433
0.798656844635601   0.640576440123228   0.594779789214194
0.554262162924310   0.892567904986343   0.896978615484739
0.573830725245724   0.702039251033390   0.889955657204572
0.901979134764344   0.810228706060634   0.790547568323706
0.452983656716925   0.789213744885470   0.868293526379695
0.758574343984589   0.856647262218339   0.774764747901541
0.566218343435031   0.950247550761468   0.136372447573454
0.632184652811837   0.078345239728012   0.890316262790577
0.791002217837669   0.996181849596229   0.040165229172525
0.609195889001697   0.954550721952993   0.160834206049472
0.674256105098863   0.870162369876028   0.297456754910731
0.683118255484923   0.083482471191258   0.218355480234117
0.437696071143526   0.902570885360431   0.174259284376931
0.772186619129133   0.128741538532549   0.274321364235727
0.624699442444328   0.898760791169953   0.391068681583108
0.755115439539298   0.917529995910217   0.512511354147691
0.663398071719063   0.174143141819609   0.522290191450400
0.599349534762518   0.817325676057072   0.442332335320834
0.498431243625100   0.951189314049239   0.396236136699676
0.803909616903304   0.945969974679353   0.565512901129540
0.618317546685894   0.748539551748908   0.637223390925930
0.648030343688317   0.938590067206349   0.544847538157482
0.570473577381988   0.821963141016170   0.040580887449003
0.660203075701699   0.786643040467995   0.706109360929928
0.453432338518400   0.898274447437905   0.791020739878093
0.760322950608124   0.039331331178978   0.013560664711433
0.772203203423523   0.902371867819593   0.941459621142602
0.694191493777049   0.805174096216267   0.024861989350260
0.656163290786659   0.920707522965046   0.084407292888837
0.665136524890635   0.867266470676840   0.061542886429566
0.596092637994294   0.042495649196228   0.116423837224415
0.660692278293954   0.944929840771347   0.180622032493797
0.730855585613434   0.988562882794263   0.518466123408893
0.483180002463436   0.882146527879440   0.377451996611729
0.330820818496493   0.981753901384989   0.452739099179327
0.502380680318944   0.916904063084320   0.499420277992245
0.541920756689535   0.127078966393415   0.531941904730982
0.672001523318167   0.041650230328270   0.707990552170682
0.679631071448056   0.842375931403369   0.532645652989082
0.516632082881326   0.811076032332177   0.764382032994315
0.845466364784955   0.793210370460615   0.871020103653721
0.714573103893624   0.134549619548760   0.822138559716049
0.648247850274928   0.975765566292901   0.723127641374897
0.631443928073299   0.008992388624849   0.789341840399071
0.728086002374662   0.912116904508491   0.863711743389625
0.599021476366838   0.026264179563738   0.193743992143694
0.055897849648727   0.207587321144202   0.038021750154345
0.675837672932184   0.914395376989168   0.958164877062602
0.833487219451044   0.006362831972715   0.108682742240796
0.732193370800595   0.878259311398352   0.164417448736823
0.670708135575377   0.108801415444196   0.098980442202182
0.598134850187433   0.906515964223493   0.139521551209101
0.607099153999968   0.086783014054107   0.273375592816935
0.771091085525875   0.050577604572598   0.487677297443371
0.857399973392393   0.868756756607928   0.405131508353385
0.869491448730685   0.118793832694524   0.645237279914341
0.757688170480103   0.135445390726594   0.580704659506743
0.572113243877950   0.075408825427186   0.545645982325527
0.547941645020573   0.041558785047108   0.403660754657128
0.748432498959721   0.058849784184383   0.506365450572409
0.624069536183437   0.831649927644378   0.635558543206941
0.730357505995311   0.997481931202542   0.671103450101170
0.711264611934118   0.126614592492493   0.851622668898234
0.698471165495378   0.950656487270678   0.806092122706423
0.706357002770501   0.069246858363866   0.862343520498489
0.646226392915186   0.955072912969766   0.979732077816692
0.700600956378491   0.117611058656657   0.058153695573803
0.684131272211192   0.264373384935176   0.961310910237849
0.766681618920741   0.991684484185559   0.163149226237032
0.549985317739905   0.113819467369568   0.298369891480744
0.806255592690526   0.055236870766476   0.086430834302205
0.602912416004960   0.859338876395210   0.254473517937714
0.424184862098128   0.939219837527446   0.312897158348453
0.770121951120911   0.955603022321972   0.240206414312447
0.683080070748189   0.089158702502984   0.269063700237227
0.750958267621426   0.837105670017365   0.204289561485957
0.749779717109815   0.160859775886277   0.467778996867513
0.728735336825231   0.128138775000082   0.579684931234136
0.776689838511947   0.957674696862689   0.716137893852605
0.472927039926003   0.132820262419493   0.463300586395859
0.697905065252944   0.235972586497828   0.824160192613082
0.728983080152064   0.028281921771504   0.849008421322192
0.600669167068631   0.039213331924748   0.728853627055946
0.746588412648837   0.095467158461509   0.992482279073957
0.795267905747384   0.067044410869102   0.781115196245569
0.571077747793944   0.045190349093490   0.862965228079858
0.743577722634107   0.153374236509071   0.175506942280965
0.728421851586493   0.106386394221053   0.013184184222837
0.682406928980530   0.073390693738864   0.190887742080620
0.762735965266145   0.105074336466761   0.134522121263048
0.557898160937573   0.173225514611569   0.194116254931436
0.640815156038432   0.191632503683761   0.215174898841776
0.798728826733539   0.269666313157542   0.243554741358983
0.692739070936504   0.128117320283739   0.354982069952056
0.642678112852939   0.039026105333061   0.388510122096147
0.634645161537942   0.277663593398358   0.376369854981916
0.704565776348224   0.987506636424403   0.501082368520066
0.684123251031027   0.069221610018558   0.716425548843547
0.859131337343326   0.160324904768668   0.760229076558232
0.681523158345709   0.042211085699273   0.527184235305758
0.764349773681494   0.131780193321109   0.777077575626378
0.828788023309047   0.147204174691790   0.723878181719666
0.763974853464128   0.321227395953148   0.852328851585260
0.548024887068843   0.866954546114119   0.784746997140818
0.576440679138354   0.030798116077606   0.888200583727194
0.645103740962484   0.094570642430209   0.041846056364851
0.841788266199745   0.063176347212459   0.987299428409465
0.724067729268923   0.205497204204043   0.033729531937285
0.634559845281596   0.102540674739434   0.198521969853483
0.710972552187766   0.210518054355125   0.008197339071885
0.565824186472034   0.221370842658721   0.303023013364231
0.733740778351277   0.145617397127478   0.335056663676653
0.761595589228385   0.345818640575294   0.239366483593910
0.779259472313169   0.167825604325327   0.713510003770613
0.691541188988437   0.140110935822730   0.404303943858737
0.669108368681202   0.216326607234328   0.547461488285969
0.640128387166597   0.175295645580309   0.593426371194986
0.793995462736517   0.121133621522916   0.518242881635317
0.772006061070838   0.195607477544152   0.432749657297285
0.609593529091703   0.954749744359125   0.613706628184547
0.642504925058253   0.037130684054755   0.696542219794631
0.608406541588603   0.171608267920961   0.680422935558241
0.699015348704006   0.186274189492233   0.733232588785444
0.727781917360988   0.354090287517166   0.760472500464858
0.760118554361632   0.141200669411525   0.905191982085674
0.640303881429598   0.098514530326107   0.910633512973946
0.552424032611554   0.038038304056195   0.000321331144543
0.716803530985393   0.130197276165150   0.135762014942070
0.586636124646325   0.214649381987179   0.037236190528374
0.592098784134600   0.004051357777455   0.179239447526773
0.694850610842607   0.011423264987528   0.062900951592173
0.727578558692501   0.145221637957886   0.155584835352911
0.852847745875510   0.219290554577738   0.460875279194483
0.698482851739951   0.149894203240105   0.376464759738017
0.760726148077673   0.177525076146912   0.310410395528806
0.611058388307775   0.331683759716857   0.484837183804684
0.708339487449186   0.161097034705797   0.249589988115084
0.756119163427198   0.289182462527016   0.545858389413691
0.774228676797647   0.160220409638151   0.588728284101303
0.734857202683693   0.312163381102032   0.632821751457299
0.858652064698935   0.102179473498621   0.670018844508630
0.624275326959215   0.210050884216421   0.934808946956704
0.869989396969178   0.387718741347047   0.905549682811513
0.916691458590164   0.085823383721405   0.833471026776369
0.583753447301657   0.135115788442796   0.886996914730316
0.785957700660612   0.144856195357744   0.902847599605307
0.578446413988558   0.020290917744034   0.999986657276884
0.643381384439547   0.213482962894339   0.194430510382990
0.567086045089373   0.325505524092923   0.155629622727441
0.586827003830371   0.305449766126902   0.162343807029297
0.648567141798822   0.120889009106195   0.082964188314041
0.805940176976259   0.299967631170586   0.237915857182217
0.504603964605483   0.313156340081675   0.207122574144393
0.747927979086881   0.304840074742812   0.216043416168961
0.662855920945528   0.202793643964312   0.351762476519735
0.589081399031142   0.275558783568325   0.395151710419492
0.573194105510985   0.316900317868356   0.456770359483775
0.678154660756990   0.328312293395674   0.458437293554764
0.715158916822156   0.350119415304352   0.686628507956905
0.842523620974546   0.428331507012937   0.744130999699656
0.590492421309615   0.299142476171114   0.632886763788888
0.746076467800373   0.283148093025111   0.798338869501250
0.712994727153689   0.237496472588350   0.754801253572182
0.849976188417076   0.274834764920821   0.003700659730019
0.599320894120373   0.355937158267135   0.909013651560725
0.581253927006387   0.252792666987412   0.888000243305805
0.799802396126157   0.359869043188794   0.923837100249289
0.762459685401006   0.268663728978685   0.957571386917386
0.830715785276705   0.282721520811590   0.146024443112780
0.701995900487155   0.308507615744181   0.990770822799769
0.733400781940072   0.109350952805411   0.123525275459836
0.680289574347904   0.439510843108913   0.159127702171600
0.821167834470262   0.176032530901173   0.313251933118554
0.773932729675085   0.392722496323612   0.267267148647586
0.715755000777497   0.304455557526953   0.425506874726089
0.704776463464409   0.295548318395711   0.393395974541176
0.786954364389188   0.326338062914710   0.530332878003173
0.578939630165129   0.173204824311844   0.535233596497287
0.632248071713760   0.219502226146239   0.429056812147406
0.832574996910004   0.407378242524647   0.578855434385158
0.920181452562901   0.370371012360178   0.901166350079644
0.651927993234483   0.423528244762851   0.807285070933973
0.703504479338472   0.099229876143884   0.859897408844711
0.732371400393450   0.241064308696518   0.831354470137220
0.825231360781445   0.305136871645455   0.881508570659804
0.845320672301523   0.373867016145473   0.907810984603483
0.766055107443428   0.403621101230821   0.935141417379285
0.665457314405324   0.186548011774076   0.952473196999578
0.784763631189440   0.373771931572017   0.154721680098035
0.880464413048955   0.318837214479079   0.206661826615759
0.550765013239390   0.278273998598783   0.370277245148374
0.727316418670457   0.334924557391164   0.167073812144248
0.688297609584271   0.281564155879846   0.232302118926423
0.646257776558149   0.247011979552423   0.335992667845940
0.624373328153816   0.502931371782484   0.337280297216535
0.677727595565999   0.401097850254855   0.390287464058575
0.757559611254931   0.348676286929918   0.594117390385372
0.752203919593159   0.557429272962356   0.626451080898637
0.748185011150563   0.481948937260262   0.517541046745533
0.706615355886645   0.403731560331922   0.645357824227783
0.811600894184412   0.435954130841475   0.649413342329653
0.636984491274294   0.445874170174573   0.561964202018258
0.629177526072112   0.528901527585768   0.813013436195464
0.661670261979292   0.361775030232543   0.880815604348188
0.818989837682749   0.457500840869960   0.901501427914836
0.653655700717021   0.348626607987441   0.858483881104681
0.704444782964482   0.223812614121402   0.077542758973736
0.693374410338511   0.280095169401894   0.909756154492834
0.608845525627587   0.194240440586043   0.049238505896605
0.708368546126576   0.320175994173681   0.018970222708857
0.609242939842550   0.418390687406230   0.283420291275889
0.618088350211949   0.442333678951562   0.329661728686237
0.832331312837506   0.402709711355336   0.185145792115044
0.656941254281490   0.514645657054371   0.501822721813461
0.619403102237290   0.293696974831939   0.448840198817798
0.671786556724887   0.487549881175712   0.543692802447759
0.739341881893620   0.485668990387458   0.701487863417355
0.900505102306490   0.488883541397147   0.576811033038035
0.897627133773112   0.267442300573112   0.716200752326366
0.671377221492006   0.483436373732816   0.575216621322014
0.704866876990284   0.371195231412789   0.704583904307768
0.606369287229697   0.414492081602194   0.871098385099648
0.777370152467456   0.358332933708065   0.901276114556159
0.832646843880835   0.229987591864493   0.967008655277618
0.719351767032675   0.349204234845525   0.902425110160935
0.598300437755209   0.289170099573011   0.002704490696087
0.716433132676965   0.393641123907408   0.928687969908453
0.622545677577006   0.455633970231720   0.169555385242402
0.790825743182471   0.403942251815764   0.886975559683503
0.646921207796720   0.433492684945669   0.044894817649942
0.585076312908623   0.460743429351501   0.139962529445016
0.694872770236080   0.310767479392230   0.443270592497134
0.563450386808303   0.216594351792700   0.333666805167606
0.683740481222106   0.341699598300658   0.360447084430284
0.643901907885458   0.492854185718262   0.288746480018598
0.725099768161260   0.582442554386808   0.453918096905585
0.687009123475973   0.615337191747274   0.436933575703344
0.591651206898372   0.434532707753066   0.617761399503194
0.748445689922801   0.375847069025754   0.490551267364414
0.708143053280142   0.423648667748562   0.538427835162480
0.727149582403567   0.662663134557345   0.719781782510201
0.687895069502707   0.494776306469405   0.599871802348729
0.760285470731668   0.334596369094324   0.572472486204007
0.535125005572324   0.494425278172666   0.810659100824564
0.852851856401216   0.438407947632167   0.088463114555978
0.906285906395285   0.428974138848228   0.022789360019200
0.716550700175851   0.441853056003518   0.013118501220845
0.661143554472501   0.339663922949788   0.133773403153726
0.573141806544976   0.383329685864173   0.106902607435686
0.676803616216121   0.381516416232791   0.214031603260361
0.748675847155219   0.284761581843022   0.194378307282286
0.574430338804224   0.659513552974746   0.333575208197082
0.726810561451292   0.751239623672968   0.320498502344796
0.745667206130309   0.327496015709254   0.258458418614705
0.639458793937059   0.709798720465214   0.272940901694131
0.665664426791782   0.463990032578543   0.525017355181307
0.678262351650405   0.278907985393177   0.394877472211889
0.662460234402188   0.411624634618637   0.605034671288099
0.607585478907808   0.368415695446588   0.643505730108503
0.812909479645168   0.596724909842955   0.648670546169103
0.664456712907974   0.558557050230477   0.958484320969914
0.639588723548314   0.454812174059324   0.657421219080248
0.716385511072563   0.652429076140031   0.783580321337748
0.785478755879625   0.465098497357252   0.859597731487694
0.665637816635328   0.599038473127926   0.875335974858173
0.721074909592122   0.472809645745897   0.928104546569855
0.586294605252215   0.371800320140908   0.132132066448936
0.715363578750111   0.527558498294164   0.909783454271635
0.517074123602677   0.499523330529992   0.198883686332272
0.655590572028190   0.702084049060041   0.204410128160705
0.656467734118055   0.601462134071647   0.332372653046368
0.721415816006087   0.646546230589543   0.216054567287943
0.826260425932951   0.552998307127660   0.458616949768506
0.618754887343943   0.501809065326428   0.274659306849500
0.782355781145074   0.550949103992261   0.424781640628635
0.753761144046553   0.578500549845425   0.517773469311733
0.739245831290003   0.785998221008721   0.515969489971442
0.524327232755425   0.808742025470243   0.441426512585386
0.797008341550097   0.409741812472719   0.658565320512485
0.708176196392358   0.566014539622174   0.740812250753620
0.558569719281048   0.485021926171564   0.647153156493404
0.568392364262987   0.519455764898617   0.882020060209874
0.607818189824379   0.404552534578373   0.846238566483674
0.830242810273206   0.625683176621454   0.825487167333683
0.672772625931515   0.373024388713372   0.902981537496959
0.696805131343563   0.435983477912242   0.029855234707680
0.862810930014245   0.785293336169381   0.077272720261509
0.429673394737234   0.629472660200612   0.136143108546908
0.702192633481800   0.423342756102790   0.149769192439118
0.580575436064460   0.449713902417926   0.195198631565913
0.832328764995602   0.484024919458901   0.110716644744001
0.652727420282915   0.653037282101300   0.191674475886088
0.810915363121753   0.472076830238404   0.275929578784041
0.602378845406464   0.653510810193051   0.328105432448415
0.703553040846693   0.602341250829622   0.456270527346397
0.760785914336569   0.571270274544196   0.654054102208367
0.731488345336072   0.451397130731962   0.653561385607184
0.629695728596027   0.529344308608662   0.590723766928170
0.604597123979892   0.639686820365621   0.615127241926972
0.703905924126000   0.626288970957095   0.659071399048521
0.856827869112174   0.632428837585490   0.837719122129394
0.691089517944253   0.591809887589173   0.776575950365440
0.528250017322695   0.756134234743507   0.848971575797384
0.760987263956459   0.580442262228104   0.879966851461740
0.883723443395078   0.695284274746900   0.002365640044544
0.575333010277430   0.809267497721473   0.011600272975092
0.731152632023193   0.679668453717854   0.995490218530009
0.597776077887911   0.707668069615315   0.243327369072549
0.682714276403638   0.540164252674247   0.944642099026803
0.807949742533939   0.571063791779256   0.274472659563433
0.589503155985267   0.722867913599932   0.100664878213888
0.704536835178290   0.671190645278381   0.131966405248140
0.619640267256267   0.678793726275658   0.460117226716779
0.588666312030456   0.373484960116866   0.201977679686537
0.588965160768840   0.498653053615352   0.282419386581541
0.626547122554243   0.639496431367593   0.326995138778721
0.620159659371570   0.500814418885451   0.244445687497560
0.551626705262708   0.580726876077209   0.593453535962131
0.576763217633228   0.485245247751471   0.622175911489423
0.691590901779034   0.590483808351939   0.888479578986122
0.551260711621849   0.567703829376301   0.702294802771957
0.816536485792657   0.644710917877088   0.749058644580959
0.599570166607962   0.556845764096088   0.890348505261731
0.700262535379531   0.603472075509855   0.720347084753065
0.800597464767355   0.744525849270521   0.942570064590852
0.577512662590644   0.703127120999731   0.944828307524987
0.682130680692240   0.628060017496644   0.117880319977653
0.630268519935384   0.592398316492043   0.163249197938401
0.652886252221859   0.733356980354146   0.961568193934810
0.637459889249742   0.634644267376596   0.270393746473007
0.606742232451106   0.683209855163203   0.132895091785659
0.642036322443003   0.688942546647655   0.443426836845864
0.897372739901879   0.564787461830150   0.407778797922732
0.714292142695104   0.791810119252441   0.437699716223079
0.707496418492590   0.779803201995418   0.460191753151017
0.618447713425477   0.902727375754401   0.315643782743871
0.582124306952548   0.383873181560961   0.436245214554940
0.766053343389003   0.699892210688538   0.594283984221374
0.688813019406072   0.746966955216333   0.493446522716885
0.789770977879444   0.857861350371038   0.647381100469820
0.692175660076916   0.727692128601737   0.568817256567288
0.720080075650569   0.520759964541605   0.771789818795438
0.690478666241291   0.608306815712039   0.800656937365994
0.744725534592902   0.843244346706385   0.856188860151566
0.699632949236561   0.550514629559226   0.922906346767695
0.734778766014238   0.711483498898857   0.137923616532675
0.561055084717554   0.697932718431739   0.970330973594316
0.499258198409045   0.721175607472511   0.189655999730342
0.647044956944910   0.730889693086109   0.050424969978408
0.721335907317279   0.630742309171218   0.242788750617804
0.588129250618242   0.878537210270561   0.364431137065308
0.895270244796948   0.833612930051753   0.510269040479435
0.682625838692224   0.702364979041518   0.332189092042381
0.664765619925589   0.884431329460480   0.325564890688889
0.839777416021227   0.809826127097375   0.493221989894345
0.855790311676761   0.785857894276412   0.502916453350139
0.651857136807912   0.857972688604863   0.450164618864716
0.762114721983698   0.709453487550339   0.501447199549000
0.684863852726095   0.622755025976744   0.705996084040793
0.782926516765879   0.875424609156947   0.668214822977197
0.786071039216676   0.728521371579277   0.772621986343741
0.813391906183326   0.769795608544655   0.682665057256798
0.741239513230904   0.817940344654589   0.744396521217204
0.776074068770132   0.656614139066692   0.107076219557299
0.589863809379053   0.753695693453273   0.797173105026859
0.672279197855959   0.660104926543115   0.029807508509114
0.767035479563947   0.642648948669947   0.947948523940094
0.716211632633863   0.872979372887164   0.064591586115590
0.646922150581831   0.829431485826482   0.012176202723763
0.729015751653401   0.990604636948475   0.388084339633097
0.409143628635652   0.820963578946122   0.268842112356439
0.525081265518936   0.798218197276092   0.466970762244834
0.702380609376679   0.870798795434948   0.291739078775211
0.692922727967660   0.922780022426499   0.458135624775817
0.886070830128129   0.671515356769667   0.435889967244042
0.667761650361926   0.879252268888120   0.468728413601023
0.878937982825622   0.705748515484869   0.298085833284707
0.655875130643142   0.809024600273036   0.512431125580533
0.637208144699813   0.766644320802738   0.705041076980892
0.872602658233127   0.825639409101376   0.556347548354513
0.462044808798460   0.753072652813394   0.564588955188800
0.680036124748784   0.743077486516149   0.700602456975797
0.780782610355738   0.613004937283753   0.802594660518681
0.776710211551594   0.780923687466290   0.762796040520793
0.723320070695626   0.750872761132995   0.773535717808864
0.521257752061505   0.963663752824075   0.173037000015083
0.782075957388937   0.022696554286831   0.023569846582188
0.648659905810149   0.955507452311038   0.011799493580270
0.887854100965689   0.978888699565320   0.030757262349853
0.724136241482055   0.687026241841099   0.149553749276334
0.780572704671041   0.772232082835663   0.217127764395531
0.434144248669093   0.807958785683499   0.255507008961028
0.576195366391627   0.882133065928698   0.294903205621950
0.703287575950271   0.917393251059884   0.628646081419613
0.523959471967814   0.923702991946354   0.332300092719373
0.775318847764198   0.661328482199875   0.442368889726758
0.567882339117369   0.931484921692486   0.596144484925811
0.681370907619629   0.911895943902156   0.609683291376674
0.700589887197859   0.986042091479623   0.385787801908407
0.674759277882161   0.839446025912016   0.713006813218286
0.787193120008919   0.822465219100496   0.613436415011945
0.737264494559798   0.838491354049331   0.766626873912011
0.516146549611216   0.898563058926272   0.834758685680764
0.721047928367776   0.887945725877290   0.958423420165169
0.712271086210342   0.732181914844246   0.008739756438203
0.733200307665512   0.774840677342974   0.105147369623807
0.650305582144343   0.812264139856110   0.913586654574025
0.532546314900421   0.777993796258258   0.008552071439889
0.793706926069979   0.911409554990828   0.159958491124319
0.559744630714141   0.950198193347613   0.992922052119884
0.708542715628495   0.880744278707391   0.153360651851485
0.597927542755203   0.954169944679158   0.040577055649435
0.552349781186564   0.882449463273718   0.193404815017090
0.804779526647485   0.850511350333057   0.362758587353243
0.635953239958801   0.738626770084210   0.277030721194912
0.674394140743062   0.992647800614315   0.333755009970266
0.594392908535454   0.737303912908235   0.539880596445987
0.593947785594137   0.784868729395855   0.606742290277870
0.756041989039966   0.680747864961117   0.430900609378499
0.757895248074293   0.957189432739831   0.582230443110257
0.848196997239364   0.986757781251527   0.819644955602634
0.703979653615248   0.841090098840855   0.717129421565517
0.773877067390784   0.747772070701524   0.946235150078476
0.635490816654558   0.873650810525920   0.759646528685842
0.567827621226202   0.087010772583116   0.840767052459933
0.596633839307237   0.852634203612498   0.780318840539081
0.636578527047612   0.986531010752000   0.982678886526271
0.840078981563186   0.775142293409459   0.059006344601312
0.831659112035938   0.999362370293180   0.080919274766448
0.782078680495743   0.798334223158405   0.049228169066674
0.762868127005486   0.863499191557697   0.202703201105672
0.528760277826824   0.011083178420800   0.098246805738684
0.685143911137517   0.965644452283375   0.342445929675744
0.715858471886365   0.018176228598453   0.653532780012520
0.798365698075877   0.066317145279766   0.161477384281384
0.667433122488087   0.890183277534236   0.543436006058495
0.622041127647829   0.863115458006036   0.450787543660548
0.653712292487061   0.099610053637507   0.459481482142276
0.692814812299603   0.934180701278994   0.485699549663283
0.734895397160745   0.899189334272751   0.520327290733383
0.765357828563882   0.791606228034519   0.683940917408173
0.696883147781961   0.855433303552154   0.801389314423886
0.686625679704032   0.003164929618843   0.932594823300357
0.741396305211957   0.020366478038716   0.913513623815790
0.741519305375115   0.209791662178489   0.009638715370908
0.711041274790207   0.935987208603537   0.858869662145458
0.849730431601335   0.093938557578600   0.986237243190088
0.797649103685851   0.860204888936307   0.921050601005025
0.996423015592586   0.880763682323420   0.196963959811450
0.682072047806200   0.948211894910707   0.196304861806667
0.632110382948400   0.882799633237136   0.330849786960363
0.852872052602129   0.864914665377206   0.189163404217738
0.783096481567763   0.870617364833132   0.225857949287843
0.766399449253607   0.056560704418616   0.265181296612443
0.647588706847749   0.269849481217967   0.193406863818973
0.465204052859794   0.979814368392593   0.419024214108141
0.709909859833238   0.033450784421277   0.446802214743460
0.789513431956553   0.990174147779963   0.598261488791072
0.804747553996685   0.016385605747930   0.866876106506763
0.680188275229133   0.156961666199992   0.588290196591521
0.782416531058506   0.889097415125734   0.810101973115574
0.668257340065423   0.919142400935840   0.533418183357359
0.512357643376094   0.034637736424059   0.917039636749711
0.760718495700428   0.956206982142213   0.949052733647029
0.716372672919162   0.966842586969739   0.995435403797579
0.643203737224795   0.023017551360472   0.101546266371027
0.776991843830441   0.272683978022626   0.102052909424550
0.682657436571341   0.234992690736983   0.971244844290209
0.818405406844448   0.130331662479525   0.028692877168051
0.731580009694133   0.042366216832788   0.020706161026389
0.705923756923107   0.155559411911028   0.279206575375389
0.717114500262176   0.172424301479088   0.333465142053897
0.616810798682214   0.026831161880025   0.323042269617171
0.540438405015825   0.053950641257350   0.302132678997221
0.798060692289438   0.063574796178917   0.491866245033625
0.678704917147954   0.165362773309269   0.449566445502674
0.793456115971262   0.113448739436700   0.489542129068593
0.939879066169735   0.930247322623707   0.601401450660903
0.809224267568641   0.815665602623210   0.499218173981096
0.697668940762133   0.924345879474658   0.657878406520272
0.783920616826756   0.050783514966249   0.903829007772673
0.715743402175267   0.189797994010944   0.756520888599357
0.635345163608550   0.051689616600823   0.671380519334440
0.567704339716555   0.984975626711459   0.832659144729414
0.752790882673512   0.006509781974400   0.938598747352213
0.748821364630283   0.070203678706674   0.972335858717305
0.765300381205967   0.161498875811800   0.229708391012571
0.802488871785594   0.091973605202982   0.253336778859856
0.758766927239161   0.017751054959833   0.239806807234248
0.652109691045833   0.000402855301959   0.083158758674772
0.657282562643474   0.005154673501552   0.255523600627844
0.628021438438181   0.106027661837941   0.257290590993442
0.792708626865679   0.054213417955470   0.406139011742432
0.847118826941519   0.331345883222955   0.459232003806691
0.779153177127419   0.076321404662414   0.449196437620546
0.799967910510535   0.041804752649795   0.352879231762914
0.650555819026800   0.151034416527056   0.576733369692346
0.539628107294594   0.189046139126486   0.680881890807138
0.595180863246353   0.109510969564799   0.733113748994162
0.659742184045459   0.184257453621507   0.659686060709081
0.829710861487184   0.152743416545376   0.754523973383199
0.730265984929937   0.113099997669394   0.747003157511126
0.618158126771673   0.116134223483239   0.917909578027959
0.737249685159010   0.217553838310566   0.755972144270395
0.607999449149596   0.046844414126265   0.930909491781650
0.816670277880529   0.167419348108403   0.101667286811513
0.815242987398169   0.229718930599100   0.904014779592532
0.781601022896514   0.087671529707891   0.117596140903993
0.640769064902992   0.215579669190047   0.246854943078745
0.746392020099438   0.266446696310647   0.175498829135204
0.797555365604557   0.988427558443046   0.268244765940791
0.592666936349559   0.280445502710214   0.342882502523507
0.801383174177029   0.237188076449602   0.202968184264241
0.782436371804249   0.253631807859002   0.262142049219046
0.875213224412734   0.127010921066562   0.358699843738524
0.633210362419960   0.199680783075564   0.362887747097999
0.673641521814892   0.113881428449673   0.406663544684229
0.743540857980313   0.265683925044321   0.546072066455247
0.717630366378012   0.221837123554052   0.564683368418090
0.742431191479587   0.084268657322836   0.555638422835292
0.725438859707649   0.267420370986422   0.101970501262967
0.787031908471257   0.994883295674772   0.856448390526869
0.586437678723128   0.285915408517191   0.888160234227995
0.708913596195602   0.081164251553061   0.835851029128851
0.748259897736863   0.252566661592053   0.982531027667128
0.740400386653980   0.079031006379954   0.919796448196504
0.757454242725230   0.227791150836956   0.109994772858698
0.586161436343811   0.220194901161218   0.255515056921474
0.823306668207887   0.023840565594413   0.129028319768243
0.667211020412328   0.231159380531278   0.252364357405858
0.828274588812948   0.304086324210191   0.369516496656659
0.865884497442505   0.252619653500485   0.333320867332316
0.821554631500274   0.194452178198601   0.294994541007390
0.629306024510475   0.140129402136046   0.266400342171231
0.715472422252443   0.130578152708295   0.500704466675163
0.788562055456623   0.137039521947005   0.325815465994181
0.698116511645424   0.144966204990383   0.461876171231488
0.743612647919446   0.125728779602852   0.722191829175309
0.783080990666413   0.222049979269366   0.427040143038296
0.849667830930736   0.177627915649621   0.632408852059633
0.752741817021646   0.467379390395812   0.935527088723092
0.856031007666079   0.094144937934344   0.915850903417304
0.575642490140037   0.154431492088881   0.909337533976235
0.845338428524776   0.367665547530643   0.840082693141402
0.688903774547055   0.140988852250447   0.932118063389294
0.576388478810884   0.160937478195327   0.966201296121147
0.703323581898081   0.109055556463435   0.027814177430517
0.678136411521530   0.199233117980321   0.855580672721835
0.714948505924574   0.400275555449901   0.311186332831846
0.697819496513624   0.273166027370592   0.108045375627818
0.881209570529076   0.231814423575590   0.295116327849981
0.890323161819335   0.146981689570326   0.169131471846968
0.962029314987061   0.320989507151151   0.417130456235572
0.771101004864054   0.351193973512911   0.358363624632925
0.723472224742745   0.423715438544599   0.411279437103511
0.724976279869136   0.147670727185492   0.476747909792283
0.757244671953797   0.219123774445698   0.488254478602426
0.864375955532603   0.506011982722696   0.466280426550958
0.758819432552938   0.297705425276149   0.625716410752146
0.669429837761182   0.322584125388595   0.649200867735661
0.609515561747044   0.452646098620862   0.556168638923993
0.829791419608000   0.412184853089078   0.693041089087041
0.685371672753663   0.244007598374032   0.797971705302132
0.970335991742488   0.198901246719405   0.790502653742881
0.582531201005825   0.240190984836829   0.915462154229647
0.589101833790422   0.420864490880152   0.011691484170903
0.847767977647856   0.298940647875805   0.089997782981251
0.618343751488170   0.188386892393190   0.077767515198375
0.848173562348881   0.173763170327082   0.029489154820926
0.706874869719240   0.329445869835858   0.151681470113719
0.700063574508929   0.279397710076285   0.983156344700744
0.789689119711084   0.202005480652111   0.163670280097213
0.952312640693205   0.095947324891217   0.222168616550583
0.736879328034206   0.192466219361890   0.319521933501483
0.630064024144134   0.154170457619757   0.461520236204965
0.686297202015346   0.425325478512522   0.560689379768990
0.753016464489374   0.359141233520105   0.621339237927093
0.810928462641144   0.432123345907286   0.414389932679369
0.821810889039876   0.166211584385754   0.680295697620030
0.710067520492043   0.269424856456119   0.613210546839744
0.664560896588594   0.335589248312701   0.836297561195818
0.731197456533528   0.329243048411475   0.702179800265092
0.768599108444958   0.385372180470748   0.627202283644344
0.675894128457583   0.202349602110876   0.882640778408950
0.913416711021609   0.278816613453929   0.993478207323039
0.765950676291061   0.392536663542793   0.987233800087194
0.964821434991566   0.169475777784521   0.904373651122577
0.682273169278893   0.450469873648475   0.186897751464189
0.674658613297131   0.359984719380125   0.020134536651766
0.751864949338228   0.405405879560476   0.280981989202601
0.817206739706989   0.355690599557430   0.213837593619916
0.638061181280558   0.184908995228248   0.186158037999471
0.744977941203307   0.299379462224542   0.245060703563717
0.956820314279548   0.304388616692377   0.391599971436388
0.631090024087492   0.277633939491831   0.426492592718669
0.872431067099440   0.198007497124898   0.454005031754854
0.860268155931919   0.450471569319261   0.461701145495643
0.909577567923607   0.296356792531172   0.525686789383153
0.696472300498210   0.536307921228251   0.543849956015611
0.902810850694065   0.281330947307993   0.545955456465849
0.872612420863613   0.234691781587918   0.630985000147016
0.608044347966191   0.508803378358007   0.810291793175562
0.820556281889566   0.274596624202601   0.790803369002005
0.947304837319489   0.200212375776225   0.961331024865070
0.814729620816315   0.253770405788967   0.891712321288026
0.806219042345992   0.482586648109760   0.913891529879807
0.818125427539841   0.380381360465383   0.841977252645681
0.827324443398463   0.412326315521891   0.044197700151809
0.735012443122760   0.427691297298697   0.966942242200095
0.762565453432909   0.574792191304325   0.220897920595059
0.809888869063771   0.383191095141359   0.143042349739712
0.674116185529726   0.306285519650712   0.227442114884891
0.575311570034510   0.486839211267916   0.257590099585889
0.770971651477664   0.301004792054180   0.436795623324477
0.900990338586484   0.531339532288162   0.545751759739069
0.804613112188106   0.257555480597319   0.377529543931776
0.681834612436372   0.392538462152498   0.419225328736996
0.815859072873642   0.504245192562513   0.663552642655399
0.937190068595346   0.417127536204458   0.631719604897236
0.767860204665975   0.407133889638439   0.650403330065861
0.649589474129896   0.389594091276628   0.621298917961694
0.901892151846652   0.474184710162888   0.676842736539915
0.584585709930753   0.544568690694450   0.032571890312618
0.734899787541112   0.278861205582955   0.873210583393770
0.609122940135038   0.132923260979993   0.940958713131088
0.789833315981201   0.376950703000554   0.989516627800105
0.977222684017808   0.458878841475618   0.119510008973713
0.662210267735391   0.492464055080974   0.950562902308678
0.877015892357052   0.390196748005848   0.102391372887978
0.776651668307055   0.544253500792158   0.002217374188544
0.784382302482280   0.705665551909579   0.070910812592203
0.998757670588080   0.267815731014095   0.140425438214928
0.859185309024416   0.278960293219491   0.288042957483111
0.665662260333972   0.440783430273597   0.312858481728057
0.848636696188094   0.432392915336739   0.480925980505981
0.858235751613228   0.347405684141203   0.597147606764702
0.752027555982194   0.439025266098993   0.454744663579712
0.823390001942785   0.395922601553150   0.511633078009228
0.838412202118779   0.592650041707758   0.603310671587225
0.698944318645401   0.452224184140133   0.806378828396657
0.750132165709966   0.515459616508819   0.606987771002696
0.674452006268045   0.437087668082112   0.806117559746280
0.803882008121367   0.421495534310229   0.867308561499011
0.754833623870891   0.337723163670629   0.719245060547315
0.744281182333280   0.384338159444710   0.926891154624172
0.771508639075025   0.292325637189343   0.785504448394740
0.753306390099074   0.472326602016685   0.991192643514532
0.767772464852336   0.519942528694280   0.018456193188716
0.747669145271333   0.420172506160471   0.363708080030810
0.706410520007541   0.447451882510018   0.931582071333175
0.676220022832312   0.478116547326587   0.197677103404133
0.674059402193118   0.673164071067709   0.327742067561686
0.715402196347400   0.709352987450736   0.373722054899744
0.830909534682387   0.309518888613825   0.252343430599142
0.767944536092777   0.594526471733489   0.287846296129355
0.829755718049956   0.657549617851550   0.560027512548564
0.725621112886745   0.398885551354367   0.450798962693285
0.726056767671059   0.539923466781224   0.621640010144260
0.688810446957643   0.422352231752505   0.707996724734840
0.523940867617871   0.537848637782811   0.516885328884137
0.794014239012033   0.662485697007573   0.756359539122376
0.745074662253492   0.509112005569592   0.577765449421940
0.707661400601930   0.431413565742399   0.640265446139865
0.593778874393985   0.721441345731703   0.799771024630726
0.789347256322998   0.666562530335342   0.129134175657311
0.856887723648797   0.516954659469333   0.962778771731283
0.773754579373631   0.591373104992366   0.979904890627110
0.606359000657685   0.574525368207851   0.072075022533945
0.939415859569638   0.598369208689422   0.104585555533655
0.760660763494313   0.479085481527302   0.963412381433971
0.666364875394239   0.484567530662843   0.270873712910905
0.683643722824720   0.742277487682918   0.230094735305102
0.702700403036227   0.547256521585064   0.356699985690171
0.772674248616845   0.695800078616998   0.320409778591081
0.791963728059290   0.640857561363902   0.429030341424556
0.744420440353606   0.417658499794790   0.436255597795127
0.655866483730231   0.612236378037240   0.438898999450687
0.783368687346665   0.571753424008340   0.561296052536703
0.711195440385131   0.574983071969844   0.711792830596607
0.673741288115910   0.560800993132133   0.809476609671701
0.774054844214032   0.552766956622511   0.735479486521341
0.771601673669818   0.550469370623714   0.677221899899980
0.732408670120433   0.558009691218600   0.839931967394121
0.774935288884746   0.481319679171590   0.916962905828273
0.829512543305603   0.551150101304557   0.991227556685011
0.689397397181918   0.627142484664210   0.935059935735193
0.769043476862252   0.637049747656782   0.035941671133241
0.595244492746506   0.658559493867898   0.089000044732153
0.796683931568798   0.650148893985247   0.024340252204525
0.789003364249613   0.798446617748042   0.201514806779096
0.765315275920137   0.509519459348931   0.375327221138007
0.682226200199231   0.714194261801536   0.303867386810080
0.809422716640441   0.670698977857752   0.223574480269565
0.914179294496424   0.503434704963926   0.385523115775482
0.704075705783045   0.707239285114583   0.401109593387017
0.719854772396666   0.548193968603559   0.384214787430341
0.846206606357458   0.553236882859673   0.479684523012259
0.650272099519886   0.544367249318421   0.813620355781361
0.785404028721842   0.490760842304402   0.363558881602890
0.705635143496355   0.503386654810337   0.505672712092963
0.761429644472475   0.625003193746758   0.622696347671276
0.981054194519472   0.598043335172542   0.577451481924934
0.855069864910260   0.767724146159796   0.765865271049660
0.715077184084024   0.637966521154105   0.832391608584809
0.813809617896005   0.868137516612850   0.020993529666045
0.816945574615195   0.596934442996561   0.016544161256425
0.664408742044939   0.630513280169904   0.174135124704481
0.825888621085941   0.693173738656935   0.159458335380877
0.606724542837592   0.504445478815377   0.120624018417334
0.869833114595302   0.739916567363707   0.093865212336668
0.753855211736091   0.703594865706880   0.067527260793600
0.693214169379980   0.620657928335349   0.298348551200831
0.693752777736281   0.737267787472639   0.286279530159504
0.703193123990611   0.576906485354136   0.505681728340131
0.741154942092903   0.608127278823144   0.286886188160317
0.652712428260668   0.706415972403795   0.630800340063764
0.710247866435866   0.692072699487655   0.536516515226814
0.812198890827727   0.741296824350810   0.561264523095859
0.796570395975706   0.688134125676369   0.734797437167866
0.658505534371043   0.565040565342884   0.671698309348963
0.662765338745647   0.590855222355221   0.671158355544556
0.755133309870645   0.759094665706201   0.633666576348374
0.686323112002224   0.562466797579046   0.782348755557402
0.701196838232981   0.594860641753847   0.749642949714438
0.788972237141847   0.651385232223274   0.930827455324033
0.755512523177687   0.582191329034459   0.028369463074223
0.777537779349820   0.657417508953804   0.078766641325108
0.823338502660472   0.594065406770443   0.179944720572765
0.764863044072498   0.695969847311706   0.348976456144940
0.918601980629377   0.942457842419792   0.130094454289520
0.851948853812476   0.405560805471238   0.268106286172642
0.673614040509191   0.702829577789289   0.390540832417505
0.710027337216830   0.707953570078408   0.429231460272525
0.686182581834632   0.698575399668827   0.258278914289075
0.787423654398302   0.844518029460652   0.385287927579886
0.648389222724023   0.836339742806931   0.523947425777711
0.730712089932960   0.459802998957953   0.500589630823311
0.682181139812882   0.728445595733110   0.471972777453148
0.695517142299136   0.719476002334311   0.698033978351218
0.777350434485945   0.761037042045586   0.449116124671104
0.816013102768860   0.536987897403654   0.912224106391565
0.091406754187071   0.665673069421681   0.574989708919033
0.776823538742714   0.670835011475148   0.710829716508660
0.779845980130757   0.600186948850265   0.926986955942052
0.814448795141239   0.634429567551794   0.683681920750824
0.710560865638468   0.692781259207187   0.070201951822402
0.650056453599222   0.611525577698911   0.154039549315654
0.628505371919595   0.721219681035133   0.956047122195004
0.713325815310538   0.653253675524653   0.992659353189774
0.693230853622052   0.959873543578071   0.370154589168246
0.808585265236998   0.594288539223793   0.206471453851803
0.827989003086642   0.732761891962450   0.243422134597880
0.748637301375441   0.581285277909076   0.244314384442762
0.811412163226903   0.644065066213712   0.223898474491604
0.880038566614214   0.793280606341094   0.290423582154947
0.684090662940002   0.911019610955005   0.358337369084902
0.840908510071797   0.698002801244539   0.526767112574721
0.603672568083603   0.707453620724916   0.707124581078950
0.474025409085484   0.629614320490786   0.516761044325906
0.858205769177147   0.692121039829580   0.686630771511704
0.582762751198477   0.712663993615849   0.727744168770875
0.693004521426263   0.810619001363075   0.774671935826112
0.712321292849225   0.780223125771482   0.917960707364085
0.804763877938173   0.788859099715031   0.761160642219320
0.705140267474992   0.699638527622566   0.765418884542134
0.609977787578010   0.740577970847265   0.091879438746485
0.797485085385728   0.678076692655844   0.065992972721478
0.691034218853308   0.851282185131480   0.000359738245811
0.761231396719565   0.811160271412560   0.207628323589517
0.569424641582882   0.805660446278861   0.069449464145447
0.775050079643196   0.754619600268426   0.084280115494915
0.983047723593032   0.788099006917429   0.318170928815630
0.735334697674349   0.695929695564430   0.436636467786910
0.687254479249953   0.832393338045954   0.419734746701967
0.752916345888572   0.877493861626396   0.369304616957777
0.844265687137952   0.895511058370484   0.560412327412177
0.612507690993473   0.787189740543478   0.494907766529607
0.638368446682354   0.747183929549355   0.402710369636895
0.728776160637320   0.652388239174920   0.568669655074114
0.811693994823396   0.061012638560500   0.588155319946947
0.737708304419206   0.778432472483226   0.690727326828397
0.749088169016769   0.958308058332812   0.710600907613821
0.649049826413040   0.953350828776628   0.863405982069850
0.707664900712570   0.821924120503628   0.049165052172165
0.767777356060512   0.783324393179311   0.980338980526132
0.792128555110684   0.732881091811859   0.075167901409179
0.743823778416276   0.980184948113167   0.951664008857077
0.842912293602470   0.682754657290196   0.038111231239069
0.854783022106776   0.856414486033775   0.100647630474804
0.689973414135115   0.887991731613070   0.063732107607833
0.904210709303100   0.006534063384230   0.297087419977327
0.782363310560630   0.881965024334901   0.155797772783737
0.837094493952865   0.878688533666019   0.212111834548396
0.881244439560965   0.781612936814503   0.374693516505248
0.788058846331493   0.960649778427679   0.587404855546235
0.925237104934856   0.876595107170900   0.461336164688153
0.795571243934485   0.828621919364921   0.477661618052277
0.620471543208457   0.659527186211583   0.622368712353634
0.719231982085182   0.654810504264165   0.595282796235051
0.698836117933341   0.724505497532735   0.593516972454545
0.818146076052357   0.988552381208647   0.781484151458689
0.725310604671023   0.774469527074387   0.754990052606520
0.835388608213201   0.843329395032611   0.872888221968949
0.817737222815764   0.960935334717211   0.709407697801188
0.662015282906329   0.731421224399940   0.855449496240465
0.718925119017706   0.794713906702172   0.094568075846508
0.816992272961109   0.898407022465094   0.283540360938978
0.817570782049515   0.584044832600638   0.902673341748257
0.814119304592169   0.898600440032148   0.177957774701686
0.643074674555930   0.967998592882542   0.137146767479043
0.787562699624031   0.027605609497085   0.080578878526779
0.598066929943590   0.878417364626498   0.228007417127755
0.792807362203030   0.108265858743452   0.275406910690746
0.935621006920897   0.812174871696375   0.142343260016619
0.686813336078150   0.872736705404201   0.523462396402704
0.782007225635554   0.831302157375443   0.453294273438416
0.771517166086728   0.022423604929276   0.442147829235253
0.674847262389226   0.886549597224349   0.496486991543859
0.786985699645834   0.778321309819832   0.578593157366474
0.743387408502847   0.740427221431414   0.655435533036686
0.761203944270477   0.847358758354941   0.881325391485656
0.655313107576653   0.751365597270770   0.840093915985326
0.907459967246220   0.813929844176897   0.840131358514802
0.564460120475675   0.790759076226390   0.615581326208460
0.717833408262633   0.978206792412991   0.969304946184123
0.778502833559352   0.852159510412739   0.899943182446227
0.842926163808790   0.096991268490135   0.888028306744287
0.734917057519259   0.045592091183566   0.114907362041730
0.838011155073661   0.824311955762851   0.153799017400896
0.752374083409776   0.783511157811793   0.219800790561847
0.767718077678070   0.012888799468916   0.210909663126124
0.832515916302388   0.887064284383726   0.334900189386196
0.693268064840690   0.170528188529937   0.303916358069263
0.647762258426093   0.033490397184436   0.359770157081517
0.669448165110358   0.919280343943671   0.587292724146621
0.615185486950662   0.118969118828252   0.490760505897771
0.596119059353095   0.741191573348316   0.446240618992471
0.728843358383073   0.965424458778224   0.466865668327801
0.752921347007800   0.983138445600812   0.473997621096132
0.796162012895876   0.003450228479302   0.623099823677249
0.672996355914376   0.960667116549309   0.877612153247015
0.606085519142076   0.119179229114579   0.709766919517717
0.749852493553728   0.014308090993667   0.832071506495673
0.515909389616466   0.935196472026388   0.975202571761826
0.666527732679534   0.833278593500330   0.905529698976833
0.599006523682434   0.975364156566745   0.017347845437804
0.914313659220522   0.993533108279341   0.193806980988085
0.879372906308769   0.166143062903536   0.068209463511878
0.861844876613782   0.800365117611182   0.216903026945950
0.806486350641761   0.011137319432351   0.314073280748345
0.594144392497308   0.932306594705796   0.277499709497513
0.905330244205062   0.006583031429758   0.241252233587620
0.794510492572570   0.027883664608299   0.424753657353324
0.778116792473552   0.901652025732726   0.678550596019198
0.858421377983628   0.963002824368186   0.407517615764198
0.820253622663532   0.023857541356344   0.438037384594425
0.000244639039842   0.946936012709088   0.348599347493518
0.654044262327612   0.234428588466797   0.565567979556610
0.622585653292275   0.882874922387701   0.572178093287597
0.734237283590752   0.047721599462226   0.611370981380251
0.776374132794323   0.072333150433461   0.735895854030926
0.954987908500587   0.991629846989516   0.630589751413845
0.875989726843309   0.179601925252832   0.924389844298566
0.685203391250356   0.024248677448284   0.913225901319021
0.717243168851865   0.043447584431113   0.872286595261888
0.714033057276742   0.036120199964948   0.903141344887679
0.745015277208869   0.964463770650336   0.044687347347371
0.675767996648422   0.951016350657600   0.026723430917176
0.022977616760718   0.125929969638044   0.027988279813207
0.813140502312254   0.992350092350947   0.017670687947128
0.853346901524682   0.234997459540782   0.135641975023737
0.804024384753407   0.961096032588676   0.171953692222089
0.730330900886184   0.045051819384365   0.463398858005137
0.678005941157310   0.944337578595982   0.321681444942885
0.805654049379105   0.044552408607681   0.381790821907299
0.817704148146545   0.066054970575457   0.619047623908742
0.786453184523262   0.077776286030617   0.422003472025473
0.821351629786636   0.186481306712473   0.629404825832055
0.918936420651609   0.947214945447940   0.587861304641263
0.729468275628157   0.990613825388348   0.548996655199591
0.797271543440608   0.945505426156596   0.695377358210691
0.900787725546045   0.869634486203013   0.676729989149620
0.797107034670571   0.020645378196596   0.815043633894439
0.767659362468766   0.052897917047751   0.720161047129009
0.785194758728730   0.197363563287343   0.951507728645876
0.777464867362211   0.983324508501656   0.083649650509039
0.758028599440197   0.073082083198792   0.942047615891498
0.742914066270870   0.199498696967322   0.856633885994744
0.711359361344611   0.043128485187077   0.998924674574992
0.767269899917419   0.137676500931092   0.182117426028272
0.970460132003324   0.201190253190749   0.338664862846747
0.796888600512477   0.989710262839705   0.163188839078882
0.729597142274132   0.145593706012457   0.265461614563691
0.038437632407550   0.007358520771232   0.369875657196031
0.787331826585459   0.142082997919116   0.499248661300719
0.703739303388223   0.176825075552598   0.362655508063269
0.855275180437351   0.037477431263621   0.374130501022311
0.752703801992082   0.090478119424681   0.635953825693026
0.671040554676376   0.101053951370663   0.485805649839066
0.933370850040531   0.130403031745575   0.611514100064526
0.800494854677897   0.970626732236595   0.732315178252689
0.760816400865410   0.055367753432362   0.672265868817955
0.716538926034866   0.165107889236169   0.823546838877943
0.819837977084919   0.019481270955995   0.794089704602761
0.744190856816764   0.222397648266439   0.878069979882849
0.529740614582401   0.985477485483509   0.967366953008124
0.758001118622320   0.224007236170265   0.989930018724582
0.831826160902039   0.166566974691217   0.080013972458743
0.719293111631305   0.058791655383352   0.242989896890016
0.663601855939654   0.281166430626646   0.215274029040805
0.780097208475748   0.960041415568774   0.102568732637830
0.900062220729113   0.223279793931542   0.316549092856937
0.853955481642092   0.988206989148082   0.414976121647364
0.926989811467885   0.378527655410065   0.385657730834972
0.727005030575408   0.109668770853675   0.553603746546532
0.784074919011630   0.123395526574939   0.566435153095905
0.688041657152301   0.202478496870391   0.369746225318406
0.706619874629346   0.149583187499794   0.576596254807659
0.914687766572660   0.152403077075581   0.796831508660140
0.870668625846596   0.070826011519014   0.663231306475343
0.895602596866012   0.193799840888768   0.781919692733016
0.775384262709353   0.205794989942445   0.922196278276438
0.715085011274465   0.327199126539843   0.970603661277429
0.748197974251589   0.213909573260134   0.831449562643906
0.809230967523906   0.086520659702287   0.922903412373729
0.776464448949754   0.283557941622992   0.040916065910071
0.867847978552463   0.225139958989818   0.018226864414619
0.804934147325316   0.205493997693643   0.913994427747868
0.800439391677504   0.114786205916057   0.039971172488955
0.887094434283928   0.242695878171006   0.202124725522363
0.726195216421455   0.214005427357439   0.301909122899632
0.037645684480366   0.328413853115719   0.303887628010729
0.059106754823448   0.209334797043076   0.215291283108560
0.818662097367917   0.331905866110050   0.197545714068448
0.643791929688176   0.199810444330693   0.441685756060919
0.728785336733159   0.242510782257526   0.547756035200049
0.734413850252132   0.226790475625005   0.593849120114885
0.787766023822557   0.074682995590531   0.540576241895156
0.622158030914982   0.206229110732693   0.539052352673943
0.735261260474176   0.254559346902803   0.607846852280845
0.711553722394358   0.266281034806415   0.746684671342750
0.771994105176666   0.003490581234009   0.576539172301316
0.784077430713812   0.215790675881265   0.976322082086615
0.826196718257486   0.326606293530673   0.901845452381811
0.794036601110890   0.274994573630267   0.776113193694597
0.600849074593385   0.265747463534393   0.845147176555409
0.662190842771926   0.114373358970394   0.995262593096719
0.631754940353717   0.138767808226085   0.099551335193348
0.834712789804280   0.434794602988901   0.917154312275222
0.711562085664373   0.200401899139982   0.062061214320025
0.841934417198360   0.260075629511810   0.136897560221550
0.855015628137058   0.224660433691094   0.386179316725461
0.779441441525878   0.272549930877259   0.434633525566036
0.719744414413872   0.245222850338038   0.394056723696323
0.748582097919535   0.328190176428391   0.398188112020323
0.791200406938088   0.315689190249714   0.453354340968096
0.691920111470995   0.176798628098559   0.536168729419480
0.759186131919872   0.217689584386733   0.733305623762793
0.867697712657455   0.431606618695844   0.655551195834932
0.969916558474783   0.219381238814441   0.888869399828801
0.868623313247522   0.330018332847860   0.721282856871068
0.048439395038616   0.205503679331521   0.868132147368915
0.607862381040991   0.270674549010689   0.817808571355291
0.831464104532545   0.249220991162382   0.782115565112406
0.830987944334777   0.140811634280133   0.962053993298169
0.852325732742338   0.278806196696752   0.033767360304759
0.616004661730111   0.173217729708241   0.002570947924486
0.807190455554948   0.234720478946153   0.982599778133949
0.896122136206576   0.376548686942663   0.082521080269249
0.697525486084752   0.233518022493419   0.245571125677881
0.006305504614011   0.341632199382030   0.269328325192995
0.134112577708326   0.386909654137487   0.321529947097694
0.809631504346164   0.307702330802771   0.210769601612040
0.880587995464105   0.299001077091519   0.365498117308038
0.836013368981110   0.222696949076255   0.436207491454367
0.795377888866017   0.309210914345820   0.508995281446960
0.821942286589588   0.550633455783092   0.627510618623817
0.902082534867159   0.391648906075888   0.658498517166894
0.793695127692626   0.253208368546030   0.753447780704488
0.620451004852375   0.425345711038972   0.747976150655105
0.809176886791436   0.393999064219300   0.679973509178893
0.824734244657585   0.425096015632387   0.817984419818417
0.927342832747410   0.229601017349313   0.601048205319719
0.910485235194358   0.404669717888983   0.706922578326544
0.702080126348551   0.197191270438163   0.783043217545021
0.498135634816823   0.277588140787975   0.692564588651505
0.719507823379876   0.257846634982027   0.993218474430252
0.827531069111913   0.342574096735247   0.975075397110329
0.711152149225749   0.614839774852702   0.075399931386797
0.017926902855380   0.260450530656833   0.009035578537376
0.803781249018187   0.288154166464568   0.370454260196592
0.787705096474737   0.190730811729505   0.136894710209869
0.856257361184196   0.323986247496109   0.253637633349751
0.994568643385352   0.207680575805272   0.322361045100533
0.598364584644747   0.190995791868920   0.533685907252550
0.000861919447810   0.185315671410520   0.690489474262147
0.875364515994763   0.224288991248642   0.504496064413346
0.958000907430613   0.276317561836773   0.632660530663303
0.859832693378175   0.227808632252429   0.723311909080523
0.746884491660716   0.536341494720005   0.562135470632857
0.723058684151238   0.463137013461356   0.687033810839351
0.007280474437071   0.226559831524889   0.597246114644378
0.894634148863458   0.179907081282548   0.570679710721626
0.792974614597751   0.369355930259686   0.686194302032240
0.767743707107386   0.441761463844600   0.124374921110861
0.994110282770720   0.361242456262612   0.870349262377270
0.825358502725794   0.283710908431379   0.078199616628849
0.811232076848254   0.362469495229554   0.983952516875762
0.734559698034508   0.323005349419501   0.953066647063209
0.840956259410230   0.460340146576980   0.211307061708965
0.920636303027324   0.372567318113623   0.163565827274592
0.821142210941799   0.494718971537805   0.022503750876762
0.736822353869495   0.467932500873291   0.389317481252618
0.682792916018378   0.437418759724629   0.290298206955680
0.727883168200726   0.273310123736205   0.383017166533751
0.741686878785334   0.468624571999776   0.543882242787465
0.927046415866909   0.432257652139613   0.378535313264863
0.921413230908978   0.326020894205780   0.483138232985155
0.698701848130187   0.391400825809312   0.493473607320859
0.880419997938763   0.409467377071162   0.639495529512870
0.712000330937135   0.327812088193612   0.750458761866323
0.682635748130761   0.520759585192595   0.741345764080113
0.894381744442584   0.377367615086537   0.902330258143762
0.787059146019520   0.492227856735829   0.669203696867241
0.891410665804621   0.415327070122724   0.157788935659517
0.015453704920804   0.490196981777581   0.209840731121139
0.859561315210395   0.314833604996707   0.108391718498077
0.753408298295289   0.296994416064317   0.038080004097761
0.775392615393566   0.538118662354824   0.041193350529123
0.785179165020976   0.465236012770120   0.119391541941176
0.906048384226083   0.574843294510365   0.296972634754846
0.779124555116406   0.371484619397345   0.248292334129014
0.749790475986559   0.345027402267794   0.184427471036300
0.869172628760580   0.533398893208344   0.477998353999372
0.700138509505203   0.660684661124421   0.733880153208538
0.857058024755735   0.390137294176776   0.571772256687198
0.955913491150502   0.607568335148628   0.450116430251227
0.661335239391417   0.572037424788367   0.537131244393202
0.765060558155355   0.364161555921935   0.506858717768003
0.754299743543653   0.634484465393450   0.648535038766948
0.826400244311585   0.580361137180060   0.626506024314051
0.770666238424924   0.586589599742663   0.792485470788748
0.840213924676666   0.487292580438526   0.664620352804896
0.870137083163919   0.297308720126145   0.800464419182438
0.850436038708051   0.411778698561411   0.969074519258966
0.752507974501714   0.556859389470219   0.046384470868515
0.821989565016243   0.421170209707037   0.961415210961401
0.802582351555858   0.623712950462911   0.008450655788857
0.874794579698535   0.340668208647737   0.106987825316408
0.768283482821829   0.454181150738992   0.209063175365870
0.890369972217898   0.501384763370357   0.336029414221563
0.718555829795731   0.336377065626828   0.264490306955857
0.803195599343954   0.367952802039456   0.232748214315065
0.683401060601864   0.321734578434681   0.134854330311500
0.812604686154051   0.501315081026316   0.358300662790865
0.744796858039142   0.401436238767494   0.310489841450269
0.712135963112822   0.532203365782606   0.648821208629671
0.591333230594281   0.637244217141750   0.449888429316769
0.613705696984779   0.338684095075094   0.391660488301736
0.722044928819626   0.312022027425358   0.725588886991516
0.625880331226477   0.690784680703391   0.587217560626129
0.756971912528649   0.561022119055940   0.788117303663077
0.741402291285444   0.470226367560745   0.826868547532631
0.792265725449590   0.389895748067841   0.609843879303531
0.834274472700083   0.468102922525671   0.023045811073962
0.743556786897483   0.382185186689391   0.003850144108408
0.869554378080099   0.444829197453063   0.876048941880925
0.731761911326427   0.692957319349162   0.202143665548175
0.694724770047029   0.636424459132772   0.168169863771855
0.053679868791840   0.650604037557903   0.036770932133732
0.662532588965185   0.452979363693500   0.135989346303096
0.771020441663806   0.373450201230153   0.344986849045996
0.790554960641227   0.551677851178682   0.394993310103377
0.753645619552743   0.449851423872014   0.369017759379431
0.655509480493909   0.507375288070216   0.380350407861664
0.968620903922656   0.375439388856505   0.518218480388010
0.901977373927773   0.477193829196585   0.386273721516522
0.691764702053348   0.448554281746176   0.621556499106210
0.696708695882421   0.674861960427585   0.635174093296712
0.763822279837288   0.656692978832179   0.759129900254605
0.090525393274907   0.602490041814085   0.571006027566063
0.771777276965479   0.541011374525199   0.607218786494291
0.899759191905451   0.598652768784774   0.824702365671588
0.811400784782113   0.577664962356143   0.037970685792579
0.818136754374975   0.446782199234056   0.976901552115155
0.802695296457139   0.536336623073356   0.989246321806990
0.681328271601903   0.879882270198642   0.354608195251712
0.760506760190334   0.642850646585834   0.978339637209719
0.822295116904704   0.532620266262687   0.065115441889548
0.754137403234516   0.610044253607165   0.039835103733648
0.735551665881960   0.622957837353941   0.060446467949974
0.960611220794320   0.616253082097568   0.222605174631446
0.675559140034009   0.553674724742209   0.350198699792335
0.859239473898336   0.598841170291964   0.421478135342410
0.087931538902470   0.601660199897433   0.441906259629343
0.842759507734589   0.618589080331185   0.532830654820588
0.858121872314334   0.749155360929548   0.743587398470974
0.693655649008565   0.512463417719281   0.413251343519909
0.834867053046641   0.643856411953385   0.636703454709116
0.721428484101520   0.567420120548827   0.685617466840554
0.932136976911873   0.662131726210635   0.711868422357196
0.791072783351956   0.587699622208019   0.954685350329567
0.661999844668066   0.707908011887850   0.869901508876725
0.013043623600065   0.540168533875897   0.871237617979693
0.850090609704168   0.625996193476495   0.898441272700737
0.707063283957728   0.564185389453139   0.064735772024816
0.786359225687783   0.573056281711845   0.204969089707707
0.779741463389325   0.781140585114739   0.072219513907044
0.806912860708347   0.396289279388537   0.089591813056841
0.989335435158835   0.801139535284939   0.146817342942780
0.793596744996698   0.553628095807308   0.181607170569121
0.784984971671413   0.527537694952017   0.173696237250637
0.860044749956651   0.712701267363687   0.277558500745130
0.812690927844280   0.616175398802483   0.229292177500656
0.991892431639226   0.708107636036047   0.239512678012479
0.644454985078727   0.640414195104864   0.443251406075050
0.679839612407784   0.559564748177534   0.556878038685641
0.690298413172835   0.738506968583256   0.520571370712276
0.709243704489489   0.698978202853789   0.689062101498682
0.729499722122148   0.680357221462098   0.694969502764119
0.846309832494034   0.706488887344876   0.711309090161006
0.792613772665706   0.653529313118242   0.686869759019688
0.944077040498957   0.594228257939125   0.737553278218379
0.686250208007419   0.587578072377930   0.825458968883545
0.837170377183540   0.662663020947926   0.736399603615892
0.584128669347556   0.693073261109884   0.018207813552675
0.875201468292703   0.719007076190181   0.938895211853723
0.782807157992160   0.648576834789523   0.902369670999595
0.640060128850592   0.783610838019069   0.034166085588078
0.958932569295160   0.675823930433099   0.178193949115239
0.806406057356345   0.758587440416759   0.179890102451060
0.795243761787338   0.598751210541329   0.278491597944693
0.739574168738893   0.498885479641702   0.387310705966441
0.854511710239740   0.714043870542475   0.347369870174729
0.832085983972643   0.715333766051989   0.268166809366661
0.732787987185882   0.544543130083196   0.311551914863118
0.718706456469304   0.807435036741183   0.582925902918398
0.798799690135584   0.534339132669116   0.620685022070373
0.859226405819096   0.691130175774320   0.653619111528451
0.996327212833542   0.693306353975591   0.752537357024943
0.781096209147995   0.794022897878569   0.606646955172114
0.818230611920515   0.617556498367180   0.735102614140317
0.877636423646764   0.844275480364509   0.607327190306458
0.877083232935091   0.617693362725677   0.678511459515348
0.711143848209036   0.760839374414363   0.995099709971706
0.746240986916658   0.755622070811660   0.793926540906649
0.839608207112260   0.747466477662409   0.049400824504130
0.853172709498423   0.700942899850481   0.058997772204964
0.806094447335503   0.696914601513079   0.219264722561671
0.610684188984874   0.912399804104567   0.060806599729448
0.846865114971662   0.753108493929046   0.237631693508323
0.773691991620762   0.873998546314894   0.254309554719451
0.823548758059758   0.834548153668324   0.238408301650531
0.850372530634013   0.743742655841692   0.352331217340719
0.817005670516268   0.801174325582041   0.308772995257618
0.679333229868134   0.650402192606478   0.714745031334207
0.942391046564078   0.766652681814828   0.520628349850319
0.964745608783375   0.442035281414117   0.564259746141540
0.861893121946748   0.710311115153283   0.631962604782879
0.685473077772454   0.717304722522572   0.446454536523539
0.742428699544019   0.748152718255908   0.684068256605127
0.772485831347275   0.803817367096137   0.656297890457056
0.677746809024808   0.616913188053243   0.676915142869239
0.835280945491856   0.867174414160714   0.862109941894982
0.867949597956272   0.845874227251147   0.955550564090289
0.782069980035920   0.489473538254455   0.135581426304077
0.753479811690146   0.856157493582560   0.095371339508769
0.802603518613398   0.001920329754971   0.069739349571140
0.882267592070268   0.860192791579497   0.183922879105173
0.676839101290166   0.872568925589589   0.985018549927341
0.780177361860516   0.976601716107828   0.397595794788870
0.871873770331121   0.752801607773905   0.370401791291689
0.750153423803998   0.751948686947980   0.103796948652412
0.770819586583663   0.928210095522040   0.488540165376566
0.683975696511479   0.885906855132541   0.141311159191453
0.936594063702016   0.636702462399190   0.643073969160551
0.736168445702311   0.735314434883391   0.338052766407656
0.800850193516580   0.661869456394587   0.570816585116801
0.875981841548266   0.834695290007593   0.583262889902792
0.958928464710078   0.649735785966307   0.649189094297326
0.785668786175228   0.770156683441880   0.692750029270894
0.708519266598205   0.836089551455567   0.781273121911330
0.778426893203040   0.015197426855277   0.952208289363155
0.807506747189138   0.619275336623374   0.813895193103188
0.744829012306243   0.639124454978053   0.833882457922273
0.930596066981666   0.997308113844684   0.973728567238033
0.874657260445527   0.876409081577753   0.954545073218744
0.638061481942135   0.933029551401269   0.062244212283215
0.791684689506583   0.939313047504250   0.151836769380855
0.889960127102389   0.830670754332452   0.181617454871079
0.680346766562505   0.991253492377916   0.077080127188675
0.823945636988225   0.798786061113877   0.158899740685859
0.738342828742109   0.804427290780186   0.279308399478872
0.537581963108288   0.907509888325685   0.316347463496143
0.852425118237814   0.882490040224944   0.383297058354459
0.870522276025946   0.849907103505214   0.502438594359812
0.769997435223939   0.661765421507661   0.663120727709776
0.787000762168009   0.746286011840804   0.576479701776304
0.685215462168074   0.842150177729616   0.562891301746905
0.627687237287377   0.852653534765753   0.740636024679768
0.649994095772346   0.056020129247922   0.887921421813252
0.748490014624801   0.691883757117611   0.622245083867670
0.625187082156604   0.969232656150672   0.854884409172427
0.868022546444049   0.965863706813604   0.866129118656198
0.719828211266119   0.950682103284437   0.044816578395157
0.718545313604042   0.942534739164292   0.673667515532236
0.723000750865824   0.049838853553950   0.047789980181900
0.827249601152161   0.581493302289219   0.992446635996712
0.833123215927395   0.851643260852497   0.167429013044889
0.730699095322146   0.869705257895996   0.291146573793174
0.908451082717684   0.928212075921636   0.257608589854121
0.961071040247019   0.917355161789299   0.199551519169302
0.806226071389189   0.797013644704225   0.385399514713761
0.837418333437406   0.888351100042606   0.304871713206091
0.773469083438345   0.931201020464725   0.460921803367397
0.696206002798179   0.032678274785202   0.669902723936487
0.708072002912333   0.008422225616960   0.556841887205128
0.661733297576498   0.020803907665496   0.404919065402750
0.892912729240017   0.765411150149029   0.584700795685000
0.749539342914609   0.740357706897582   0.611344185785603
0.801535623815067   0.846332060996300   0.570982778136949
0.670615369024972   0.872819665073722   0.802406323477354
0.897068216348196   0.005633381614474   0.932524596143546
0.834662474666239   0.158139363590767   0.986180023562532
0.646872040393407   0.925734540370413   0.849731307482563
0.590553950557560   0.830162517097907   0.993220489057310
0.654091298303338   0.935662979301499   0.036108793413304
0.810337688810296   0.870411865159045   0.166044565971788
0.786906071519063   0.035123169571750   0.200676131036095
0.862383888296397   0.028867774839466   0.051809992538694
0.902398622085497   0.835366213930460   0.108581662810980
0.571683616190571   0.888353321767476   0.216391412932009
0.688285043927084   0.931672845480275   0.380585617152831
0.796189914822131   0.963001433261141   0.251350331266170
0.768013602717675   0.993168683559152   0.448999499914806
0.913473563612363   0.071995417970587   0.579107112988828
0.757819467521127   0.865074203750987   0.421178263906137
0.713630568266603   0.009702037887893   0.715653425619795
0.609265922010024   0.890875099108066   0.596603047797083
0.773418107296131   0.679933604416978   0.637782090254981
0.653219876324683   0.786238226851398   0.803657676903566
0.843407540307081   0.821771242898626   0.549252730120317
0.702729843757129   0.670536845228106   0.762412250901945
0.714224817949972   0.068731865249805   0.914876600238348
0.673518740082024   0.161054276426930   0.942829194150301
0.740455144185370   0.064766814471251   0.066490514512681
0.851098916794933   0.044575067745021   0.965753485662560
0.930618565256628   0.889518287264765   0.124433802225611
0.715147389408184   0.857925001028017   0.014709218764806
0.921231924629883   0.929812929610069   0.229863538391594
0.815701179456551   0.939378440608444   0.246447180452687
0.945380640191509   0.999888579079148   0.335710991339901
0.923249218823450   0.006202108077750   0.318867540441964
0.028045430281591   0.942071706270927   0.256871069695950
0.856072919266110   0.866566341591886   0.519430442053960
0.815538223466522   0.947970098612854   0.371547253388274
0.027083094285930   0.031549840057332   0.523147207472120
0.864779782536960   0.044111227163008   0.750702666751974
0.826818592270353   0.121947677466397   0.618856097217037
0.930899154771926   0.007676189950409   0.617772286927535
0.784945189885099   0.059013730090073   0.570615413529904
0.976451998512724   0.782293359903399   0.792919029079374
0.171433547240531   0.948566533160049   0.765156727768206
0.754357833848344   0.038656182984454   0.698009992686666
0.695777118055133   0.936490869392183   0.830711624793423
0.806603831441182   0.022153197112298   0.002995608968062
0.918896958713350   0.869026210480077   0.145712714277799
0.929559884519306   0.989998283736228   0.999761924046418
0.800150293267541   0.038717744566012   0.173120611679008
0.825371127734684   0.055855080098353   0.063267663291287
0.806379218057704   0.105654970745740   0.226533290249649
0.819367680996895   0.995214447733678   0.290406543262019
0.813944869269587   0.954527267831300   0.197688311481157
0.989142947620040   0.053126668376917   0.372436680645719
0.668144439964491   0.012061666207390   0.355674926566701
0.891859714300165   0.999255234739088   0.578623051900543
0.830248454960108   0.989735055545394   0.545017745664846
0.685415529789592   0.257929159854269   0.602055109594541
0.875200421207362   0.171779400275005   0.552358563574921
0.903740935727012   0.156780386927335   0.729219677408900
0.970243115348385   0.972488546334186   0.783647675277749
0.776804609751116   0.028568711780383   0.560070315462704
0.945212012716838   0.991512666395307   0.879881332125304
0.796887728304879   0.071708384693971   0.639925083864066
0.068603067895284   0.173185542252610   0.967583011739678
0.040441611802151   0.994405025577204   0.859176212439600
0.730873002680685   0.230441593107612   0.929670291514056
0.800654185695885   0.062067185613273   0.881479296335530
0.074804962278040   0.116017926903281   0.078373263558155
0.774014711819158   0.113063850958710   0.163488599130538
0.776646427966654   0.034307392038421   0.281845481564707
0.808760999833867   0.013187405052327   0.343764835340328
0.940932736590614   0.028297270106519   0.263486550140271
0.886936824472728   0.224264443196723   0.375346736651004
0.963468585839664   0.960735588903257   0.303436524533464
0.762100686326084   0.151722865551904   0.327646221943105
0.866524369221462   0.187491360452260   0.425711757023976
0.031242228595343   0.930764967879852   0.657598181389538
0.807961501098993   0.061881099413294   0.520526913905348
0.944197192117769   0.318888833142428   0.661299547040659
0.796680910036266   0.289619111673407   0.691802709437170
0.872422577052155   0.172431754403906   0.785379923346996
0.901943875545242   0.224295149820481   0.777579551073799
0.989505252237468   0.155789775488795   0.780951553679990
0.867323752261237   0.033353189838879   0.822759250490881
0.608569978333821   0.984564334485060   0.164430079288219
0.814917416717471   0.050594368070936   0.116794358994658
0.911962248456604   0.188365541342939   0.105892782268064
0.915348746091762   0.178036193325204   0.001800670251007
0.917346728445903   0.160906068901422   0.246368299892535
0.769640952808426   0.206649951528241   0.118424178994217
0.661704580336639   0.014826908521505   0.434921136256277
0.915665003036113   0.011791983284407   0.269793815849877
0.695016357038283   0.230711770406940   0.382780670412736
0.793294632195661   0.059603624833873   0.217654520810542
0.975156728116859   0.212321210765285   0.528127378216368
0.875422757212157   0.151138875969340   0.735874674077355
0.037849393868735   0.060981769186117   0.578007025356522
0.042895230445176   0.209898080294553   0.559107186607857
0.813143521731995   0.237860827712663   0.544574107910259
0.839622240400457   0.046954200908436   0.448480405411287
0.920890007487172   0.179380878184709   0.786275759438998
0.780682252735788   0.157757274795803   0.784436828956200
0.936952927229376   0.066655292099373   0.845735076374235
0.826602987423880   0.277774751611366   0.048391961294559
0.800920779807688   0.070150888269628   0.132595586568504
0.864224043444278   0.127099475337198   0.848050163434756
0.048382008877588   0.400287168444157   0.070563521686970
0.042424632475596   0.194962290986513   0.063182220531774
0.934220483038156   0.914369302309889   0.209418546507772
0.703892732892037   0.247984926329472   0.090859235612569
0.843706343649815   0.224451398943996   0.259526076025273
0.966891542201639   0.172991962136670   0.201665838623116
0.890596700666629   0.238792674543177   0.341686813981247
0.792307172355530   0.106038102015892   0.543869216272195
0.799757030800070   0.314993882497951   0.482187253069812
0.790453115592033   0.020327765253765   0.643230262029094
0.936500636122012   0.107055527774117   0.513918557435450
0.841368098424051   0.014794930834395   0.414919511681818
0.834738677334309   0.236603277826011   0.560802430935512
0.890464897632845   0.062204256158667   0.681985180747166
0.885911888695492   0.151451201636805   0.804407341782127
0.836943911654512   0.316989378054964   0.855310803407045
0.814503272641457   0.411032432252999   0.841402778048421
0.083872665975450   0.141611894773411   0.092914996713873
0.840650647964934   0.146340269755192   0.892386750921152
0.775923864478844   0.098976981657157   0.041301338125669
0.803235805961752   0.133038573195182   0.220738016164711
0.798859549219000   0.086298102914733   0.204816683487218
0.981333870816709   0.327369807235997   0.148455915705820
0.999442944634641   0.214183606109399   0.292360767370566
0.882493533750293   0.164999397193133   0.147612957561849
0.887237741649357   0.400139221486812   0.372226832450352
0.842155286086427   0.235917451210955   0.232531919313112
0.819078416662124   0.214998325100313   0.273607789660523
0.939016771472378   0.997976983733544   0.438717185160001
0.715672325102687   0.356007082253916   0.657440413940561
0.963939509280781   0.050804456256281   0.471972501101165
0.892022599281914   0.178207808787250   0.599780568222031
0.708216096711438   0.153994945270862   0.545551235786211
0.757923726111195   0.272536105603720   0.723670263769072
0.890617118834586   0.277330577147397   0.792279261579428
0.753414869096674   0.528382820546423   0.683573635073856
0.755595287235853   0.329755447093708   0.934718465941901
0.752606089824192   0.257281684692411   0.105125911208695
0.884078147440632   0.193191556204851   0.262528889257502
0.838736217247673   0.201565483050180   0.956068382311746
0.696913158659363   0.102817695165953   0.085931824470195
0.141488158137555   0.294200092970269   0.007522033867072
0.863265089645717   0.248713831590052   0.997356060633096
0.775625901498835   0.252131487968148   0.386209578322470
0.875180139228938   0.335169383073259   0.233956397764197
0.968624519709688   0.262819397883805   0.142765905357263
0.647338850991007   0.519586180499540   0.433347853864455
0.871835872522937   0.429653852168773   0.138198358502520
0.968881033386214   0.246249022877831   0.632088292196600
0.991831414571705   0.347354819413909   0.450760596177787
0.849657021136331   0.234500856229151   0.582780577637366
0.860429111426275   0.117108931349892   0.694490371710844
0.073014370540742   0.299888851273428   0.645708055011830
0.840246657493702   0.450891051336041   0.603373247380330
0.770513419492600   0.247408980131698   0.734234392151129
0.913832517325069   0.376303077447553   0.748485197338021
0.961814005435658   0.430615765385027   0.621857665810560
0.805463556592859   0.259474493013429   0.001998688497223
0.780709633664322   0.313782919883170   0.934377314691736
0.833934261851381   0.151352235112702   0.015491001123260
0.683206301351061   0.270935700633168   0.932643239746016
0.745444083026854   0.228592225119489   0.284278794535386
0.820544811880024   0.305330765601973   0.156673342360404
0.012478387470026   0.339355687351448   0.318665101011232
0.047998966163416   0.214782846714660   0.306752756777846
0.911325641395870   0.514087821096846   0.322470636593364
0.772110934740252   0.193618056391013   0.497077076863870
0.846569573865036   0.262249071438505   0.353079998314843
0.757411326627156   0.275056248118504   0.376472506031793
0.824361345757232   0.159614162674367   0.564631933196181
0.838495715145108   0.414806578106176   0.497651832032228
0.873877396403090   0.321744263254622   0.692405405689696
0.662934187843058   0.443700671960639   0.611425087301485
0.880141673265481   0.614598551837802   0.829878453095926
0.753198839242949   0.297691059907692   0.858510702014013
0.022822638999615   0.487443338901848   0.810558508702445
0.988017853947210   0.531669865573822   0.855210808289592
0.970602243434650   0.312151737983814   0.011223965512371
0.896102193261642   0.424431833030522   0.972306002155264
0.816261914028538   0.413272742310054   0.931339702205113
0.968179499872157   0.210168108581316   0.056895367529812
0.971794623344254   0.339083113630908   0.122410389284272
0.991834247304949   0.404182584579609   0.055175952107534
0.830738668639447   0.328853349289284   0.170016272212762
0.769543422233195   0.363013327602063   0.172666868301952
0.729136089059299   0.423796826936167   0.270197218021350
0.726740792004449   0.408659664114186   0.382313819091506
0.766913149952104   0.316081903853929   0.550031034346455
0.777070501798479   0.463189460296531   0.355241731119901
0.891924931757198   0.441310413462028   0.418238288052097
0.885581369362941   0.506961883237256   0.557647307678598
0.228793629993922   0.385371322185477   0.737328312936628
0.989261696106034   0.460749885111112   0.732274394184722
0.760397494362798   0.436778427015952   0.652948909447810
0.986768910923018   0.528084763214970   0.752321595740944
0.882847722928158   0.476129508540630   0.595315477494087
0.740084197744692   0.535432837055706   0.892557049139472
0.768500299365863   0.509155246031507   0.928047558993583
0.841107925061884   0.408047786765733   0.720919926553107
0.888013874712590   0.497772604384907   0.161885477896955
0.844378756328995   0.484126047135398   0.138060942162119
0.697634797729942   0.452025142365314   0.237382238377867
0.901906049610705   0.267926972573197   0.194058922020662
0.835935734870310   0.413243160493969   0.209469861695880
0.955947631317966   0.412366497155031   0.226552729818589
0.706829375998326   0.263386117185539   0.245442079849210
0.907382072775088   0.449303505003513   0.394935350021269
0.894937018733359   0.493310895308314   0.362699011350375
0.725667905228449   0.388651338362426   0.478352614037535
0.719091273197581   0.454550495432600   0.409229038285472
0.718435339334664   0.518936071340726   0.397487133610733
0.861226777162862   0.233258510570069   0.606666107841284
0.859506577092380   0.480616266909121   0.642046302624469
0.838652682122548   0.433845235676899   0.671070688678963
0.736334985366110   0.586285457551408   0.666514794173975
0.821276180727219   0.586752490192466   0.962681468408727
0.896024545764369   0.469400650747771   0.708178629736482
0.785355135842235   0.577473181482772   0.900441415539302
0.854999654739671   0.655426736004568   0.887333745607482
0.821861239054144   0.381146775581154   0.924538882400144
0.896172194660669   0.452541257381842   0.069889540123778
0.707504284741946   0.651875958263035   0.261240958220237
0.860384193405131   0.573251767698313   0.265310722161397
0.999806229850326   0.332423244239122   0.372974071338215
0.788047669360897   0.549830227889705   0.269359114179287
0.874325367330333   0.493687820742804   0.135881784626135
0.726702923901337   0.567019513469819   0.521664157167360
0.039313325239927   0.522616588970707   0.422546839093314
0.846589359089842   0.556423590728863   0.393146312674120
0.935680306455307   0.635995346068976   0.713841617713000
0.991082265039239   0.479572877568322   0.524477884465482
0.838498709720960   0.668640913202402   0.532781732081219
0.840943198378449   0.627186956615610   0.460450353211627
0.759455073255017   0.636617815128731   0.807408060224128
0.812776007368373   0.408445778639653   0.602375021823535
0.698438812894743   0.580011254906879   0.916420709564638
0.979429980688957   0.602546390438345   0.887929473992812
0.920608269359885   0.559029325498530   0.846520563642396
0.914977318435668   0.451961793819932   0.004969290070490
0.957348573521699   0.513362314858384   0.819484629260861
0.980795494465700   0.335526088249329   0.094033524406952
0.952504231413913   0.658327741792071   0.937115557816683
0.956320760276715   0.507096879257615   0.977847365725090
0.019819709743820   0.442373572044857   0.287980145419607
0.012811309385560   0.559577717509269   0.943498231755407
0.142491636427186   0.437024303628316   0.201263755135804
0.928078200618326   0.528991255183536   0.386821362547106
0.703306539141776   0.390493531773203   0.375157144423185
0.868263547735597   0.367331675464518   0.120781910119225
0.918368401914807   0.568942076192361   0.432561972109111
0.007858468412576   0.587208662819720   0.582780202136198
0.850887788170432   0.654784280438085   0.465612017593876
0.725967591606976   0.545276361854307   0.542532436330061
0.868361832233357   0.733443283624871   0.615685179705901
0.947115621155503   0.513297866472485   0.583869016295209
0.897277755956890   0.423839568376304   0.732469329920747
0.878750549746067   0.462017148066917   0.659146020412831
0.741185718938808   0.546463590215079   0.811928193516671
0.744835804776871   0.555174412926562   0.869323275048663
0.755882664954356   0.633619957559964   0.862108965170032
0.758981167348441   0.670098118972480   0.992400394504453
0.725258877705669   0.412825791012919   0.141976472584404
0.815951268465123   0.567595700433617   0.164806465205369
0.875145791453571   0.393442568226149   0.268594287913643
0.740525582865942   0.712840877927197   0.356862529176487
0.826996536453307   0.748586240697458   0.160658415177256
0.762741567102417   0.402094405517061   0.336397624761017
0.714332901843483   0.617604306566751   0.364144294253862
0.091590968380585   0.556437041493103   0.366188801078841
0.963118577023490   0.602906868904808   0.374028581988757
0.652974116459351   0.722952617135878   0.405828953254785
0.927503893583223   0.597343255234322   0.439266140444676
0.769974616981843   0.631159926658745   0.596244583411563
0.731739433542700   0.616009142467310   0.661098056910635
0.789981688384790   0.587283658692944   0.665576532778561
0.730747180261299   0.520808144378763   0.801673596232979
0.776246921440021   0.503977956282506   0.957200408638979
0.984623387494287   0.795804589855462   0.036802511571080
0.862172395749261   0.655422908773691   0.857965417358742
0.926450551166013   0.703850146619970   0.937307384065500
0.993661968257987   0.566599387265866   0.013793063734975
0.808167777946286   0.703023894590228   0.280179319591627
0.783444513335454   0.676301794735770   0.006873699582200
0.854902496932476   0.728769340516132   0.068802208983428
0.947363221584482   0.657601483963155   0.198196558009054
0.925811559232229   0.591455718750806   0.311129699661172
0.927960399764101   0.571810333644111   0.362321252955357
0.748737226494182   0.452094951496786   0.477435469308978
0.746354826828963   0.550030128418147   0.364236235082197
0.868885008820224   0.703426575445011   0.474420827789928
0.813398391141378   0.685967371668203   0.370545331887390
0.768668409586263   0.687641873851804   0.486974338159637
0.789100496579151   0.570518889380089   0.691623278946040
0.869414182129284   0.676678361287233   0.460232146950916
0.780903802669857   0.482260698384445   0.639334983777155
0.884323368607214   0.789336875349452   0.804594183147450
0.758423571198555   0.764301549576274   0.961724649239252
0.048412954052562   0.720556283467121   0.929654805255175
0.704304242990671   0.601602025801575   0.937641280548700
0.726562072126622   0.676948310292127   0.177922211787612
0.659113463263576   0.627743910072353   0.934106072055255
0.913017419418748   0.815893815181805   0.063296516547957
0.817212873354953   0.444554560147576   0.282036309993002
0.809085195819265   0.820705058974471   0.290521560535784
0.964426269908532   0.859397909915945   0.028703210411734
0.751654530789667   0.857589094628768   0.270932415557123
0.882044844242889   0.617998725123106   0.421821436231289
0.840812680258733   0.642929421953192   0.515930608724005
0.777321569279708   0.863604561055087   0.297969079845424
0.056126014712914   0.741048069552218   0.601409960614359
0.817662040137466   0.524567990859781   0.640955218581988
0.797930688489884   0.677834742636031   0.620038293031902
0.870103665460324   0.738527156624897   0.806790276419018
0.928005883859088   0.563998224584265   0.644133595487131
0.911814381973898   0.451860903544400   0.729857554745660
0.834767278903747   0.623970849756702   0.707351708656758
0.745805911525687   0.605841531773343   0.873602794364676
0.742110662311997   0.518347585863408   0.750034213494193
0.985808072107852   0.825456158298522   0.984354119595004
0.846194557708859   0.958938453018777   0.715133305871511
0.999006419495690   0.531995149147331   0.898441327549223
0.879135287507595   0.717341570691309   0.110493551483247
0.870112558467252   0.759001207445775   0.986941438674299
0.806004083899131   0.725111194905623   0.222642596065351
0.868623487868644   0.717316717422472   0.165027997815760
0.838525659008428   0.616958242365185   0.171476577061606
0.857292318513235   0.842346780677426   0.451904425477155
0.887570204058406   0.754530948804481   0.467999156578125
0.022579629353825   0.715070174646177   0.591438124149069
0.975841268909539   0.524933276641713   0.575648283120781
0.850545345231918   0.776199157161089   0.530730284813287
0.944265785242792   0.964628832874471   0.777112925475182
0.820048470250180   0.776607868151520   0.571044299151490
0.108270577300644   0.674158667284885   0.556098190263684
0.854728890421649   0.732381066304083   0.723357462857158
0.750826015475084   0.820521877974033   0.838968948236245
0.874888568638019   0.931677349908541   0.649525659370294
0.803190548687734   0.724110569928625   0.795406563996930
0.775462688831492   0.811007549577807   0.076495815937481
0.690501988314449   0.654182719729535   0.012086332362462
0.893015842157861   0.775299817129197   0.983916586898748
0.858674144433877   0.784836022949152   0.129259400867065
0.989470833140085   0.907176621393942   0.382375888590901
0.708440642212173   0.954445069439919   0.137350845191841
0.902399160629421   0.876492121920151   0.169158284950939
0.752635084750292   0.876316935151734   0.343045240089078
0.858510305638496   0.710542242075970   0.502901935377980
0.878897748628514   0.492022074790475   0.189743054824368
0.947462517391804   0.825770507178433   0.811993433680430
0.702409403287066   0.763727175022928   0.225579812618666
0.861664137652336   0.731495215882930   0.560838426308797
0.834666861722542   0.611495465804362   0.434449812673935
0.999537888332714   0.702379195767464   0.581193766655679
0.760207773410338   0.543293349331541   0.757732206850382
0.841610597089999   0.872753060074939   0.543558065033956
0.109061859759266   0.804605523315435   0.787569044532255
0.823703937072794   0.816405253906088   0.023985642190836
0.864684000157564   0.681754782972399   0.900959792793398
0.795098194597299   0.805054419501321   0.022766269228781
0.832644231411283   0.847012825702060   0.019322499299216
0.834026292660977   0.788800376773141   0.928825110107826
0.699072326825872   0.958054970553964   0.112807795353784
0.784292276975867   0.079094876011286   0.088805090010113
0.861512923228811   0.785701461868047   0.310589241672611
0.781882457283517   0.832789789903188   0.291950595630267
0.602730421882509   0.840879971999504   0.462044847200376
0.762367344345404   0.944901982360534   0.438272779526620
0.795426155544849   0.950528858734449   0.535628349484533
0.676561328878198   0.916818566169604   0.330275111955177
0.766183625161523   0.740846024648575   0.463516022808060
0.716370362104249   0.813544930656277   0.725862140035940
0.067748592321527   0.260952994396749   0.553324795588304
0.870664258794679   0.762206369691654   0.490801690781592
0.855420597590420   0.886801203403906   0.622135108435442
0.834623561622792   0.816206405663316   0.884734598241367
0.716404944505671   0.850850771093828   0.042501642167970
0.782170265876495   0.795773305645673   0.998826805891125
0.897203934394652   0.723805116139039   0.878958428305785
0.917587198221135   0.795563402765531   0.884022770379464
0.939973314419298   0.858984635718543   0.922934357467248
0.632780653488750   0.807329034639299   0.023702837915556
0.993904660957601   0.906126982212747   0.153688477029269
0.766368498561989   0.832962102026469   0.091057289906897
0.089096511299734   0.937380501711895   0.357329262362517
0.804848088662096   0.973209600980258   0.378560754523834
0.911136829386453   0.866594881866027   0.292186555923772
0.679024704714925   0.007007828069318   0.383718324255697
0.784167056988399   0.996340068078557   0.517561800568564
0.919472398589298   0.996018702187202   0.590366323568301
0.751084734488084   0.906852912515415   0.693168694088193
0.927530703792964   0.753931404575653   0.544072288570066
0.852656055768256   0.934763453975815   0.669147287309622
0.855795681077620   0.116463080861305   0.614717781107426
0.072735748111537   0.764927325675724   0.595753640947925
0.721801728217971   0.970954622417020   0.669525826240777
0.875844669073403   0.974759324960271   0.754667334666544
0.788632053529138   0.029282626827713   0.975076825280505
0.817548246193824   0.046964098299468   0.776442807776826
0.957369253080663   0.793751320621693   0.034471095905516
0.685880656926931   0.915657506935754   0.075091128296598
0.971871785567726   0.993770243421840   0.110167713086366
0.838311991119365   0.047037595041059   0.040084854202102
0.810740501328836   0.016135357935422   0.156023822588808
0.912949657682146   0.983182398990410   0.222880562547685
0.791842770923561   0.056270974468206   0.329668734525461
0.836716205961541   0.928718983532543   0.374285507061006
0.763841027756651   0.852879529248513   0.443445654095451
0.706333434415657   0.961146772131937   0.486203503875291
0.834087079554975   0.944629412726348   0.568295841550927
0.776556096605211   0.002371717862591   0.829022044626659
0.825074933581328   0.888252991695185   0.621069976164756
0.854443341160654   0.033867169615909   0.565040581836233
0.921302567286317   0.084331531715079   0.717402071276602
0.052516238085535   0.018980254275915   0.512639604673324
0.782388542126063   0.006058573732276   0.883501102216248
0.863272211051498   0.918245933995875   0.624145564898808
0.995953616099302   0.091180792019515   0.789191992227555
0.830295498644027   0.972319759592645   0.801511740462287
0.820033734675162   0.840888789365182   0.928075143562596
0.925652347313820   0.817298339687787   0.865532050702092
0.178322864144824   0.087475376769495   0.998495725666692
0.024627892485197   0.100094545196314   0.069096197286781
0.895775732250517   0.120561863074274   0.179296080697447
0.010258586175149   0.077417266805819   0.055618909529947
0.940927768365049   0.227204131721120   0.118829882481561
0.834964072249570   0.784389649338045   0.322430681581348
0.672873508327751   0.902454608791688   0.451007945970229
0.035233318650399   0.995389409191400   0.423381825009941
0.889353952663062   0.948175766251456   0.586344189207990
0.018021788123648   0.063648321847473   0.557660087375683
0.027396387358378   0.951529494544508   0.543407898319314
0.716147973737316   0.881570568499605   0.525145183795514
0.927976248628416   0.108619149218433   0.725927641784783
0.786969132694827   0.087384815253998   0.759126592469028
0.926491157667561   0.125606519471988   0.803171291083326
0.809202826856690   0.158996584301734   0.704931006618593
0.844208235348738   0.965958764040088   0.990384008075999
0.845521484248428   0.883708431876757   0.947122978291617
0.860544180941028   0.981207027240517   0.038677794786140
0.692038581907110   0.891442500895917   0.966449228151356
0.897562786961283   0.943421787627601   0.900827622710620
0.907779262594793   0.151710734299828   0.223141308027894
0.748917068217002   0.020947922718921   0.118875685818804
0.931927908640124   0.047916109803537   0.239838857735703
0.114093404615351   0.981729195688500   0.198069304249165
0.964133418366443   0.914394142203043   0.395270573415903
0.754790470574483   0.985327433528863   0.387323380185669
0.862893105386781   0.132872990193227   0.420098923768190
0.003694618135327   0.018702089024309   0.542419146783584
0.931012942583816   0.154015331655274   0.454474146630883
0.819124696493917   0.997658497054833   0.366711127423881
0.079420815599203   0.987367408083001   0.820681210145786
0.962008764193627   0.965473336883171   0.573962751194147
0.152529379629370   0.180996547278822   0.852934773350636
0.927818296253917   0.137006547698239   0.727185530618980
0.883570412228699   0.131196846416746   0.996477172723066
0.766939886779310   0.026468644929963   0.898962938754397
0.679025201941539   0.099527207442902   0.013483066656537
0.066037438937519   0.934779500605273   0.945077958844256
0.063500644590172   0.190616092271654   0.015051549890273
0.916521142871742   0.002993306288315   0.950798577811970
0.937203074714370   0.214542629669807   0.144653757313696
0.748050123071013   0.958384646859058   0.226721456416849
0.939932337722239   0.073991833483754   0.231451203743918
0.922562441323870   0.042350548004579   0.174784926734821
0.779988523580075   0.145046736067740   0.209312339588398
0.869417598276602   0.086549038837437   0.394124366645652
0.014715009600498   0.950436989191458   0.399889028947096
0.971723300820802   0.062345065583978   0.423187872327538
0.913386958514995   0.170713090431384   0.463217531022149
0.125777615170943   0.911811314656809   0.627072879190962
0.841665683672624   0.052383191064171   0.585047999254567
0.914121452845775   0.259885999910771   0.690930515151909
0.734906400511727   0.342255380427813   0.639029682340833
0.996062339874650   0.136125424970055   0.825893970111248
0.831145773846723   0.174791543789780   0.656214318241850
0.825930539015708   0.158084677385470   0.934872666129773
0.907017262688048   0.012531898650396   0.849865509068855
0.866777374157999   0.204657962511875   0.939525859738203
0.999633712578176   0.251713164209587   0.033845377212223
0.065254374073728   0.161727975620879   0.023139930863855
0.800554173051481   0.277682541571859   0.092706051408957
0.855887649348369   0.196727250344568   0.010833432736353
0.851015232393552   0.298937249398075   0.271547773371534
0.887889477386387   0.326387183529519   0.369005673726641
0.947252721715515   0.144383133475596   0.341578178117796
0.903595991668638   0.249878846133943   0.368159551457932
0.021294766784825   0.957866446603985   0.452707924144080
0.034705287888012   0.162775558752248   0.407111561879414
0.662396637593417   0.223606339447732   0.329454059663384
0.896332752522360   0.100158690792670   0.577489306284250
0.003616513096712   0.224426209718998   0.482299662930967
0.801281907747083   0.120425902169889   0.628282440180900
0.884318203473584   0.001079337523239   0.763445518312203
0.908786616789391   0.065198024873914   0.701066646035931
0.702898518749939   0.216230356235960   0.928925847789388
0.010700375059512   0.301362384864556   0.781999389691778
0.013432621949277   0.103084382532187   0.010306862278803
0.683559222402423   0.211614490436757   0.952124430248179
0.881740183700291   0.239437603245424   0.040183495827701
0.926979714594606   0.267199940817268   0.178303740594085
0.945956907484799   0.307566504060468   0.018873204935953
0.891258373223031   0.171277877808046   0.092587779088542
0.886279286192294   0.291144975489701   0.202971857425113
0.922009003699539   0.203870267173823   0.313606832352527
0.815252846504138   0.249696822195091   0.224690822039547
0.906242907574975   0.279494656365486   0.373339853777413
0.746242031607912   0.312378484827342   0.423322723657426
0.991491488070541   0.337632123804410   0.547329735895502
0.879036289382413   0.175467221893653   0.364748638070505
0.069028333797105   0.241550787984412   0.528108168589155
0.881568232018392   0.129293020593292   0.825249956072801
0.791460769763433   0.233333203000669   0.530009925902357
0.982771641648738   0.438341217970952   0.642864040802013
0.983094370565410   0.118301971295203   0.487577205286290
0.955033056104173   0.263312822435578   0.863764009777043
0.847663578642711   0.344834635879811   0.861124050918718
0.904235108933342   0.436739421475647   0.799659863627392
0.927764299742192   0.186469211365566   0.976416991061831
0.814574714376101   0.187682489015067   0.940728330506631
0.819002828901688   0.464595755702374   0.188910737919420
0.006002329879956   0.323045655456575   0.091012732896005
0.699358186997690   0.089384250023400   0.293895027174623
0.893172951911662   0.063553639324155   0.034274532013299
0.971940194489210   0.337908383439592   0.199082395011222
0.855595037214859   0.135841933509585   0.715436757226231
0.864108219119075   0.033090824394472   0.347904682988414
0.782255921687231   0.225121309057225   0.618069970753065
0.003703737069066   0.432323237992841   0.598133837379663
0.928432807078507   0.316944133203258   0.513410371451842
0.891786070199752   0.341842456365582   0.442453609541043
0.950456314871821   0.110277891623101   0.436862420341397
0.720211165252735   0.129917636463789   0.531118261903036
0.849657579596344   0.123979629184195   0.872075135364874
0.777507020051248   0.333972503407494   0.756400937071468
0.939446645934666   0.303839692745819   0.797459553351123
0.860056132823165   0.241837912517164   0.969341374016620
0.842484325943468   0.348684859012051   0.890950157283478
0.729553095905711   0.309257053135663   0.034226936607275
0.027726531370171   0.285831390706456   0.932053508831602
0.714586174491803   0.293146138726881   0.892822884981032
0.754226382142753   0.334306646364070   0.212276310389042
0.931419311855194   0.208951582177888   0.096324137651401
0.793875321752028   0.219719304401280   0.183545447269598
0.891602355897524   0.447405493233945   0.203560169451402
0.086832568199857   0.503403815414414   0.420725725930025
0.752335214090391   0.254283069521933   0.270128760782970
0.793545848051263   0.088279654800924   0.474275217718684
0.826893600151945   0.411766896197393   0.409810647404940
0.888515463665116   0.351921589621578   0.557023760563413
0.097775818807956   0.380053138827208   0.688004770370259
0.974113708344240   0.434484023437291   0.593321412289610
0.954704536279505   0.287002826386529   0.849341720800725
0.772974595760178   0.185656556052573   0.602880416863062
0.857806053452125   0.238421641164568   0.775868255125953
0.977127403802966   0.338019661994689   0.861371310000204
0.895377518537171   0.346972024320485   0.085829684144099
0.813219256914052   0.293800655891890   0.964998481494906
0.955145743676586   0.246159589958569   0.885946262459762
0.722359876657551   0.370296617575588   0.013037214647501
0.852113676365690   0.170058232799844   0.059064401090181
0.913171605895203   0.548122134123040   0.047247884755096
0.834685916045231   0.387369223782305   0.160351992300365
0.852854543360067   0.499103104417457   0.091915734098794
0.897138866310781   0.205670194932261   0.498780841692767
0.993534375500264   0.349522601638877   0.295500083715915
0.804278203055861   0.262645853634663   0.442857176257972
0.908680864407261   0.358928885064563   0.651822800428322
0.004466085628537   0.284272297733681   0.382610861611669
0.944100402925971   0.332618228678477   0.465166837753029
0.930773132389738   0.356130316090359   0.629656422162997
0.990097096612367   0.246880002229959   0.685605117493123
0.878412956259594   0.235583101730890   0.656951996616806
0.889546009335010   0.390747675870540   0.686527093107505
0.944506076735974   0.529957001972503   0.884762132181009
0.905324005037190   0.498082762469366   0.719875432079811
0.016614719571763   0.377394698229152   0.867497643214004
0.896722971119832   0.169361405709300   0.121935595058542
0.808943249309159   0.329630341206207   0.928227679309894
0.903123135801253   0.479133866491526   0.007998535905872
0.839800954761622   0.567079252446408   0.946331234077013
0.828775887650211   0.509773838722479   0.954002611150911
0.828951099454877   0.445814887161288   0.004360142201589
0.683876001933211   0.406489034899332   0.212551097081498
0.964893044248661   0.494146637286637   0.272707848370349
0.898056877824844   0.377474945903498   0.260883656200696
0.940454213212387   0.203659966955471   0.338151658226731
0.863520943584546   0.395418163506575   0.381204204699207
0.893351419943065   0.330562699333448   0.767750232069003
0.086522303439594   0.263112853472925   0.512423459449928
0.865738376360245   0.341720280829003   0.621868599645158
0.090053119068247   0.410301166371884   0.679433797973556
0.763051283328290   0.500381371963722   0.686933429672944
0.817866129069100   0.237126762860065   0.757390859411404
0.919672451523970   0.499428224666425   0.672703928903493
0.961028154487535   0.310489022692075   0.711969400528271
0.881206239844575   0.439805944412737   0.851801420111969
0.983049131528836   0.420270257786577   0.923368061317316
0.927803478148110   0.426019665181708   0.101769161544367
0.802775789661729   0.510158840859336   0.972640331097675
0.823996765829078   0.321126468062244   0.955936039245283
0.920967129669333   0.448107849394723   0.210525879203080
0.933643084147789   0.490540694471195   0.970094694757684
0.967256752751263   0.613847854973246   0.142929773012589
0.817141625352039   0.608156190727950   0.258388408742278
0.696145994344779   0.343706463135624   0.253250396714554
0.857773691393184   0.342063767364015   0.164388583244721
0.803208280477004   0.497437869696305   0.271907102675477
0.105166853278670   0.481271463702367   0.432960693173315
0.916301909821955   0.551957159179180   0.559080563996894
0.921605893705203   0.337749871462370   0.677149445050841
0.879630028929108   0.345389514465408   0.646931144591633
0.018167524050637   0.457364014220777   0.809695339102580
0.845394605420801   0.572668205379894   0.502471940129344
0.087614833694443   0.848259144190822   0.641470912479416
0.804810290114504   0.450819124685929   0.875436233670267
0.729882355202144   0.499785260960520   0.728072428517427
0.827671666477124   0.508373226934633   0.048894572140587
0.901775217392011   0.469863903045085   0.094857939965674
0.036404431514855   0.767427450671274   0.005728671041796
0.015956933934615   0.484070432543269   0.151572011522988
0.844200047545672   0.544079892974884   0.964719306923622
0.953894940121436   0.361291924943627   0.129261185130485
0.975187338396898   0.474748812548488   0.294203136431482
0.960273685558031   0.457121149055197   0.343408573332451
0.794679306984236   0.522738618184531   0.267536610817850
0.931082585044827   0.644292392201098   0.264395127957329
0.956039590804358   0.574068535832111   0.371943529475767
0.951569665648965   0.536443028286225   0.403398648512571
0.990820020215178   0.575593265162811   0.404936022022950
0.785320966808910   0.454550647439748   0.651222072392598
0.981461782712530   0.654906258532088   0.665890493946895
0.964118790070885   0.451382555919114   0.719754294980816
0.866625818487497   0.458552799229746   0.708456374028033
0.872030876859875   0.405009364545883   0.809113369248842
0.700611377647619   0.495950075047258   0.739684572223628
0.941067790400302   0.500118403880397   0.803802827091356
0.863239368361246   0.437391461276607   0.926304290597896
0.833327391327524   0.464625749228053   0.160169161625055
0.700521739061125   0.623943976399639   0.853411659835126
0.016170156079906   0.612533777775087   0.029932822109312
0.868471639054084   0.419276053209945   0.108818661006592
0.862661263120513   0.691072699989848   0.930114745667251
0.048115895477809   0.737306878587014   0.064036333802886
0.037501087867906   0.498056220050288   0.132192238612649
0.961273109096460   0.631255891654706   0.196456143000340
0.858141929520073   0.467397728239160   0.042613100618860
0.772131972643696   0.540029725773646   0.373785246683531
0.979015493174196   0.371172645009561   0.491487720869369
0.832204214436059   0.518454711704939   0.362772746700690
0.850321395312715   0.432515519707669   0.582856631390967
0.754930893712152   0.490516105043129   0.625081765256908
0.947363147611500   0.464759523761393   0.562969713985375
0.014517663306258   0.652374575796774   0.773310159741560
0.782289796682790   0.714967425005257   0.744805414565883
0.867028792666507   0.447007593796623   0.063898754393719
0.876289182734387   0.681981690248332   0.852432869628157
0.872246926749715   0.424224031909718   0.952720645941205
0.006190059973160   0.455567308618320   0.071464854862937
0.949351104301842   0.465718794665513   0.122446080459420
0.182262087388170   0.377562213793657   0.986912001914127
0.831798693558613   0.542956364300664   0.117489511440326
0.947727264554384   0.604795952684007   0.077969701271296
0.981809217743591   0.502685354131623   0.247256499387730
0.126336622111143   0.714929995466284   0.075789326942759
0.113936251831127   0.744103745704438   0.384642183704595
0.833688243067322   0.720106134989299   0.552447017305323
0.867568005080571   0.572958049741932   0.407885545732554
0.023327525457795   0.544348222236865   0.437564445091322
0.141979125484290   0.607473604302520   0.621657880202696
0.687489897027472   0.708735289891635   0.361420311735104
0.002872038767415   0.596332872929394   0.659349508293456
0.995272774434137   0.640254275621542   0.689816122612714
0.932625103673766   0.585802885313040   0.598184667158677
0.025670102409382   0.455899735430848   0.914515553754903
0.856262539031861   0.603577534406412   0.696609637021346
0.042517666489723   0.766462460046360   0.826967850715345
0.831725342290306   0.562340043664647   0.917399776123591
0.855091767375268   0.677407412982440   0.955124110788072
0.947512091748253   0.839065664652307   0.869937236336255
0.042390205791068   0.735359044497910   0.008472672118543
0.801425234388630   0.683222718875268   0.146442617669002
0.736738249337076   0.679045344968294   0.058096045807548
0.039117740839014   0.867875156999716   0.010908647919899
0.915026867287734   0.942567394725915   0.279911277153311
0.891109349025919   0.776073078664627   0.310137188894639
0.891018491915826   0.689862094925885   0.388464245557271
0.980492174778538   0.596403351709858   0.231769284877325
0.892421292177298   0.693959266732015   0.418833168395461
0.815764280418236   0.653756106001189   0.617138974672402
0.062525888294476   0.609173199833778   0.575234320506323
0.924828705308631   0.558740835946678   0.585868211942623
0.921383909157898   0.576916921870723   0.823457286068277
0.820328104545636   0.624436458912954   0.655484255368128
0.850074989068813   0.674611875012186   0.980708169900094
0.047116353010357   0.577017493947801   0.859184920691427
0.924820552852733   0.688273238314069   0.707763675630173
0.000633981665840   0.693147160536612   0.869501585364957
0.886334643167216   0.692519907007596   0.826960648687308
0.895279157057685   0.781222081091505   0.186827028350497
0.715871196171552   0.778113524808309   0.890869673459907
0.934770178461444   0.815404372831309   0.042616009698140
0.973288301096463   0.676497183413386   0.272618991714536
0.935869581308919   0.538583405370543   0.275121915851344
0.918741097349821   0.694222770655879   0.264556051303770
0.878300295111063   0.707633873622022   0.137852167731331
0.979173328281717   0.899042103064112   0.180726603240661
0.976690327356602   0.618101341715840   0.428112591253103
0.785964355677954   0.783241660735639   0.436874389968544
0.943699580877925   0.812465294870221   0.544746038925797
0.931738447382247   0.533552944244152   0.601669594357961
0.008129821067732   0.756324111925140   0.624225272405355
0.069766527592386   0.869589205169163   0.578081431546004
0.888994938199879   0.754452393925443   0.676642254778199
0.988121762469102   0.798512587200457   0.701650811938639
0.770243020507519   0.783778733295355   0.632694874253357
0.891995517905783   0.749197116269081   0.899657208772318
0.877869086181235   0.698004041385561   0.878880539237483
0.861273973287310   0.750509616996440   0.848399474451894
0.012798831969032   0.955872717479867   0.160280830187834
0.837256143672242   0.774534014032732   0.146586533133004
0.883006440494872   0.825407411091033   0.966919627747677
0.863111738432358   0.816913729083893   0.135740758833487
0.911121433947866   0.700188363048492   0.368936718632779
0.833982022637115   0.581406886605664   0.262880400542726
0.957799408534258   0.761920182083878   0.376360281811666
0.818128431488984   0.780119173916745   0.369741158162184
0.888467863182298   0.759073253162514   0.392932791739792
0.946177319267774   0.640304904208082   0.337037976608288
0.909515553219440   0.618960740746676   0.430353103359572
0.019553709296802   0.879284476412697   0.525932550679077
0.053181524975133   0.710522805273670   0.592316102839977
0.907400898596658   0.815033130748228   0.763095319171513
0.755931909690947   0.640215876404961   0.569086235648970
0.924913415472233   0.592340645785982   0.687184078812735
0.873602847695288   0.745906945091330   0.923874504806736
0.708240285163825   0.777152731701875   0.943760342119078
0.839271656022784   0.925914292182023   0.915887320702015
0.721288745103590   0.768029721645679   0.838470810073242
0.034931939978688   0.776796374430985   0.161566005932534
0.694018991994832   0.746082469081535   0.031536899183230
0.871171934019810   0.900388174308744   0.088928665335238
0.997840247062997   0.775502254971110   0.774274463619727
0.932608303973389   0.721291058490267   0.167205918940312
0.147775173372493   0.784468597275663   0.221792687141596
0.948024927588255   0.715284498012245   0.405540956515589
0.789180936514850   0.697585298838951   0.299044323223427
0.850207598974369   0.919794356474544   0.573814405027307
0.979472293674623   0.983463913229865   0.558301924351172
0.795793287346307   0.835556595565479   0.545405205913098
0.788529161215028   0.815223800188333   0.525783750957454
0.890047611501537   0.721061993323177   0.429763115079188
0.738934803182575   0.935148685433950   0.694579903424939
0.950524140437936   0.746698220223466   0.827163613397765
0.101370252236565   0.803639854351472   0.609317669263817
0.845205002346405   0.737625605507705   0.825508060387485
0.862103735152854   0.781520218088249   0.852128141991374
0.928240177425382   0.680093111856732   0.979099968009122
0.843202310035847   0.911782575047088   0.889482108039459
0.853094988691989   0.878517963508858   0.085209865038272
0.886695460890642   0.846389518425756   0.027433277272068
0.820070777071611   0.933158142815019   0.216253907779253
0.909762197033093   0.771142497480808   0.161992469782536
0.752972072166253   0.872416896775032   0.314490359178682
0.790103593356705   0.065998423347949   0.247617885509873
0.664845430047762   0.850093458649894   0.422753362626646
0.017611160133812   0.896495649444731   0.240332789441792
0.965756528808677   0.788455572456000   0.369520549115903
0.952086565977402   0.833790352452625   0.372133640654639
0.009203229685884   0.658770264462513   0.658704378299288
0.966451087386326   0.824245773070091   0.558477011264174
0.765366647185314   0.864692705618153   0.392373858249899
0.027213497484610   0.919110437400979   0.780684148327926
0.933872153069517   0.921061164719471   0.628976410641708
0.733268162508868   0.719554921106294   0.631094089565250
0.616915213586160   0.921667588889606   0.844456813437290
0.752915233592121   0.910840592696175   0.848916153512502
0.839555033304734   0.853432594757316   0.946337153494315
0.889081126475874   0.720966776482171   0.823572345533185
0.865254937461724   0.809981872184277   0.059158263514105
0.847786024155695   0.748980909047566   0.997277532368984
0.975492688000354   0.847903171986863   0.999929372253057
0.735911946203558   0.874950874439323   0.085802088605388
0.015502792085677   0.818208610803833   0.201587534393971
0.854957433364441   0.938401475492064   0.396383546223151
0.813862899203505   0.861013892866526   0.224800362903007
0.962332410093583   0.975332941039856   0.330360703016555
0.855179412719049   0.833166955275741   0.478419126264242
0.866129342636660   0.738494957936135   0.509343195937279
0.829034471227083   0.916719196256306   0.631793044909553
0.992125320253334   0.013270011557008   0.756291358235980
0.876160203960399   0.973366575632012   0.573469317343540
0.029726456235278   0.741100596001436   0.679605370364382
0.855166173612044   0.784752064332395   0.613322119206718
0.643148723889642   0.093306821973235   0.649228281430547
0.804267454282154   0.867484924004508   0.621120865011369
0.963777368220342   0.808605995810548   0.711390204742157
0.926508055902453   0.947190081043523   0.647568589469181
0.942418351862897   0.913827356561929   0.884568668915860
0.768709950535007   0.049371974500044   0.986741564465036
0.091807870637062   0.909474360600952   0.016840204437185
0.999639792128342   0.044298994605247   0.146814784682850
0.077643250154050   0.101832068016735   0.974986911736570
0.025507533218541   0.882688291554035   0.156682003147195
0.025351493384650   0.894169486366972   0.268996877905621
0.829726255293822   0.021374287511289   0.385085901622352
0.774956651122313   0.971357995287517   0.428116036159894
0.018809883093863   0.011743263124857   0.289748745377294
0.638340025155928   0.787056945954711   0.501054288205127
0.938941162477223   0.128110896914768   0.582775280539417
0.746888935840131   0.073901393526426   0.608293407552941
0.020020535134233   0.113309360343270   0.784639306358960
0.050313009605928   0.777007546108512   0.774455176721591
0.643031422678963   0.917898242421919   0.668694768319524
0.820221348074860   0.977342596942957   0.753558578863996
0.872436079898634   0.764674940939069   0.791142123795272
0.045372820641443   0.903317245378305   0.792334797780395
0.930413397300143   0.009507094349063   0.078077037014689
0.854529906486391   0.000751604491631   0.061130108542391
0.073275744160306   0.152944724047079   0.827049380879251
0.012467173097693   0.062354349683714   0.122310806374283
0.931945323264947   0.792538603455433   0.019285389320326
0.790809452082744   0.090864848462201   0.176549393648182
0.971678655139658   0.039478846553753   0.151150781695177
0.897907895911898   0.143990384185180   0.198467890301713
0.041736358414384   0.129667590503486   0.318537692198894
0.001864906497056   0.943987361235680   0.496391399072134
0.977481483180914   0.181914171921599   0.360403673963691
0.035360550319664   0.921726872613383   0.279146528941280
0.082006677101599   0.031805494638400   0.636697480443328
0.894585694332374   0.044565442193215   0.622749491634460
0.805300493506674   0.978418104040629   0.529394333927104
0.919295297190630   0.129025715006549   0.633926832411329
0.073030119591631   0.901669589626955   0.635468184546452
0.848353896380319   0.016157852439546   0.811050967937659
0.170890852552282   0.025324841174048   0.730146937463889
0.921616320395571   0.928331834173424   0.896550162322364
0.999201210976437   0.994711056379878   0.121836746696344
0.971051279547428   0.916508131868153   0.877080525864595
0.982797740016508   0.063507849187841   0.833154382251367
0.910725450617306   0.981846426885748   0.018189850589343
0.029693358113229   0.924896965285359   0.229050698605703
0.018885879712807   0.192862674962213   0.127013253078728
0.890877836739771   0.037186133719286   0.049539162720996
0.975338193434819   0.945437421813667   0.246375508249243
0.821489523164325   0.920852737815931   0.266837417093591
0.026447463319631   0.224758510469972   0.288269869886092
0.862402921385933   0.057572568203285   0.395862451859473
0.063632372663175   0.213381492667690   0.456870869333167
0.964259597896485   0.141110568086729   0.576894109507317
0.960174870221639   0.000314499625641   0.509135815923753
0.914518573932400   0.026730677370413   0.632162308118014
0.840490898897866   0.050903443551078   0.758462892043457
0.883978774184608   0.101848879993181   0.919845552357786
0.891935518093404   0.033663103606014   0.837108962263748
0.064915358230276   0.188512664456426   0.605222069576503
0.749602673332499   0.996064332490988   0.191153545224044
0.829314646269710   0.046017455461230   0.010283537707264
0.053515283478377   0.883337303613600   0.955014437022514
0.748622168897667   0.064662784017579   0.809786942401775
0.020180528555083   0.033597405242972   0.043336119892285
0.105086235808690   0.197132964407056   0.238352343538137
0.049562250101044   0.225647048901706   0.981874457544652
0.188914397114638   0.015926593065887   0.180991911060072
0.101534676508784   0.035642211709335   0.073602394212066
0.834566945416731   0.150681797844679   0.351586223021641
0.880237782259312   0.101077860659955   0.369616934781109
0.018283191335388   0.039920381196613   0.337533933489221
0.964947196133858   0.056611621178677   0.563930072991711
0.847484069225595   0.970862499253402   0.562502858445031
0.066811332186507   0.946392483796344   0.603392788208012
0.117772031422861   0.177323801815233   0.603649044550651
0.797340677119778   0.198111074118934   0.618951643278505
0.055199981262998   0.130414037055376   0.753602968165096
0.056985977811651   0.279061996669722   0.800067468036665
0.079176172190048   0.981241701137763   0.792704700184666
0.754373179934901   0.799389731743494   0.824067513439752
0.927538654409935   0.003513197810059   0.863504348609199
0.048663807945110   0.211747117460143   0.838716856159378
0.880933897687981   0.229045616665787   0.951634472947719
0.757119951382387   0.102969668608433   0.018626394789320
0.950855716068463   0.999956888217306   0.095458386586478
0.918514154251793   0.961459992138845   0.149234058128927
0.185749321429324   0.009744300591695   0.335123496556044
0.866032475578247   0.020139004676511   0.325254756257186
0.867119584361772   0.257359747643694   0.304078979609193
0.659097985433699   0.107013296445509   0.269427377338411
0.913327684865024   0.247543243696307   0.584451519866899
0.971283864564608   0.075817585284509   0.484115040208423
0.014230888244912   0.329540738827505   0.530038223501680
0.862509317572886   0.153629252689978   0.357692213776049
0.164842083368543   0.084750220994705   0.600170870043736
0.805184635807591   0.143521147509499   0.768849292346987
0.064767509913595   0.249683925114409   0.708196016706336
0.990767032002023   0.143970394471575   0.852684041938116
0.035584162547958   0.166473859478260   0.727617257814018
0.067261799110576   0.159692338745124   0.858193346568259
0.901402969019554   0.166091681972443   0.933609940081081
0.833870550557061   0.095179484920337   0.936980472325953
0.908010162052694   0.244125268148919   0.950062418318147
0.966374658918590   0.268445912468551   0.090429326222908
0.041285199661537   0.236380811268537   0.132171809661416
0.748266971583238   0.009625268720995   0.146917797310819
0.929104409190125   0.190011090519246   0.362713683320204
0.992321498234643   0.129865484424939   0.211363730742111
0.134838956823338   0.274500071002388   0.297357702765315
0.810053546796397   0.235011269627787   0.434157845748223
0.832820651403218   0.245373585341370   0.374296044298864
0.865175250946712   0.159597759844029   0.421198273055502
0.944894150934271   0.206753423193433   0.526625033902110
0.897367617215991   0.048310627541966   0.591296129858744
0.971348553755443   0.186855784848917   0.699492490287458
0.096043536316301   0.249037019019242   0.770776273634775
0.096564665403186   0.139543188992862   0.686801466326764
0.895582725661125   0.409819151037042   0.787120413455945
0.064325660708497   0.338482895988527   0.885087866787679
0.862865075096527   0.390842016766564   0.759786649689437
0.852556058212710   0.952856933434783   0.916169961275662
0.976088490366240   0.138380665897207   0.802305018324924
0.909895017352975   0.058025524381000   0.840295051709752
0.878193815245987   0.508298411111299   0.046117838036272
0.968195851459521   0.356919097659447   0.073195636579024
0.926938403703390   0.125757503855064   0.346603843571079
0.151239838867720   0.296663831639882   0.157845504277743
0.117931204812604   0.172627998037052   0.422795933489501
0.850502781316260   0.210231919787391   0.412265311203318
0.157936219087212   0.293801908021077   0.484232869521841
0.154370977626143   0.295705763418419   0.291736106409217
0.881304934039045   0.338134196396367   0.182553441531041
0.966141392694227   0.262066197248035   0.696631553210355
0.975559734859333   0.270325575993013   0.586881622091629
0.754548136278837   0.352259970887119   0.746629327111481
0.949981454741062   0.241616676401366   0.753317798232453
0.968839436556716   0.318052488102255   0.683860526405117
0.943063666076614   0.175688869760822   0.690474393038235
0.918775910495718   0.286293665904428   0.784962298541362
0.931872266543338   0.224827594271337   0.771383191111115
0.949618244916166   0.256413345047055   0.914967893432645
0.800607551444224   0.269945600359059   0.031918635781081
0.054729155130393   0.360809186773125   0.101602503999739
0.990193529910494   0.224457302804008   0.040735279184663
0.906402247561203   0.402495103617331   0.208638682053181
0.011811023023827   0.295717497977154   0.100281449962175
0.114434279166142   0.257974912700641   0.298911113128985
0.008156053659666   0.339155702004559   0.346898938970013
0.130385199505026   0.282423076527411   0.234135480178401
0.768350448273562   0.327268221931971   0.375275222664344
0.785829167575621   0.253043448524366   0.626248356677693
0.861891209940211   0.348155931682592   0.437642462842609
0.806725827814171   0.263683353514955   0.645001948268860
0.934921249092685   0.338308033835022   0.535940201095739
0.963248916747024   0.349984490077367   0.537036137119616
0.760668705039626   0.268718901843956   0.619521485288310
0.933165440186820   0.419660377422114   0.687058798543539
0.883619048752978   0.315074758144068   0.742306388890648
0.845068784728055   0.413914339603435   0.769344576279196
0.852655101626635   0.164485571338130   0.913848456942355
0.943904146902509   0.283016520336821   0.078926518753125
0.908002226673057   0.166191447094087   0.962669311030995
0.026305424741026   0.318956276010261   0.004712956686825
0.933229425748924   0.494578198646902   0.196224164706871
0.960343137924466   0.536438498903869   0.321374983250142
0.998832679484062   0.272147090019786   0.083770523069570
0.871215820616795   0.216983297018907   0.271132825593896
0.176897093979206   0.316595238286709   0.246934580969907
0.945853457995621   0.209686627027938   0.169259736084722
0.991649024418637   0.217233012102740   0.550410075352207
0.856547192312795   0.368122781719364   0.148048431119392
0.125933092708146   0.469265933580745   0.449749510760736
0.068437160100914   0.329285555600487   0.638424994666378
0.038177586036282   0.141039076175455   0.513146600866711
0.963055201296903   0.463004677410156   0.394509502161948
0.077230249103656   0.369438751103553   0.708038962287669
0.004593652895892   0.014797485924598   0.620820729880456
0.843487813913094   0.417819580162578   0.798335694617772
0.801980167893151   0.594853090684165   0.738048332208861
0.780687060020544   0.323748556122084   0.784654651277514
0.866022706371802   0.375290361198074   0.819362901485869
0.200804564774474   0.513452800138749   0.872807063087098
0.915250186335595   0.398450162218178   0.148473634719966
0.926266217332989   0.456771204526971   0.106972412470115
0.000622906538334   0.353886000111302   0.242137228665537
0.923588566590670   0.301629841162786   0.069153653817603
0.833893729847675   0.428314036311989   0.261009141096933
0.891450055236153   0.359912197938098   0.236311882843731
0.034816843538978   0.431149795619621   0.485998961216102
0.010858240848449   0.412735968470705   0.494776474022594
0.936872857976578   0.533250146722660   0.505956637386901
0.025189903747258   0.360341459188275   0.581493374397311
0.866552286814935   0.323752702085155   0.480120952410138
0.867407590459635   0.344545112454942   0.673520732547229
0.890898970381826   0.410348230188061   0.610112605238357
0.963175500757283   0.321387843098736   0.610475594623918
0.993358057303342   0.353496076420237   0.574743426562498
0.831221935677362   0.306453626594942   0.829784934318859
0.922245453664557   0.282980904024403   0.754982745100626
0.749535225611761   0.355009341411054   0.914742310050656
0.881305650148271   0.505574356499531   0.969574155207532
0.050206850663510   0.236220335263372   0.033868256625017
0.783907549515374   0.375771438895443   0.877964033704736
0.956741378661517   0.389261413362180   0.119641446196345
0.848263951549890   0.442918586314049   0.149442504945494
0.822948290158626   0.442482473775874   0.086730373061319
0.950811168278017   0.394282783736252   0.249404062297556
0.922115360432882   0.383777723927370   0.070311631705676
0.069320686507673   0.506941676888312   0.272618841935979
0.162517463523337   0.388957407727894   0.482821331094183
0.858989196220265   0.473964301673495   0.611823707106947
0.950820036377692   0.526079612965343   0.432345392316946
0.851386977656188   0.536156936700518   0.372285163814514
0.865995989708093   0.436082525543605   0.727848676231025
0.930112307175404   0.535688051828282   0.631891128768247
0.118051748966702   0.408568393011453   0.623508381606344
0.956375611908039   0.599484303559864   0.587097862245096
0.937885603360574   0.569351164236689   0.672450617502606
0.067909793480718   0.402192975729407   0.834931766404937
0.943916629346073   0.335832785379710   0.755325594544280
0.980591255474691   0.529363722462185   0.827068556753550
0.992646359997999   0.575899801130529   0.213317623650188
0.938425717899774   0.357677126295905   0.069253792595896
0.835264731305519   0.434872477364558   0.230075498253647
0.943002835258728   0.607037248980995   0.130316629892924
0.012198500803970   0.596548699844248   0.113964524384037
0.040333888676914   0.527100212563768   0.135572924155981
0.002122991280819   0.462170478188401   0.290776778976316
0.953895757570337   0.377443692060827   0.275097925967678
0.908664278321818   0.536832501617660   0.517118785133330
0.932852599204848   0.487451381434918   0.573417082599479
0.978857385745344   0.430941877235255   0.216712219613226
0.976570322024845   0.440148138294034   0.670868166975503
0.874430137789816   0.412977931786092   0.584925469847867
0.117831466917606   0.419977569234989   0.688538617006778
0.820369066136816   0.433988852845992   0.618511948286192
0.004903048504228   0.550330199927369   0.617515939873939
0.920091335213644   0.402094679332443   0.610503172864260
0.880940710690441   0.445786034304728   0.903304029714322
0.973794017042557   0.534272187300306   0.693128924717205
0.011077711602086   0.572708298821730   0.765708402272020
0.886158613563122   0.428746362312635   0.826259218832493
0.965113088933404   0.875132850865416   0.083634718219860
0.789936917950538   0.704519763870983   0.007923332957757
0.927103191907055   0.384054850195381   0.263646908125402
0.035259608825852   0.383490628398344   0.092363625564375
0.087178081755369   0.537385447522726   0.318405726743157
0.825227574976230   0.555726609787518   0.139811241922671
0.957281291048233   0.554198315892785   0.295727304114236
0.997773097623441   0.549520309548756   0.225062471157121
0.036573640472352   0.632410311098538   0.474687361894898
0.858942974495972   0.480470268855099   0.463315205626760
0.980144858232348   0.316025419735079   0.493528291260746
0.834262322343294   0.488434543082288   0.549720463236426
0.769623424137750   0.551071635527267   0.576808657676709
0.069249096651948   0.410749197940350   0.659026608931567
0.840662674506135   0.627282040937872   0.561171111906205
0.982096207153871   0.685356354057539   0.800972516564647
0.001358433549604   0.477967101621117   0.748889342073604
0.901698802532918   0.610920328873664   0.894783893425304
0.874764888290550   0.610911795478211   0.894853755628732
0.935011708428685   0.563704791492466   0.047431913236943
0.986907884138731   0.708136249719674   0.954053751034822
0.985714301538062   0.380647985489749   0.072632551691658
0.766914991346474   0.572625518598899   0.002273488323782
0.913288676360683   0.741346038987865   0.168601646870158
0.942132008832847   0.511145650345203   0.271902571346764
0.041497242151098   0.581849176643972   0.313528877887954
0.952095232450036   0.448454269448492   0.371022091798453
0.932158367677254   0.747331606096203   0.335388663667994
0.831398763401840   0.767289302027536   0.347101758121027
0.963136323350024   0.773714934135334   0.647388239211143
0.159616812417245   0.622684489080138   0.577055490627654
0.061307714856304   0.503328166204948   0.558427632860465
0.065649665606613   0.685669842367338   0.605823135141369
0.034861896923313   0.443185533305635   0.639045181257057
0.858378865474424   0.498743496924035   0.553054668907544
0.004922066373133   0.623931717353420   0.764824086471498
0.999983036872936   0.588506183748145   0.880065000716705
0.850349865292161   0.763913907855718   0.928511501235532
0.878035793920871   0.354326148932317   0.804305832002656
0.884420892207155   0.484036644040110   0.029985313797432
0.823987796541247   0.612894899754051   0.904571495937882
0.989340368080415   0.697764127283351   0.977936315201417
0.994245423497541   0.593933002588161   0.025170082363530
0.977855025200544   0.629068968618935   0.170680946620859
0.880284429949974   0.758927617959092   0.198684766697610
0.003565671723291   0.779146111753380   0.303780692450323
0.069293180463016   0.749756465723045   0.409473516970662
0.050802715639339   0.694273673633227   0.313413010462665
0.033978724879396   0.581608555148587   0.539542215044332
0.893830588346451   0.644203214357260   0.426948908911598
0.787453677628976   0.419820754273855   0.326515936000503
0.957324231429765   0.768067323978859   0.811474651391366
0.059185248016130   0.526928486024928   0.573755529397405
0.940349166583582   0.771156228678790   0.660665907804171
0.017781318974487   0.601686549565770   0.632453644286145
0.986400102869721   0.766473164767711   0.635416607984215
0.856634087625455   0.660521873375022   0.649099851592558
0.953970135631342   0.718847540158900   0.835142509052527
0.742740480106298   0.772068498233275   0.818328142618722
0.030726051647666   0.824358022388398   0.039564240184583
0.993307218552478   0.714682242261366   0.926724244354600
0.960932516437837   0.633628672923295   0.069704333876186
0.974474901794179   0.651638624015655   0.086433871009692
0.114838533120730   0.706817797914729   0.098376084040550
0.050036184942423   0.726567051548838   0.358586978213029
0.795024005014845   0.748025525146905   0.205878905834800
0.037399082356813   0.718767771290132   0.385265024118141
0.994595995712103   0.531216342318206   0.246267954588599
0.930958694247842   0.743456325855666   0.305650120800529
0.959450851564319   0.616243727990458   0.477404123399604
0.896359274978479   0.540591594238223   0.489483112098363
0.758648076370785   0.737576187275758   0.492177948975832
0.036387056194951   0.673343838516597   0.660807134215702
0.834175572936155   0.792939713059046   0.548575435708610
0.918542942553948   0.613579153330823   0.643164973345521
0.689373759029355   0.651349016011721   0.651136799874345
0.826675568508756   0.904861606470711   0.937061544715962
0.961048664389885   0.568009511863257   0.783104055063053
0.039805666424864   0.650556360626773   0.939432132114979
0.902358085143222   0.885082192833216   0.959416597551755
0.830219190097237   0.740520329606053   0.020597835120166
0.874205355328703   0.772577494029663   0.103291938396106
0.918010787345681   0.786311455295986   0.136819631071662
0.015030926011494   0.701425354432268   0.166004658002897
0.035247048872906   0.755373294281146   0.548035511438002
0.038689705939460   0.703313500616118   0.229219277534963
0.912428045676393   0.762135420720695   0.321443503775236
0.961465832269596   0.469869390183045   0.320239583741060
0.842509414698731   0.643621194631892   0.169949202852017
0.023364532997089   0.738694804034209   0.434877495847958
0.016252444514338   0.800587922575578   0.554452016344398
0.864054103144404   0.681424170867651   0.382081006257237
0.865377511162451   0.664497433295669   0.694776415000139
0.853139462707365   0.648790815351793   0.716945917519572
0.009065112578813   0.785511618707641   0.693148693377057
0.038524714096274   0.872718590222353   0.836286260298281
0.917595609846787   0.825362831207734   0.738130305379764
0.905172582929327   0.773659107638582   0.891373370305945
0.917577748292780   0.823421877034151   0.813890406518064
0.034622401595285   0.631628161614030   0.035027013150627
0.808754135303484   0.722305879476934   0.015038013600524
0.261763520065678   0.920290199014745   0.136853684597610
0.768161576943079   0.977382437395106   0.053855306480230
0.726776454045498   0.772914598202392   0.225414216603186
0.925765596868974   0.686514166160376   0.116124048482781
0.001101635866907   0.731069641277947   0.221754162409314
0.879470324860268   0.806964938076041   0.364409493009169
0.843622939698199   0.670432346996398   0.167233663413756
0.900748933683404   0.745285425207792   0.414632983194383
0.039634335258319   0.844168670892915   0.458409040256140
0.975653889637797   0.699825499500518   0.570671097399870
0.874592159972021   0.740013965740619   0.585882957746951
0.895460621038960   0.862006698521878   0.703532408214362
0.739645272493888   0.011325166691164   0.700155083195536
0.116729658377989   0.610535918057802   0.573744135679353
0.958725106508231   0.798688652243773   0.807889317710989
0.017137717030956   0.852274182576060   0.826366812574722
0.193549091781015   0.777970178945549   0.908955683040388
0.770024652853730   0.931942906303627   0.946210383877787
0.975235534216231   0.704457345899446   0.878812472267172
0.912651072086910   0.935462735864668   0.925201473198665
0.960333132284840   0.950594974601814   0.944372491297097
0.046347957611261   0.907397266064989   0.158208214357940
0.884331407717848   0.806814624090548   0.197371527514429
0.828361176990738   0.834289621512636   0.269082338174458
0.048974459880201   0.869237659450291   0.195201337705798
0.976029390455493   0.963635330888750   0.354052377577698
0.842384090135945   0.900288118119521   0.362422994786112
0.885626742151431   0.735145107618255   0.181412873817950
0.941800368361770   0.956908574018007   0.282842065886055
0.967563713622281   0.848041378850240   0.576064203404255
0.914359442560709   0.766781101006702   0.456531905693744
0.940061704841489   0.796215052942926   0.519956371522576
0.783074578765398   0.828484895655649   0.642780911593803
0.778041147163777   0.935475740096650   0.517650228984280
0.090100547170767   0.876729172705086   0.643014308775397
0.119410769990033   0.926050586118237   0.934902423542629
0.861333950505222   0.976098004472939   0.843262255617651
0.925326763528685   0.884527705332315   0.008109408321791
0.897014162702272   0.803906823175887   0.976003505207283
0.056571676067826   0.899923987310197   0.189350190101708
0.046316122557160   0.048797262385525   0.161708629292795
0.053481470764041   0.810897418170462   0.090850647605498
0.912743564984283   0.023467671743850   0.195833573875840
0.803408817242215   0.788686561250988   0.177763604102031
0.095736661214027   0.027595122803469   0.176687461630780
0.087618885946111   0.986944611594803   0.128992280094258
0.051143082879197   0.996171542966677   0.451050824828425
0.825708377779604   0.924061253437327   0.660226176949386
0.014268184356900   0.019992729625083   0.426155628939404
0.960115350605251   0.944053048072495   0.402615161104568
0.972326291276011   0.960215908477247   0.452709430367870
0.848778102712940   0.970254485660799   0.743126276706905
0.830292084979347   0.783618135945136   0.764859505935687
0.933096524785153   0.922497152674725   0.974906075616959
0.799789599054433   0.923644199231764   0.676112766486706
0.893395338638217   0.949317452979959   0.691133931307591
0.901408419310081   0.959874954049495   0.743436607327422
0.871431352980896   0.925879715522242   0.595525926913236
0.886081504615327   0.084311541952603   0.021081122275228
0.045864329704434   0.907620896456031   0.937955672066689
0.871128824038660   0.837675472381584   0.113424840813898
0.003004572318580   0.906194263188350   0.008721524886057
0.702123016923471   0.941089987297509   0.068528405977461
0.904107357179805   0.786330251192120   0.110013668794766
0.005412026616507   0.883865713417806   0.133750647360980
0.169923688554477   0.965978344249451   0.359717194540246
0.859465802803897   0.869727686329043   0.294690188871776
0.011292239688639   0.014750677776005   0.357475642422114
0.882415328295863   0.849576879319210   0.331888992773938
0.997575101418786   0.879406147074549   0.380224802720671
0.066025671057839   0.875068014709517   0.741479564850551
0.993351356619700   0.941229292834251   0.608384375875440
0.035023523216270   0.155390742970290   0.757233096181542
0.985382505839877   0.992705424406397   0.626332785373094
0.907838850774557   0.111324711617452   0.820990806640422
0.923555918058174   0.868765174413366   0.944983032992583
0.751119005615995   0.790475446224563   0.752013267090143
0.037532690260570   0.115375931681070   0.933734330117168
0.936909229895505   0.845211426611780   0.034221095032630
