Generated using phonoLAMMPS
1.0
       43.8936037197         0.0000000000         0.0000000000
       -0.0333831402        43.7871637387         0.0000000000
        0.2978022017         0.0615145348        43.5292815436
C 
3649
Direct
0.371765053878538   0.214635728187612   0.391784084074951
0.380818618151435   0.239563146506369   0.618448603913567
0.506491919208823   0.820699349991664   0.709072771373091
0.062631137801671   0.373559951508348   0.299827303304502
0.846900977256293   0.346071437162881   0.097949463184441
0.486725439280938   0.648054296285411   0.443586496612852
0.726485706620854   0.904768521702331   0.125896987169680
0.740648532525160   0.689984187103078   0.123489874847023
0.569935090175203   0.310236124262417   0.834983625070740
0.874842326550977   0.344884819252780   0.395211448247056
0.638975487777285   0.146688961294617   0.092971411576055
0.302987757374003   0.290129523639952   0.448088293864059
0.135867483109934   0.413680729740431   0.081575050956063
0.247799364790032   0.925832281679223   0.126940528169880
0.328831579479765   0.368406752577334   0.676464555715356
0.794119007807472   0.568081291424610   0.797082765201332
0.500735998610284   0.197072612593625   0.829935138346238
0.092645219653532   0.264435506757117   0.368304293833610
0.696223225166465   0.839431622185529   0.527184543053272
0.655187478363676   0.841349655767586   0.430250533339060
0.688434361099660   0.922214582516637   0.273608069732800
0.182667728862037   0.148306263886854   0.288381433252616
0.627381422992719   0.404559963810191   0.825558100792582
0.191867246385932   0.030172158182578   0.824428396872458
0.306780610964606   0.358847996314911   0.917461673701154
0.305953508146425   0.666454208825573   0.623150836358983
0.391850382650999   0.145207774860226   0.169582621358136
0.658206092477310   0.030252345299963   0.387129203663083
0.835923852449824   0.278286219843288   0.786786824535482
0.315400996542169   0.146832612038094   0.695016952432290
0.146910375639526   0.027843864010040   0.929004464718661
0.697780877593667   0.702218596944302   0.543549834984095
0.632336773231894   0.792865461055448   0.188503969719354
0.740224613108906   0.803588659675477   0.461791352560366
0.050607283183172   0.218636893046810   0.456982157632801
0.437705633092486   0.807938133637587   0.852696876304343
0.659413209679480   0.067535432741224   0.488503546255438
0.558336668732579   0.246497062561137   0.905087890332813
0.607291081183928   0.507835560908667   0.852817018420513
0.353230056918495   0.158434407869145   0.449359665640425
0.327630417952049   0.090546036556118   0.988225329584486
0.024900657102564   0.673120720044648   0.220437584994113
0.652180181001178   0.038099596557851   0.209439235537771
0.226228529974772   0.255241504929454   0.585267056946078
0.216657874584319   0.059421119872113   0.865272326221928
0.431272653730110   0.012743727383632   0.268574467242014
0.248643833234716   0.716088009813031   0.353138702383662
0.821101722190662   0.314662795075538   0.059456997639800
0.852691626589472   0.660124621616347   0.986487267357931
0.311883907077008   0.166753699614498   0.381897238146448
0.049389083091223   0.753201709469504   0.938024149539481
0.777069641430731   0.191565348490611   0.735869809105764
0.415843448894769   0.337798033470051   0.394503476534517
0.024908775270130   0.376192870285374   0.660759146028884
0.283249797286409   0.422461011357310   0.902708972135042
0.394106721756999   0.227288063782716   0.373795158638273
0.095943381462496   0.373093001380363   0.565707908028189
0.207131028916761   0.201646558931405   0.478434354105759
0.531212556644287   0.094131144794391   0.927504697259035
0.161817603892056   0.639880108488606   0.824368039800004
0.932975277305399   0.334228095228938   0.185534494795433
0.941793766600338   0.824406125011781   0.100127830633603
0.544390208708989   0.836922076910929   0.859325067484365
0.110503404636089   0.910783985866964   0.582913946663350
0.065428499060757   0.500378701096311   0.961588735575034
0.350054019000258   0.058426975948305   0.252587741173425
0.335491447125500   0.866722341914890   0.795633076675304
0.271943880008874   0.279936445310308   0.873111256429361
0.416334900658183   0.293524644299082   0.589015894377188
0.077934267447477   0.399767458717241   0.105427567082709
0.639754876051959   0.222290827040950   0.921944690490773
0.109830736597069   0.542686610343144   0.833889653419674
0.866313855447053   0.396309245812344   0.082292135844513
0.167295221020312   0.515169998358259   0.599083269359270
0.720504626729876   0.623093524097604   0.216235656464307
0.526679158311155   0.283646522740240   0.722797709594311
0.460588733150820   0.393522588782598   0.652799703839310
0.116529628849574   0.123317444724146   0.149705854976559
0.480220577251024   0.340596695786937   0.037991228004615
0.150353025876791   0.498203834609326   0.947792564843420
0.211151636617311   0.112738744097725   0.079455896292148
0.077013618806165   0.181678797967891   0.243255770012975
0.280844364066318   0.010556162812630   0.807458686511855
0.868306263877043   0.325654412037725   0.789631881830442
0.018040018938705   0.987677472723626   0.985563509864720
0.885111268414105   0.772545467014590   0.035450812539930
0.302129213431713   0.386059693523874   0.983260085676578
0.147698098599705   0.013275776859921   0.060747559716817
0.753211839973087   0.698343931724423   0.094927413076211
0.576010675988029   0.450789825366712   0.403961519153200
0.815649228231359   0.318150679497449   0.302876439318085
0.825835857523761   0.560845081796996   0.717033323160580
0.493290719930549   0.946016864100715   0.634649553595992
0.090461807473390   0.772120299385602   0.905275883327639
0.207567087358496   0.949237360343245   0.727474830207848
0.565160382115141   0.329792789787682   0.749943308099457
0.765762138177426   0.018139404326489   0.582072639416794
0.803920053978559   0.058708370341813   0.070987044362425
0.386063972495470   0.391759631554435   0.578118115154142
0.295400585215444   0.304679261029558   0.918238424403233
0.570624900817424   0.625640448079666   0.497613425535270
0.599993293281438   0.056379393531233   0.897950283439651
0.464788129651132   0.916254217431433   0.857247075457104
0.397213718349920   0.849812917023180   0.841883226657299
0.043935651515400   0.519469900362938   0.849019108275030
0.851605084620864   0.563096987125138   0.798844112902952
0.026343898217817   0.714228524225409   0.179779672038961
0.201234675755526   0.208895737403707   0.040924994321711
0.425350898036289   0.343949543172377   0.650728082236511
0.156927636335770   0.205580616382549   0.502284851131769
0.016095383951921   0.237700262888346   0.315508655621707
0.331352481095687   0.401717698654495   0.568832266969509
0.539718134178149   0.654010598582605   0.675344992095837
0.447363193652142   0.067266680626777   0.518641672902118
0.525165066819812   0.784977799149964   0.457418355964744
0.141930363061158   0.136257739461488   0.165684769751510
0.307192764675069   0.398497953698667   0.951102890557289
0.342903483932619   0.790143592082399   0.633116328198436
0.380975377409626   0.759707441964312   0.824100277512488
0.419331439859584   0.120820291625697   0.574406808781254
0.979056694862653   0.309426395315467   0.311067348686595
0.042192994536332   0.739226404034786   0.165601619056813
0.099648527985826   0.569467358268350   0.845056210338679
0.913625848248766   0.414424493349428   0.103966524360552
0.416074341398132   0.178201945498376   0.883661301909437
0.521286161347826   0.504800250207548   0.797414610788665
0.241169401231723   0.732843167703108   0.743426267387083
0.821679222054902   0.446192608790910   0.995504234467918
0.693387808395965   0.573624750842477   0.893819817839848
0.096620969803167   0.962718598147667   0.816451083953746
0.277429818815412   0.927789824803842   0.690460008394486
0.908925942650851   0.552593372372276   0.767583192627091
0.238005397165782   0.429629863202329   0.810488660711358
0.746720437764542   0.676970564890188   0.961778042627845
0.316169368348900   0.246264580834864   0.976529793110031
0.774480064422181   0.564207384849527   0.617115241681482
0.177568460815113   0.555379391615536   0.636791651896112
0.616936904352934   0.349781430488656   0.830630201506646
0.166563092553072   0.986233350823455   0.058007151288975
0.616904402858675   0.736392954050932   0.292146319650657
0.372581824076741   0.473228707198238   0.292968354812532
0.560773554582108   0.493321363283910   0.436039875387988
0.597163303427940   0.474948833024209   0.959392459950677
0.301490796867376   0.968457427032269   0.190211445408461
0.272617899911541   0.250276544717365   0.888670566759848
0.255473086661521   0.703763877107674   0.742060065191891
0.681266329223746   0.529053637332493   0.171464444974222
0.128138960599140   0.341321229541140   0.223086050025279
0.563380696170129   0.101495246626970   0.595301539127055
0.722882923061185   0.160032247615015   0.750002911656143
0.651122323433533   0.956900910262587   0.432464631449167
0.582857088594487   0.313282703165094   0.417923667813780
0.086454340334414   0.223998926982573   0.548078060422472
0.965347113328453   0.939924222448910   0.099265477324086
0.508764773014090   0.020957655836475   0.554385421588656
0.842805121782967   0.245189727765910   0.741360451071922
0.554855056661399   0.747547767348329   0.429030451175590
0.004901387726399   0.221931192404221   0.572760723721747
0.708492100670589   0.488677748217470   0.441669979798384
0.331247647762332   0.171140511320968   0.224735154201926
0.413272564928935   0.660439208478690   0.528761844528630
0.163747622277712   0.685145933326825   0.317384055286142
0.392644392860043   0.538154201401886   0.414958296104837
0.593616372716302   0.959907453297438   0.156209723406284
0.444060320514176   0.612424558876097   0.449558189477565
0.281201290151559   0.970003276307403   0.137834306637715
0.558760248958221   0.533917903689268   0.474104668585652
0.098237368735273   0.226044878945465   0.317542730085153
0.995058572263674   0.878295957469380   0.992354074503466
0.091158964737395   0.234544956699716   0.145675764798657
0.254263030147391   0.137910325947079   0.329271554497029
0.015413747085334   0.389467535519133   0.407992215130212
0.687898964476696   0.785980881134155   0.331043099931859
0.337603464697715   0.133698612163864   0.172038975476751
0.336252593570725   0.622528836733912   0.542010014026268
0.623229171654404   0.884662946462476   0.031524414401959
0.411805347830945   0.180627136919037   0.415281529098837
0.888464040514783   0.249587880936360   0.708567339185382
0.203416430417843   0.659192592894525   0.792669565782739
0.832143640526960   0.176423985373429   0.330668110972217
0.668174572329562   0.850895360525812   0.401941171082168
0.073108085067332   0.148993357705254   0.070285180492482
0.647312455389123   0.125032064207847   0.823281231143338
0.573322973756492   0.385489654100096   0.759261148541958
0.439862141476022   0.318742044112329   0.635193359952554
0.721202550957332   0.560326223393983   0.507689918517601
0.846055402385827   0.420532207178411   0.037296663129481
0.370793709266164   0.273052115205223   0.314540658942097
0.681520609087715   0.614878347948401   0.929071465594774
0.650309723012513   0.031184715549476   0.141585141115341
0.733099901415775   0.292062757858142   0.228267997716606
0.637427839605368   0.739261245531806   0.207708572698217
0.555499820790375   0.058245639043005   0.479276584868591
0.570816248761135   0.611454800032925   0.691757684303596
0.327685449659774   0.257285425529663   0.479905193911279
0.551053629199147   0.599626107245617   0.608120668692543
0.494854983877250   0.770302920466715   0.803062126467364
0.783061111528169   0.035243591527163   0.079966581495572
0.340516034286136   0.086949889295334   0.051764194815462
0.601415287632438   0.501494114562857   0.044124395163200
0.540400260270169   0.294983793727524   0.879958272723473
0.543640051890033   0.765446936591999   0.776477531937796
0.430198037520372   0.957574018786113   0.512850297739000
0.591960941014845   0.521294184612169   0.109609580512397
0.330370813008513   0.581266957724586   0.504331965093684
0.525830747451262   0.238447477589611   0.910406880028706
0.075055231737321   0.357929387396924   0.156392423182572
0.055673032819970   0.693916027401149   0.911595730341987
0.279860009980589   0.263658164522524   0.818612693258180
0.125710039475167   0.685103026791376   0.275869565822539
0.401060702513204   0.374621309475411   0.483028638525539
0.246348983573414   0.229891626066395   0.589571674283084
0.258348321159220   0.955853804486151   0.119686391671355
0.480100713373742   0.773237280223584   0.774085378970702
0.293747053004012   0.614653982298476   0.734982953209433
0.552929093658300   0.665580484574020   0.531689636935963
0.933294357821797   0.381321190324763   0.736055346282433
0.136511776626068   0.359138422547307   0.528279814978499
0.173292033704691   0.976861280834651   0.758306085684825
0.576854012001685   0.418913859498558   0.401808154873431
0.643521111558691   0.360111873294126   0.395199929563948
0.168584035501049   0.889912231596878   0.084747483054711
0.189558618913142   0.207013931244377   0.505388791633628
0.766267782607431   0.168891847170179   0.715351485156278
0.241796656467148   0.431921653110142   0.604022335486163
0.298054101548445   0.146878898760080   0.360508948080887
0.497545575165356   0.275438051005435   0.467789618342411
0.536249725860445   0.123301955851671   0.911686156828720
0.424925387588274   0.158950120059546   0.435429557481101
0.882779754897979   0.112871627658814   0.110093464446454
0.290687793090845   0.507519169480349   0.770130597409983
0.946722945668967   0.430540832610179   0.682314617810797
0.539129849994983   0.365696188827440   0.716240500518528
0.204303398440864   0.573445245513851   0.790612164492752
0.689016723513903   0.498642934633619   0.417105878070011
0.110107367607679   0.428942789029171   0.070109645778169
0.885115991575542   0.371232332809534   0.127861784128581
0.468889251794983   0.288447602497575   0.578274704000966
0.955841513143025   0.505359206997594   0.579122583834752
0.182414388272980   0.439380599889113   0.522174623471173
0.305756318064510   0.321345983025484   0.391346932361778
0.956091672211439   0.307088169673493   0.261468811255246
0.617861503949397   0.023332821352368   0.619303731742008
0.405263953279330   0.386615130006372   0.630771226318045
0.001696956215670   0.240055617615902   0.625911667591165
0.118889064899404   0.778052101936865   0.169196032850279
0.636247256052445   0.786842727657021   0.931375774245022
0.713436821189257   0.757142832206403   0.253116318700646
0.971078666107679   0.440007797783320   0.087628268253851
0.609032180765497   0.580744338164386   0.790084402508512
0.935983925947445   0.533856704027036   0.655542432314633
0.776869784747504   0.780631057377695   0.104469148783105
0.726175477873555   0.221046182027986   0.078277658145749
0.224404137913945   0.984798885473621   0.547929886600822
0.910887398689474   0.191093153039864   0.578760590724798
0.371747843680988   0.177369027098914   0.847240549170570
0.206462880479410   0.121711528657942   0.110443422669052
0.257432616100233   0.831599314420407   0.191128072758720
0.474842287574595   0.927135466057546   0.323444529767803
0.441994760846204   0.041307301146150   0.841777821747379
0.510565279036675   0.813704142527382   0.458310810391337
0.430513575064737   0.899453117611443   0.693365624924667
0.611225038169975   0.740786792189006   0.848105819596921
0.194755515668502   0.047992296766666   0.887067641153779
0.684298773274186   0.578227787082915   0.387081017708121
0.426846376606321   0.933331125826666   0.429767876624890
0.854250509127306   0.538477061381738   0.572089894823026
0.252402691758586   0.199975320162036   0.901454632571791
0.961901431633850   0.663038446664708   0.961417834523232
0.521706568891284   0.203959675876806   0.200323977579687
0.339480942402658   0.969313554937813   0.231360861996141
0.763149494510781   0.746342676122633   0.402427418482755
0.995105959936452   0.403057550727840   0.122418712669598
0.315191838056688   0.274361866416978   0.960243489388479
0.241313815626897   0.110414258253922   0.070594775080817
0.360100844399677   0.167588534258645   0.210443267271128
0.269083282169549   0.340584280819672   0.432571407849677
0.675752367410177   0.054410054046028   0.293514118472247
0.332468525030563   0.894072579118928   0.747154863271153
0.540473423966991   0.856057025723196   0.327685888537188
0.096162054613011   0.490378084575748   0.816677180035532
0.695789138457134   0.156772396575401   0.363924908435093
0.239082721287020   0.205097678326625   0.479173690912128
0.556654805242339   0.581764762397330   0.545414049074528
0.613272627540644   0.113245457299985   0.143456641105948
0.989796461888972   0.387700537119739   0.531836901025162
0.268511427489609   0.391327081862793   0.063929461532984
0.672271704665391   0.689539528415155   0.969638560602563
0.078338070438595   0.274165637800970   0.267262463046797
0.152592235718658   0.584602487921763   0.828760869022523
0.178187927865810   0.304680474241432   0.590973930369917
0.976013890462126   0.415676839849997   0.587892783720032
0.563747183339214   0.781717068105883   0.526934676765240
0.541411454562717   0.394382235881163   0.893797896963459
0.090964124570768   0.209102849653795   0.494633895540728
0.621426099569351   0.844874562961367   0.168083412832614
0.925621523663097   0.851302729767626   0.100076843345936
0.623337132716779   0.802380457137580   0.218527907713620
0.196504416642731   0.909076709570592   0.694383321482687
0.072185855200354   0.240006966380348   0.365033479454159
0.452338301447244   0.110500215319980   0.479219402670500
0.459676066278223   0.887348083208351   0.687486095308640
0.908267312713687   0.554669864853959   0.800207737522866
0.391655361772330   0.146460026709802   0.649205580654820
0.079247804318359   0.921970999759002   0.784599467045912
0.113804213999971   0.698044188723672   0.248595093148074
0.571617039400738   0.473492777341421   0.714098376948062
0.243454379688553   0.484544177557796   0.791174944284453
0.587672785881891   0.451378868190183   0.978303592200252
0.628398806792996   0.015082474824261   0.564206027048726
0.872312143775801   0.524618088268832   0.938634566230447
0.320190098870377   0.685355431319180   0.676532948757796
0.086179960557230   0.865302635163665   0.097058859006626
0.798974561729554   0.364260124093131   0.993612372321801
0.823719949885934   0.675272490475038   0.996891084832989
0.296100177741827   0.047548039009691   0.057373114175995
0.823568875664463   0.084696980205808   0.540409996807278
0.581490083726965   0.016494154897147   0.933738310366759
0.658381950804222   0.710165604977660   0.116663050018721
0.221289678497128   0.468086196653871   0.347897669407469
0.933333701974389   0.620467497929066   0.942202909067542
0.783079678458681   0.825402184501113   0.431049296809695
0.578287559618685   0.494057732673992   0.098694772751921
0.608943594285918   0.767661032931865   0.297237965828598
0.300272261952013   0.106662111548100   0.320510867748316
0.554725532894913   0.648743349553600   0.730616412038529
0.390884323254214   0.111155328802444   0.046180749112216
0.061922336799690   0.807411304799536   0.938069229539205
0.306725953998273   0.330638174014059   0.933375118064029
0.113350252418083   0.304001676968045   0.402509648188211
0.151721849632489   0.463441557086223   0.750743815223956
0.586742112835652   0.976784501888540   0.522845185882610
0.704820070926905   0.367288069192838   0.905445764376390
0.715866255789535   0.647759691612714   0.513209115974590
0.238926735511028   0.374333112839948   0.808191030324332
0.627501225246952   0.511451583286639   0.921638737818738
0.954372545654435   0.514275863534351   0.959366054736549
0.260874857707268   0.113912930123509   0.120207797244688
0.671369994491880   0.898418174283897   0.585913506852948
0.248814169836483   0.015101720747686   0.059546477866945
0.630405706980810   0.461167339292270   0.829917736267151
0.694146860911956   0.627239593184377   0.416219189876884
0.184748160428684   0.336624747355268   0.545766446344964
0.412678466814334   0.985748498684655   0.512280276844555
0.956839098417868   0.367199737618914   0.716971431488940
0.664896899797857   0.951806587072249   0.603743886139650
0.698105607186002   0.837093713749404   0.179337963852697
0.858688903120955   0.074561193620464   0.075817957544150
0.997803679286039   0.963388475528754   0.992218802342034
0.449787435486425   0.132377229561625   0.144691395921420
0.982933614782169   0.714411996794762   0.973479189119083
0.105292752276754   0.171727462038583   0.233079569435065
0.233591155530253   0.350490757452904   0.426182439547467
0.931624710102502   0.594941920237934   0.921585828606403
0.472929641113543   0.402998327682769   0.535716305738765
0.690570762614193   0.178485698250209   0.895710028224267
0.361734754969784   0.881767235718002   0.740637482557763
0.382880031310978   0.301919734549207   0.051008226905285
0.313599924064096   0.859141131540623   0.849207406811311
0.073186127908733   0.976521439932501   0.081997130286309
0.239557627081904   0.209470397790020   0.286100733997321
0.124191499153922   0.277800127154306   0.616344507619024
0.764179537163214   0.568276118306091   0.811836732582042
0.023929712981098   0.477339685308294   0.559518828161797
0.370366099736410   0.803339097857979   0.853464706574331
0.178325666709206   0.805568751940938   0.800019965069240
0.671957957019563   0.134176541180244   0.435793126541715
0.521362707008896   0.471631297442406   0.539123878635447
0.012065294836789   0.395921971310425   0.638680185248487
0.717122020935638   0.578700872942670   0.249430817945498
0.763481223808497   0.773869393720819   0.419695034058885
0.244653803591682   0.964722305970288   0.606211625008540
0.294242440357794   0.468947861959885   0.810231006562190
0.800943993615643   0.779944358864997   0.081584804620377
0.725422130057487   0.623944747116433   0.563109096469889
0.381459322094445   0.505008660644243   0.371689178554311
0.942126222356144   0.365463209659191   0.486551646362147
0.746223838395857   0.144921204460881   0.259064156358859
0.110519981771530   0.468553302949445   0.560488729306563
0.156720942164494   0.324820052848912   0.174600366017698
0.833257715845356   0.367386565870767   0.048307035527196
0.364120718307605   0.159901404197682   0.693704056883055
0.617790103647456   0.105125820548836   0.061161195075857
0.031100648527478   0.315615185128638   0.676433797109826
0.979381929997731   0.021449773104852   0.123400817783306
0.461216821823537   0.423437074374903   0.155919106617965
0.386865532889875   0.030952265445653   0.088581582632781
0.595736755620694   0.604599987051057   0.709891909634408
0.133226578732566   0.455778124939407   0.539541018531997
0.794689681175509   0.472657429356130   0.955961849687780
0.131166623369306   0.458279252340334   0.392311179840982
0.514761295377323   0.929004896238102   0.878379305702591
0.593275652598632   0.809330603105428   0.677491315138325
0.326355832097185   0.024073425484479   0.525363748011649
0.314867474764962   0.409001076751856   0.515567305596837
0.843838575825532   0.513779227555330   0.949265692763893
0.482956840899300   0.277231506729778   0.284677781497222
0.866271971764920   0.828604250567322   0.049399801782765
0.538915493987353   0.663727943122742   0.619610904282557
0.766060763061153   0.028744980618517   0.483369289679755
0.568438568051159   0.513950684270135   0.161898879331174
0.406241164938928   0.811010598294156   0.759003361149149
0.639264209900376   0.107517074730322   0.883894257741475
0.442785371149871   0.893766480284879   0.849355095901781
0.707160522281439   0.581821806828160   0.806028653720304
0.287560749692046   0.464049630833725   0.482701070518571
0.078255345614918   0.920619997445195   0.077411472932878
0.438559388850909   0.200350252282718   0.214574299386140
0.628644098370711   0.604813938660968   0.144540415253535
0.975156343805284   0.050854041768097   0.022980850464946
0.515219368018839   0.239245000437064   0.506902836838670
0.664653463533636   0.001999947962287   0.148265274802104
0.435868072102691   0.042341540001836   0.072075567267461
0.436708679368968   0.361998817498164   0.439505965216484
0.604437115406227   0.832582558322092   0.538516512764418
0.870874467122681   0.305670834335593   0.271791485649720
0.039792662297709   0.305832638387204   0.213383492918358
0.578629726629875   0.033003348961037   0.905410815488055
0.323778125945102   0.276819750145696   0.743957089380478
0.764358634809012   0.522245033222809   0.896234015737756
0.399157577785932   0.040615029249671   0.233893892546842
0.102376392466308   0.313798879131458   0.179703845379688
0.175620691902074   0.942547390034128   0.886961126645945
0.431382525066302   0.752355355851856   0.852992610567430
0.032815286163865   0.248353100173461   0.624900079564933
0.804934710165482   0.177491180845893   0.348471986260711
0.392906588317752   0.689965959362947   0.582712091735163
0.440504360671693   0.305766273384598   0.030757308701706
0.804089909985414   0.231429638890891   0.429012557473411
0.104206635658037   0.926686731432195   0.762666196701357
0.879380550675286   0.559330516276652   0.815886845373897
0.563949866064927   0.273518508153535   0.888393256876203
0.157408571593815   0.044056087744610   0.057318034700410
0.994648796745495   0.267973994444707   0.477689177552190
0.138127644837767   0.413095637157252   0.214178585526660
0.946927068839710   0.471261676912607   0.047312220807899
0.494344133588540   0.438421114143664   0.641757084182963
0.535709014575866   0.761542868752213   0.571718733172131
0.517120065890040   0.862900024621469   0.674194024328317
0.647805644252208   0.751664938111442   0.153103299978078
0.504390476417150   0.251540384593599   0.646851886856834
0.666670694352415   0.148101481742182   0.353680135625017
0.267604598623525   0.890012996113846   0.862488999787315
0.623994025338323   0.872869958130855   0.001282960722521
0.994688909845427   0.147996540151122   0.129626496691619
0.593404269414661   0.114748924842209   0.515575208323182
0.358857416583351   0.109510741541929   0.675260880898267
0.036002193144421   0.614305378197784   0.883944249377515
0.008381297003202   0.491383458626401   0.610126350773754
0.608135486348628   0.694900036052212   0.740414269592709
0.563086282887924   0.603359405939334   0.766730968591120
0.477949669956545   0.560574724353151   0.373119248102728
0.701000219665562   0.127727325614366   0.426121395581067
0.359473652171394   0.363526776557420   0.666715786956676
0.211728448043297   0.189409726700500   0.423427785766198
0.205296002012875   0.405103193107723   0.160658815905226
0.377353808929793   0.408975135137348   0.159024086190500
0.103811653894802   0.386038961252092   0.118235375762978
0.024567235863553   0.289538881992368   0.330293735392788
0.620716923175092   0.135390413293302   0.979283589996845
0.292384614280358   0.225044116222331   0.969168745818702
0.339475707967995   0.928723119716829   0.702836966637189
0.659676685084322   0.428342051982054   0.864560446794996
0.121877337759687   0.822043843555168   0.877469398656220
0.118033301820776   0.736595049420775   0.872477733453054
0.881914245363290   0.546176012393956   0.653725420932977
0.572628503246429   0.327361370780885   0.806197365441233
0.424083606443565   0.324894180610470   0.098895584244554
0.634271414702299   0.852645299650989   0.482158456462873
0.242628887929162   0.187772782155553   0.262113533589381
0.523534781314237   0.945216023350314   0.254013415978966
0.496762654089085   0.259221167432309   0.616106375960691
0.760602037877433   0.289402098656469   0.210428638497635
0.938341830808707   0.138861980989808   0.133998921488232
0.793259350280705   0.309498714313036   0.999156047554720
0.491248781744524   0.485906387424047   0.244648719720616
0.253986452483422   0.992596440106752   0.558106319206453
0.123516084600718   0.243237180260647   0.327739787887621
0.739328347500016   0.225193268803959   0.022949308363829
0.914294830746153   0.362902838912031   0.756422388157727
0.555654082286796   0.146122340601438   0.924264588647117
0.698828446562840   0.183152806597717   0.864029590342039
0.197790762641631   0.427272095629572   0.749681158126028
0.015505952887125   0.914964762956634   0.092392949007708
0.589221244266559   0.937653434951440   0.181245191288023
0.651920308401401   0.253957409768466   0.194305554791394
0.584280397126462   0.748111179382297   0.740433033973169
0.995634259929342   0.752478801639289   0.136571019304454
0.354557602405392   0.105383993124603   0.999714747334215
0.708883565456020   0.567998955633726   0.863484157494125
0.608677652301506   0.785997687311979   0.881761808118868
0.589152951986882   0.343991428464132   0.364954351109333
0.510584441199336   0.433493360403947   0.669588878254421
0.227660239892353   0.117860955869093   0.274968135828555
0.142724022316828   0.195916464836020   0.474544678145212
0.011596099850764   0.023184197587044   0.119375268456826
0.594231570745799   0.811066518780529   0.644168720586721
0.376794095964523   0.016496503122033   0.370722151337061
0.584565593033246   0.227929996171650   0.912202894050249
0.807210120359316   0.797952975801521   0.390536852370802
0.585088115052686   0.053638211018601   0.845277325865025
0.529349531012718   0.353248190997663   0.397361704274283
0.810283824230367   0.889299030548646   0.076257370953278
0.973592483308771   0.294188049521198   0.479849286717002
0.416410299289688   0.604011592050055   0.464261315219692
0.982958002237646   0.513708313159550   0.943937525337842
0.020749814623046   0.132536792135672   0.081786708940604
0.545597195228140   0.921718538860861   0.255167627539974
0.515135831901883   0.311996346476019   0.832058490644332
0.191776499028989   0.695715289476723   0.329445784342573
0.896553520719101   0.503638215070284   0.985129967216397
0.694530265207522   0.945746028581475   0.152952327580488
0.451193384900705   0.862068957372239   0.849469310973193
0.773305728451161   0.145403718627968   0.240616535090503
0.855206060679177   0.144263571840486   0.186101192639396
0.640360205131889   0.707205860512057   0.201420507049216
0.294593141372285   0.669694667281724   0.721760295274602
0.611510559329954   0.926970601481727   0.517204463332341
0.166659682225557   0.254385750217193   0.108577630790116
0.771196904984636   0.572729531156732   0.714196106564751
0.395520944333623   0.111576991349218   0.078957767234395
0.541375741652815   0.482509479642861   0.487779180980344
0.625989919700743   0.050096349012647   0.194433772620912
0.909441556586349   0.365833629268161   0.147545196296590
0.472597886829530   0.294335886701213   0.461889778260218
0.467649919066807   0.194034826703917   0.201980591184204
0.499073015080256   0.357358581990896   0.412854571973570
0.040760434089946   0.697357480606962   0.203634999376719
0.157280971384919   0.386487454103597   0.124357019643847
0.191043288281976   0.465139747940602   0.359368653588540
0.308594897245831   0.138605547592762   0.185334287264067
0.693840734726315   0.928949291690911   0.528583364670372
0.237753857794236   0.188221948147500   0.962007067772448
0.418838690179290   0.948121313262302   0.457867593795155
0.120937547102346   0.970042745996731   0.794921845088149
0.910051630855633   0.518115644777909   0.510840675781137
0.507687702301066   0.404367320944443   0.684921171284149
0.408743084643206   0.095138267843326   0.648720635825698
0.216045459071685   0.751274732871230   0.267797831405143
0.391324217381741   0.937800162623454   0.682856907946607
0.228631427454356   0.513267106702679   0.786112701302582
0.088108517405476   0.628370157685097   0.866652362782831
0.461775110362898   0.366940684735798   0.091740189554935
0.416480309753241   0.009166735150674   0.536988780221132
0.111340437244217   0.881713551456070   0.898751034078393
0.869910419329906   0.153086162608556   0.566782173404087
0.463699696265364   0.086326034126829   0.496912784520337
0.530854784857553   0.695172759557433   0.628860328709577
0.663280397951750   0.497949366964500   0.367536472752839
0.152319731884812   0.356860599192211   0.281501133615692
0.116886283561072   0.480944157416789   0.590760055946314
0.440351677134260   0.998039652894498   0.597598618161081
0.154811248669217   0.121824323017841   0.990440891077349
0.442477233115551   0.718293101332552   0.584602642120599
0.854602709403649   0.543977600633010   0.604212175513541
0.294303082973185   0.295755337307546   0.503829197778811
0.453009939841114   0.009509302894592   0.244708298006957
0.569053674786927   0.594500054106257   0.490381472954461
0.341658446688453   0.123138525553732   0.395529595009624
0.745695752483329   0.985400877060620   0.097878459255811
0.573915090459468   0.502008614073127   0.697736193269781
0.106148120873065   0.925260766730818   0.061832641260208
0.543424286187782   0.310660800745231   0.714048325582114
0.304741385189895   0.207130999557178   0.533735760759780
0.243523204801189   0.380897317406724   0.120360092200288
0.817401076492714   0.517848922250007   0.931117332120524
0.733768687416806   0.204595606092326   0.824327876031202
0.554929862484993   0.542701391565823   0.505280685094004
0.297395239475323   0.914580430427622   0.819062369873688
0.183750112753103   0.661586655869199   0.374324087653031
0.639470272945525   0.804432900439155   0.133413537142421
0.482081776292238   0.757713389132232   0.584497032750608
0.953771304999956   0.812950904501015   0.007974263178507
0.756926358216083   0.465170899677730   0.456681488760357
0.186474117629453   0.175714920223560   0.263563674684330
0.618461573433475   0.801708791919421   0.908722753909450
0.678648632024934   0.546250666206255   0.388112119035971
0.504241033005338   0.405904968251408   0.487260334833587
0.885388975791643   0.150379245232733   0.506008314838324
0.778884626975641   0.880470508377362   0.464041265642480
0.216200635398491   0.110835797886952   0.246810609296160
0.594285778485450   0.780264941152848   0.693300572162490
0.738244515932617   0.763909544700021   0.167049701307765
0.516965577690248   0.190768756705989   0.744888570410308
0.781723855589521   0.893558707860477   0.091242643552980
0.308007641407896   0.073624106745393   0.008383918136449
0.942370342114721   0.081503120834651   0.056812797324095
0.841378887302738   0.721808254507945   0.030683348602072
0.171750603997931   0.047092817171492   0.938454363394061
0.254719088654944   0.648966035298412   0.755170329817518
0.295068019683505   0.218339903632690   0.286444642728849
0.264838969420901   0.324453755318967   0.462376742419706
0.409820438732566   0.462024066151187   0.252868111066224
0.930547236937612   0.003786019719452   0.023814560756342
0.708113662118212   0.423759308064950   0.906037770471740
0.228131884152551   0.326959609462111   0.508982871169338
0.321993110980584   0.828092771938064   0.206008293084691
0.503318103730902   0.826841559287198   0.542482482196444
0.558737372613931   0.789317207195588   0.378401735932666
0.656749825691421   0.372059007539620   0.862350931806708
0.119452156512929   0.486680745103185   0.994050038631109
0.294483898054644   0.362063513587107   0.438222394754977
0.720533796143833   0.674641837773876   0.238317406861158
0.784381162681069   0.949053083491874   0.079661440001640
0.301433313317975   0.766710202587926   0.656877586443970
0.209837136057783   0.800507948506099   0.196868669688851
0.367923634352930   0.151062374891384   0.895232908013146
0.479843272145164   0.188067922583813   0.362811161589732
0.365916142360216   0.482372114713025   0.323311070179361
0.896038596538195   0.826699956519137   0.033339130776749
0.191046625112296   0.408066615854807   0.087429341469560
0.453522067533437   0.297317198330009   0.513936332204160
0.081294695629157   0.146061742715757   0.186549175452539
0.584948780191450   0.205128292779590   0.449411292957033
0.669469394895947   0.604703980567665   0.981595482048157
0.846337436347041   0.108913482480742   0.496548813431494
0.301427698592213   0.906078699925867   0.189860920440924
0.184565385294848   0.229881513528819   0.556320985351996
0.481570924205073   0.385513776104185   0.677455536923184
0.121610064137590   0.155697126795717   0.365510613449104
0.045963978818099   0.509515612029697   0.750937461884344
0.483841568570781   0.328743131296008   0.008730976678752
0.647281676953510   0.090995877695067   0.367399247882862
0.883043932784060   0.667535922247326   0.996815976770460
0.278311739744722   0.844891275234571   0.890841328524095
0.446408923816615   0.154250979805663   0.168816693945192
0.757743405231129   0.281067798583998   0.963682516973855
0.273925344331045   0.282406148440912   0.584833121458742
0.484116432751214   0.115243271358404   0.846305794482297
0.255673663841522   0.749195561989725   0.307749297138804
0.070610016616396   0.370226267558103   0.626546265705823
0.860096648611026   0.186678358532093   0.343477497670720
0.290090365336429   0.589172057339212   0.543331021356527
0.168824991059770   0.931451590225810   0.047730249761163
0.075256635593678   0.080078275764831   0.125956202022501
0.709501994500391   0.681645040081580   0.294246202689352
0.666207513893942   0.690006696203948   0.055164401865784
0.639128113690625   0.431203903977730   0.839730836434498
0.442330767305166   0.129195092050526   0.035333602932533
0.131888080251621   0.420905102150629   0.245131881841704
0.267521151612311   0.153419769363552   0.353654598791865
0.345039100695285   0.074092972798548   0.368010719036443
0.484823009796577   0.272893183182368   0.554155289143443
0.389489527327526   0.208362834257200   0.627800396214394
0.673072833397877   0.039384534402593   0.495821571931578
0.892794744026861   0.742298828495877   0.033805890146063
0.532914700933008   0.421287356760917   0.845194207102856
0.853053572834023   0.269449770714953   0.760234479561850
0.393751163660938   0.999423958153741   0.833872841747759
0.543821853055754   0.675525617116943   0.561437938632672
0.153188695068047   0.696326633681391   0.288632197786578
0.687178687538309   0.857187020534370   0.202322543990962
0.039757279806836   0.350945709205345   0.309737652951966
0.350228225318367   0.367526053581848   0.445498184493954
0.162769423247583   0.331076334439459   0.435692702187235
0.251424046448828   0.594524867733203   0.584588178293546
0.459058924667620   0.301526712539701   0.846831835785714
0.571531974919663   0.749990230831997   0.771763296078092
0.229315846291575   0.417015900540907   0.177175709924712
0.040869781511171   0.239754141553459   0.294683960890827
0.943496196548616   0.845473875608454   0.012614448631550
0.182104621601210   0.513606959275759   0.903299960524644
0.322647887195661   0.610054325839651   0.718491086710765
0.732895419821690   0.262024743965977   0.169713262154362
0.228958203650001   0.306227780681519   0.561420582499669
0.204518830482927   0.763905816874819   0.240062216270059
0.569350010846666   0.141783209696184   0.163568686123809
0.835319781243296   0.108973405255881   0.558891829529332
0.497680715388682   0.416364900359581   0.114794542955986
0.959540798760747   0.515958368365441   0.609261569673191
0.674524537476409   0.036520607551714   0.654217209431222
0.808147691197420   0.289152370661134   0.844605272503182
0.315039652698622   0.419991957568765   0.175850878731663
0.131094943014503   0.914059498094815   0.712680184462203
0.355501755073620   0.453457304335687   0.243382585797758
0.590871179457313   0.060042170782821   0.814299203732470
0.673027666901462   0.086922522317771   0.466238471675026
0.557715303722100   0.536516976488206   0.290622402929597
0.287700761593735   0.030597843706941   0.486512295839022
0.413498233394756   0.051694785590713   0.830405676780912
0.622088329215446   0.125336459920414   0.035808074351946
0.020624916570670   0.859990277684717   0.098119856532021
0.405922370334191   0.335953933621608   0.677179791503679
0.503713808172483   0.259393040649232   0.923119334275067
0.664867573243750   0.060069938412618   0.231996730520005
0.380466666609547   0.707743056609778   0.607010935237567
0.645845271058986   0.681889600592143   0.698943872288038
0.668883008795008   0.842230719928206   0.583095700180051
0.555515918011068   0.318522445551444   0.780074535941714
0.269668596105548   0.693607472669764   0.409766958412446
0.217915053671789   0.010334163675876   0.050171443739831
0.418970835563830   0.498441430341114   0.330011038330865
0.233142511665337   0.784784622696280   0.722613387691549
0.570110881590797   0.286138439212940   0.424325898452962
0.027487499584787   0.365756897572763   0.498998123326333
0.632655499968448   0.485568258680417   0.851797888344691
0.216432443427370   0.596926602335993   0.629097231310178
0.449892202692868   0.552653669756138   0.387607118741446
0.352969620663738   0.309123990495635   0.693496467883660
0.690027430615118   0.848109855590226   0.233146278553548
0.116143084545550   0.621797860347544   0.851299237798891
0.227091910394853   0.047662800607619   0.008699335058418
0.540315646987878   0.046575933964811   0.505165702723000
0.697193031195772   0.453141931166088   0.897432831756525
0.534283284081253   0.452325727679452   0.478880299899295
0.344849625464076   0.262087053754665   0.724236371060324
0.123565629807195   0.444823752437711   0.509574155911178
0.906342540899952   0.342308423709854   0.169685130745880
0.389885439560817   0.023037117897761   0.316961293886289
0.399404457701947   0.578919456304843   0.452907192604437
0.266605399612897   0.905772872419040   0.771574156728486
0.411275903806944   0.041893827539424   0.178841210880141
0.187123093753246   0.860965973015973   0.791778175007976
0.791398286053576   0.039799687755421   0.502415983551088
0.504091954568889   0.398760952466680   0.805489010078898
0.156746170625372   0.652842140904925   0.362353072246355
0.144195868361166   0.261230096338893   0.597162902263013
0.204884381423998   0.966712066026627   0.566885156955412
0.185438384386507   0.985471616714077   0.507679350918420
0.062638813731541   0.482087726625436   0.602701100722791
0.236842231727978   0.894402395348752   0.727409655688549
0.641675852036578   0.986098717359563   0.569879957130770
0.273769014072289   0.453082357606761   0.893416824742375
0.242759486408269   0.395114250769134   0.714865295188295
0.697936434404972   0.616654608797994   0.472492792682538
0.920457198863986   0.479554988985857   0.030587495653159
0.542886168546985   0.092281235410015   0.959322626498522
0.759342119843480   0.223133221632849   0.815206503338609
0.165525102398907   0.968414554544252   0.527097105359264
0.923551561468005   0.033382557504839   0.035666831037515
0.528861888153695   0.158311109252132   0.666693126348345
0.349401017774907   0.392916578667794   0.621351268407890
0.255658506232516   0.471157307147620   0.913853049932745
0.305029137240505   0.977324740642247   0.625812350537295
0.718228240374947   0.251470510597456   0.933892732855751
0.227435559010168   0.067175826163688   0.928513085140558
0.579713420174922   0.922537142288454   0.930674283227547
0.113637542296373   0.451925736859194   0.047776715265032
0.198033621831270   0.176509378922827   0.397160017049301
0.286922545767277   0.364792562666776   0.892100184587343
0.193377744943976   0.414693656785810   0.472058335707155
0.480611429485229   0.209760665796591   0.896119770801390
0.283980953957951   0.424549806385619   0.184987378942484
0.505064282732934   0.342294526131499   0.989430182918614
0.265380156280440   0.010840253617298   0.188914878867535
0.204317565823105   0.139504405650402   0.971746233799698
0.185847297149125   0.452471616872247   0.603249703850460
0.068798300330005   0.330109472371856   0.268669536580474
0.897915831922623   0.886015071293269   0.029857956849074
0.677081296168443   0.518882578988288   0.201283366949763
0.589844725967862   0.834308237765116   0.696675746178465
0.937512844132116   0.381119690348388   0.141657816332753
0.072716351862586   0.495545043151566   0.700926305651050
0.577205106580470   0.875314666607133   0.900367215129521
0.208609591962561   0.454155766300604   0.265137307364929
0.124106493206618   0.349753035801301   0.474230250718096
0.385278390714510   0.292062942738657   0.633925045888039
0.738378982648096   0.510688649667382   0.485437752489320
0.725980596734550   0.647486911001522   0.157097982496002
0.263320530480937   0.218672106577750   0.877314351300494
0.517486104816159   0.222370827207603   0.737837463911052
0.286136214288186   0.262428550222800   0.607976664477961
0.259799116759380   0.341491499823759   0.849296544510404
0.542971202751913   0.507268917578877   0.211986426671375
0.528496786715969   0.533676453907020   0.305663195627823
0.135231306967887   0.845245164552467   0.118243280556896
0.746390176015981   0.582948395174160   0.696005739714637
0.039638025888225   0.461743480439028   0.510230904632642
0.974563815257743   0.286507718429551   0.371208541170506
0.958367202353011   0.529164711103292   0.895920782908807
0.269900897674984   0.813494677374826   0.215889809956712
0.320116219962557   0.401447977963212   0.484182420490668
0.578854812100202   0.073765149809858   0.602658334108366
0.474066583081696   0.867444292949106   0.458787675601695
0.853311740001403   0.909856133135768   0.049578847237310
0.543450876522692   0.084065012818167   0.464000729710404
0.198845838767753   0.517884522753152   0.798986851302937
0.632622820992479   0.163560697677737   0.286187477905470
0.654603112361303   0.789080472429674   0.410377007534746
0.482555962091990   0.443161481822444   0.170607366045349
0.489492472273979   0.377020989252690   0.077479423055074
0.374438159268146   0.015923274785332   0.426870881877258
0.184187771480831   0.204012176769393   0.283588117291473
0.403054163082413   0.473650575756272   0.282339523285952
0.318250343910624   0.398431607157573   0.631369136485111
0.498440531083988   0.363435068466708   0.049699614449944
0.636602584945965   0.168054622121967   0.117319819186192
0.827456060481534   0.899524604992614   0.442182230384870
0.287824887052203   0.192448133734679   0.684178252980579
0.182294457136483   0.052555054007038   0.037899252675411
0.609370176310183   0.811721118752791   0.512897693421328
0.725907426107687   0.038955784399738   0.629839761369344
0.673117879008139   0.941988296209635   0.550974400438416
0.311916864037992   0.356336370171177   0.983827862104848
0.512710014378171   0.181300079466539   0.776282950274611
0.602100201495522   0.068418563630015   0.868087546130330
0.988118449566816   0.857115552656240   0.097969575393256
0.355613133243281   0.395521272513286   0.589408315280871
0.368340344171633   0.116619559689008   0.127813447470465
0.909379608384199   0.533669440332631   0.572957820932998
0.640012131777501   0.739003241730378   0.634881675506616
0.527054865207580   0.176058125316596   0.183708115007373
0.719595635296623   0.595015400190854   0.709607004863178
0.624557803143115   0.501969171144898   0.327574797799448
0.228270776815224   0.905634339555065   0.699273540031017
0.282547566193497   0.223023961666769   0.023430443688312
0.283657018208681   0.249816639030301   0.919474109856624
0.400778195154171   0.975893144723432   0.642620165278440
0.268064246514494   0.037309205395330   0.044847521042695
0.236478658282152   0.934012309333799   0.652541344417762
0.137737989108058   0.882981767917655   0.077902725240329
0.692121536956374   0.591041188939347   0.358414213300836
0.624892620911602   0.874036006072044   0.504862610194657
0.458592800835832   0.895853885848726   0.401897120274712
0.076698617455180   0.218743434109067   0.341359874849226
0.876894912033826   0.594410475157843   0.929695663813456
0.375612554481552   0.326868010873613   0.072777709340939
0.201972152245161   0.351071538877054   0.151395816018676
0.586724072525071   0.007055276784974   0.187534527116500
0.588102062864329   0.752560167562866   0.828022513165034
0.738995191457346   0.153218175834378   0.722402715709958
0.859665967912792   0.236581225185163   0.714589738147731
0.147293736677428   0.700846463247068   0.841525637479440
0.048596347125156   0.110848124779321   0.037876904500447
0.483908795680523   0.972412375067352   0.619170924587950
0.533835915669444   0.224789443255001   0.484496900755781
0.422551883631609   0.078649233395884   0.536480678565977
0.288389882111783   0.714167061826850   0.394279613432384
0.795279164679315   0.518012159300042   0.513756012205261
0.019049002971065   0.788591552124016   0.969742913347173
0.043851828433936   0.293472871076439   0.305294372632573
0.465123900838841   0.201802982333467   0.337047653435417
0.436630547956260   0.308813040751603   0.537936604272826
0.797797953753769   0.079068222731594   0.461677631409350
0.776686622847425   0.168054988346811   0.335580009179998
0.226099589729579   0.866925298269968   0.144340121573263
0.593991663662745   0.352657487846180   0.806845669272568
0.610913825632987   0.577139772894275   0.708251542564980
0.679311345759446   0.197532977832958   0.095012924250942
0.568500756015992   0.554918527513149   0.451047451365223
0.031492829906006   0.700304242698713   0.931953045431426
0.732654455556041   0.861669222043131   0.490799221636616
0.816488652205494   0.145656283211236   0.634249248344399
0.573832395907080   0.171603921442198   0.358542313278650
0.715635505391470   0.610515711380456   0.104872462354509
0.098822474558651   0.355574399425724   0.619039893250015
0.353514425213896   0.396300500583898   0.141179498996430
0.263438668827357   0.561763444767047   0.851567222924910
0.348723337925118   0.464545994520209   0.273115513934963
0.981205138272663   0.022644419825667   0.008655862022960
0.145937357562006   0.984378876196254   0.467406071924736
0.228921895855497   0.278543193796013   0.354676582119466
0.765411651291912   0.369350320010524   0.389616223805870
0.701281960225982   0.586504789462340   0.838407547881199
0.675863142920848   0.869051104457647   0.142712479960822
0.685099622280693   0.901407045652027   0.248955744632393
0.915603355405662   0.418638268818577   0.502326418553418
0.922426801119608   0.733616993117720   0.028251873598424
0.804403998006749   0.875739134605177   0.444451392578624
0.090342718498480   0.483160514864005   0.008216327683740
0.285555124605776   0.406323009497747   0.003746306812729
0.370719002896002   0.571633312754854   0.466238361404426
0.441428663724887   0.759188961872665   0.623451319149789
0.211332104383810   0.554580123515376   0.875422785506615
0.538508621992000   0.285544195074260   0.428072417904165
0.521403988545229   0.931932573520702   0.625902641483082
0.818727331086235   0.806295592909387   0.074602717868139
0.962713442462339   0.374561144151996   0.426618699906623
0.594122599296851   0.775635519722196   0.325446602784163
0.314744983793737   0.218247337492469   0.405594348767647
0.388939091046268   0.881440202336654   0.838901482061538
0.624896411758354   0.711736164451571   0.842315211733395
0.548621868346602   0.477334093108400   0.838875026306718
0.315118936694818   0.330145091957447   0.966407388503866
0.092787065278236   0.446436316191966   0.500023678961918
0.652579270654525   0.500279569131778   0.212144842564206
0.223262390511541   0.142635877638811   0.323650189031695
0.505978626133304   0.098576094054687   0.763399236596997
0.973716248664188   0.352887291335576   0.490020660658851
0.557521214796395   0.478373428584813   0.119086559579621
0.313147955586834   0.305694043248928   0.734653597899821
0.632776531231176   0.196036419023960   0.938363130553565
0.112398833477285   0.766863490205820   0.882142558717368
0.036727676860415   0.227515237711361   0.572677228201694
0.010916435496129   0.260845160220467   0.337095274253554
0.826407012284389   0.536169919780009   0.555994301807133
0.551588446863235   0.969809935138810   0.211440673349529
0.314414597101542   0.019994316031723   0.177251020609468
0.377091414962382   0.261651876161373   0.642195476440388
0.699271681709185   0.733011521040072   0.314538765963461
0.067451087678230   0.403290956043017   0.403826079288563
0.749211992941559   0.582221577634246   0.663691078178331
0.750237795430937   0.097944808990448   0.434686232554693
0.317911127126822   0.263395953459311   0.612696786030948
0.273424801038680   0.439790097778777   0.956358982362315
0.364634556176651   0.114433276695959   0.477776289029006
0.106159196828952   0.369100573177736   0.222020149593324
0.604147138333453   0.629156981131696   0.325275154973969
0.013556524359517   0.074569072846618   0.145235389508272
0.408749496284563   0.083120404468904   0.823495287053971
0.985801597062321   0.259164254537692   0.357791071842073
0.741453798891471   0.929147753273308   0.109851923588733
0.638065539074962   0.277411400390266   0.427952324031383
0.274945745966995   0.337989099770455   0.877604725952953
0.511773447271667   0.271837304686249   0.271159157271582
0.713103452168900   0.691793801469927   0.437716739728763
0.915943902098104   0.340801983776567   0.493118154925209
0.858553405265819   0.255888746797335   0.452209306057204
0.107672467132864   0.155140088963299   0.205323866442589
0.709985191209564   0.620656562579042   0.659928080164317
0.003937715516973   0.315849234008049   0.334972438848898
0.137877106805092   0.149277599881164   0.195144148002804
0.571193452800877   0.943353287557656   0.208489494615478
0.624261504388702   0.876091978444075   0.087512483434500
0.217650787792590   0.066723565423056   0.984250726883389
0.799382293804282   0.124185122668744   0.160415417677085
0.411894231450790   0.289728336492253   0.038286728172407
0.798295638636982   0.668401941383228   0.977425084707274
0.664500866628457   0.007775064542040   0.205719247652425
0.509586925723893   0.452406216816987   0.155425183005225
0.257276583656304   0.469045622821261   0.304863113504595
0.809749646385319   0.177347220343192   0.680387234747606
0.551479939623039   0.968980827682276   0.914735660410970
0.582876518779108   0.566300776745214   0.397017767975105
0.647547256306707   0.543779682538608   0.968602023853046
0.631381654491694   0.830177845385677   0.966222894303291
0.939323696788996   0.158977568616271   0.195241535321172
0.956355074769104   0.216971266030601   0.601191374449589
0.271303969603992   0.749958606396216   0.700291477805975
0.554211021479192   0.399942360115889   0.416610344965969
0.830875101901453   0.968807226315962   0.054857767813333
0.370485491262119   0.032507177301700   0.454468279706964
0.540881852392832   0.788271979584402   0.829897510801240
0.204302621804861   0.970792065515353   0.749490688637307
0.335112763162744   0.202373670335077   0.475182991000713
0.380418929061032   0.359404358697915   0.434601308111446
0.684425140301350   0.727780671997575   0.559320646622978
0.331715130388913   0.444669425393966   0.223440861992128
0.858714290577484   0.308901442795223   0.488472282242991
0.046111642405461   0.506704986939189   0.718182618490664
0.193273979273883   0.193243207044286   0.450242237064479
0.060909160773031   0.201163800297171   0.403359924110245
0.368800526450741   0.107470905000552   0.096696587463407
0.260238561963508   0.632534320586710   0.624903272817729
0.152002926621759   0.227257541146178   0.553195356001470
0.172431138891497   0.152931799518529   0.342407590280833
0.980012446460971   0.968303812457469   0.103814734811869
0.072721989085477   0.746256704001435   0.174318326903689
0.447612245286955   0.776354392580762   0.772903395299585
0.453013699903791   0.104863708050254   0.084460613628955
0.549934922351744   0.123873099700798   0.425663473940894
0.522010273583949   0.375559505594789   0.031124918720355
0.833008740562289   0.203056662034126   0.389949486829876
0.580892280540733   0.196390347778405   0.923523933188154
0.515330041214853   0.009973758730567   0.836998987991723
0.921137504659742   0.908804549416702   0.100229778789939
0.168214603103652   0.315385220275099   0.406221377265066
0.934219332898128   0.548296080289419   0.849520446666709
0.381302314732808   0.169573549453772   0.668312041191436
0.478664116928008   0.285567002231330   0.609961776497636
0.492914464579543   0.822992256640558   0.844782504925276
0.543384517047008   0.899303855746720   0.278887219579779
0.673581247794140   0.593228478259453   0.952049595821852
0.353473845270206   0.546968331244848   0.454406751009384
0.615595459945489   0.640995074938531   0.270604305476571
0.721985915515531   0.366638367622605   0.479746195192380
0.100909051549145   0.827014917730344   0.901932903732301
0.281605633572395   0.472871504646660   0.325843294376298
0.294993819414869   0.747561526030094   0.348154383959231
0.254755633691969   0.223408422451160   0.039832627107877
0.774761590139791   0.909293910401160   0.477686432273707
0.642463061923147   0.109386962863387   0.769123043449873
0.364619567666943   0.214104489200185   0.538433791435870
0.856908347405065   0.160653750375666   0.249249337807993
0.790827849722747   0.128271352482224   0.643170041112619
0.427601150517405   0.839443025746818   0.848937287489717
0.533081420875083   0.185288975929400   0.891627355740412
0.498598286229637   0.685853781364236   0.484665529773759
0.745208994034152   0.110553561526392   0.167596318186249
0.232074500225521   0.325342897708628   0.112421671262789
0.574360182999639   0.219841339955430   0.194363671532822
0.610899738056827   0.084258198621270   0.806702526547050
0.719274292255488   0.103753537625350   0.437284775328405
0.676798528486298   0.326453035041192   0.322879815645991
0.320871287866645   0.117434297809142   0.800017157763545
0.493511955732377   0.586604156094332   0.383437302618517
0.163836153873378   0.158283693739982   0.213046153787565
0.069053933838033   0.210289362698580   0.144332116616883
0.681141403874589   0.530202719459689   0.415913221123721
0.506224503374725   0.333266508434902   0.958868123246954
0.656715525273625   0.106624437891211   0.740241792590247
0.107619728653818   0.284619955429905   0.165222874923775
0.351499916402910   0.058104224601977   0.339769023873874
0.154257211118174   0.935240399187668   0.723390103934065
0.423870137449838   0.435600992989173   0.195373260674696
0.285179597148314   0.922310004305180   0.167334820647205
0.267539882768595   0.285074010983444   0.840485969504340
0.515576201132949   0.232504771283828   0.707055818717623
0.582495604358746   0.689932680250418   0.423655340636133
0.431217347485219   0.420536818852678   0.167494638125310
0.670344309716575   0.700497507662416   0.000086702021402
0.679030452794311   0.251037207011779   0.176906353997295
0.700825098882155   0.673556545381078   0.380865436140826
0.687577769789726   0.881213988283546   0.311836970853836
0.520772910699563   0.161399573647297   0.872537385253128
0.697278543435008   0.807357735168209   0.270509311949148
0.957321118238942   0.585869057210772   0.905039153024851
0.765699083554322   0.240399074269575   0.034791327499469
0.338374629683368   0.905673252359604   0.232641037042085
0.129985506309955   0.309333373506332   0.621180417896779
0.251524308481024   0.793580017189771   0.233649617897159
0.084480168688679   0.056389388989844   0.981998341901988
0.581282421760608   0.553270909974201   0.240163940898699
0.852139106423170   0.378768409222036   0.433316230618404
0.469519689889696   0.522511877400582   0.332948447253453
0.646791445848650   0.810570500934147   0.433755273012909
0.530966050900922   0.678908326559018   0.436175636875209
0.007172385271385   0.333109981047823   0.690320052029851
0.679943867485785   0.958249085366724   0.180604415262991
0.613637018590421   0.064230090810218   0.112047124534200
0.715405216145728   0.725648594937950   0.259220958854971
0.909074719452391   0.537361803330742   0.605468784813312
0.584253449817786   0.837934048044686   0.626961354109750
0.326791147818772   0.287282334546294   0.056163604206315
0.449272684946033   0.910197235886817   0.486684940544689
0.535780400742856   0.491898983782253   0.518268638948325
0.314304394393157   0.555190976141930   0.493612144240849
0.935585999204443   0.520567657459610   0.559291326129858
0.513325420666984   0.813034422798813   0.514189106879271
0.834060475205737   0.750615192586275   0.045552770220062
0.268331179479295   0.294247144102019   0.083442418555930
0.031877920931038   0.473877259646601   0.036206724395885
0.590887313703079   0.139269360845840   0.263365608010719
0.601089866230764   0.062204452224305   0.694975022036582
0.174149835584772   0.272302255392619   0.591885427150774
0.605463031611397   0.933807374323809   0.010711290916506
0.316249729883103   0.737958784984895   0.655923833050213
0.389931784672054   0.120069622349349   0.527140719678928
0.198000928966214   0.651868774726113   0.402290694425088
0.567272314449668   0.529346602720749   0.816284026291820
0.337569581653796   0.229305479522117   0.491134690072625
0.725450891864222   0.591734569130495   0.518047185718265
0.237850930622307   0.068155737310996   0.959410500680323
0.125343213367955   0.987409180338240   0.857224127685752
0.631632200101375   0.079586397347200   0.393392847130915
0.493484960764481   0.305601934178764   0.663847485538126
0.597898689123769   0.702011534829015   0.370019509370196
0.213187857562066   0.791698540818238   0.747245535569433
0.407186802352889   0.218632199905936   0.570702587294425
0.329593066056867   0.792402697897724   0.315065703215504
0.655363684091967   0.725455392452343   0.487948834595982
0.071252558053603   0.839122811374040   0.110108310315190
0.759762793622968   0.256975191760823   0.984881081877246
0.316880677067417   0.032709905524128   0.497280049943360
0.602890321171389   0.920720590324738   0.981443719837394
0.506183230744679   0.516124343893806   0.290099639879231
0.320879728304830   0.954146268750653   0.211221617586101
0.824921636788084   0.522519409354166   0.526496153561477
0.587650192969746   0.597101378479656   0.404866459427956
0.669626846254683   0.706675606691219   0.409875483061429
0.796104479766999   0.568850089251769   0.764502232058843
0.400001621130589   0.166619418210042   0.935817575100530
0.142642193797288   0.347452381010128   0.582979314156199
0.237535453548294   0.331379024402609   0.477560287301741
0.592775421735215   0.685869675824452   0.768691520131915
0.208201917187149   0.405967039266907   0.417309164218695
0.773260040846076   0.219224926564030   0.785470053434112
0.535901668610502   0.620129100516926   0.378231528666723
0.105703263014900   0.327238547019028   0.633498411233355
0.633992855136780   0.643918433839978   0.185655359643495
0.295461743263264   0.998048116043369   0.128766700970834
0.185423362122345   0.533209293745842   0.877066662856815
0.910893804722337   0.151419254922152   0.181670097451050
0.123206871408078   0.497012645993935   0.865761073089452
0.996311908647501   0.163920328817098   0.191862167576435
0.669710970564666   0.040664447827067   0.358382368070434
0.052289174597155   0.158980397642590   0.195186019357795
0.390081272889869   0.757684753627275   0.633200441693311
0.178939819093616   0.449663860129744   0.766141356286716
0.235444199819554   0.385543465401187   0.745052404954484
0.782843041158485   0.102120077543152   0.626060064251320
0.763326467861228   0.558644350105170   0.843463588141812
0.490827204968324   0.425985445350384   0.548619188122372
0.600181039680408   0.884605699849527   0.201605629332751
0.201238852263233   0.468492456580358   0.011094831039567
0.930407377807776   0.317057466397053   0.212567718140077
0.773571205042212   0.979572595675806   0.082719624177427
0.610307932606405   0.926496947069696   0.066029520774909
0.170258895541599   0.719013422214065   0.272520165262046
0.518518499306951   0.198987381811506   0.629305265986582
0.478199075446324   0.355490620822981   0.691697963584397
0.497101372665014   0.264812448151326   0.498998697652376
0.110281673503455   0.197113180996244   0.470997769156022
0.135235558713681   0.332447832390607   0.278337934152772
0.129917194727364   0.676119743821729   0.852879250093169
0.518237020902019   0.244592846567775   0.761431069492879
0.585339119410505   0.736498996657465   0.798610281798026
0.318127024609336   0.156361538034012   0.753128375600769
0.695747961460346   0.176524022433042   0.390023365834673
0.651251621384896   0.653836524639784   0.831265934489564
0.494003945248579   0.041261575506622   0.534109658499942
0.167051464439969   0.530193983984117   0.626982064306841
0.092975718068125   0.420940585856981   0.413550112973246
0.089092946128947   0.284996862377614   0.392575870632822
0.501339925231495   0.332164585912604   0.684086916761395
0.422061805464493   0.239941035632340   0.008001119330471
0.587199743208445   0.530955541333088   0.141593750262717
0.673581316221930   0.528982704718739   0.361623372630978
0.799506672593208   0.546319381724330   0.570565622019820
0.835499579380731   0.052897933187073   0.067139711163684
0.209417059795907   0.717594062320424   0.312739018822642
0.612940717157770   0.592732076923381   0.198205100889576
0.118810383621687   0.653155919782491   0.320545276770172
0.681629009144824   0.521235787837953   0.904908273308991
0.206946529820957   0.926649642468517   0.642893211365546
0.244815877900397   0.760777973944769   0.279239469822748
0.656600631887031   0.193254113513011   0.117865451669839
0.915767391746782   0.238189998803097   0.427222957525111
0.653263337016891   0.714364955194114   0.890804716387541
0.135180823067553   0.281028685437187   0.148051765649864
0.652356591536583   0.482181003054245   0.877289696632143
0.683207605159900   0.182243783377168   0.008995872367151
0.648409536436594   0.152089741953131   0.983815066120622
0.645011065004237   0.085442808357117   0.718479466946274
0.540910537405847   0.452536903136367   0.108878732244935
0.202320994298103   0.463066970040981   0.295703460832620
0.529027410201351   0.508132730650703   0.580508689873271
0.521316065037559   0.168821993864181   0.721292977660374
0.287456898393718   0.009589399611373   0.099246545240423
0.888597730190035   0.067667409629881   0.064603670914791
0.409544543171594   0.882649423026931   0.711534114547172
0.363344008769247   0.148208101785898   0.184549062036635
0.599089899790194   0.917402466930898   0.546013496138084
0.029346562687124   0.729455957988114   0.945882588453924
0.265546561349728   0.820968566162696   0.651122035442075
0.552090477057448   0.887453375983861   0.884370100651477
0.679853767450951   0.541443251320786   0.332622188709861
0.683374315841329   0.554545675041877   0.112294214300412
0.147631030732996   0.176265705487510   0.421824896916997
0.041718116338282   0.784990184526053   0.132764669552643
0.892411082231904   0.465061541800205   0.037970223293130
0.746470675842817   0.152903740064379   0.290918847059673
0.718862938631637   0.949932274952335   0.596758735243110
0.595479118952616   0.038419998110057   0.191766579276963
0.542064179532959   0.381876360109379   0.979217223176682
0.424986647759043   0.805819512903383   0.647301402661049
0.625565573364851   0.821849319561148   0.485907532813617
0.386222629606910   0.450642640986631   0.233923438175770
0.726825952491353   0.748369574644266   0.457213861434067
0.671106382250482   0.722969829042461   0.589560137221543
0.643631124405526   0.149902346161940   0.038004738220708
0.116901842871969   0.009464276155743   0.071239070805567
0.605969552229888   0.193567580782741   0.157293000646979
0.339167469225436   0.139760295172072   0.886457343922630
0.806419789770820   0.067156205050378   0.489635067343161
0.700490640890041   0.050473374281712   0.130748056668461
0.059006140474602   0.216437656652427   0.489379933336668
0.394929484883505   0.952447231379529   0.290780498807957
0.285393374731490   0.959658270359658   0.644595341457580
0.955299493469524   0.234128623597429   0.494496507562156
0.528288662426388   0.336930321198401   0.701838310136129
0.657411865360761   0.592561698216855   0.735891038493598
0.075155865044202   0.362077342011339   0.271123553651558
0.333109271828088   0.870449410076803   0.829091122578066
0.647588245357223   0.289487517609658   0.890135417493397
0.794268250227435   0.287282047280612   0.874290226037408
0.664308555055501   0.342948109188070   0.876039935596103
0.691873089834195   0.089470875838497   0.689563368279696
0.315535237945187   0.085101457292547   0.300805902042855
0.543243784237939   0.183365632787671   0.520822650778009
0.273936970075634   0.058741904408254   0.215760931881975
0.721927603488908   0.624453691966813   0.595450209166406
0.263598431301257   0.089706119798776   0.853109499700895
0.327794738910867   0.191850553007773   0.249523013356441
0.221872442572048   0.785892954356104   0.223424050320213
0.538743859110076   0.376480372077718   0.947239601432437
0.150551550078931   0.492282977661180   0.816754146617135
0.431364708612704   0.529859232688265   0.374466293078448
0.720708996336825   0.159618802910288   0.341432984257126
0.620336852414337   0.269785281385661   0.892714378046365
0.729991423219219   0.750900627198156   0.197375879071066
0.960638381874620   0.637048360635441   0.942164702601894
0.593776315171330   0.281458134348480   0.877751670716872
0.424155096542244   0.336170590059951   0.703081459530768
0.126572898384040   0.474964822996245   0.665708120428662
0.599870998776128   0.496811919992940   0.908699254785097
0.619204987225740   0.631348415961382   0.239334235038201
0.342950133478946   0.094176911382047   0.083259849496249
0.180751326818734   0.491261078217134   0.804121006797237
0.851948191825403   0.635827044800913   0.962954202632892
0.712009599394234   0.509678213680464   0.466697888860214
0.506986751565829   0.185564438790459   0.304551674870203
0.315693569926203   0.967462252766989   0.821921635994939
0.799519896169786   0.560001412828240   0.667347037899159
0.946715017907470   0.055793415079359   0.037522650319050
0.297732149440345   0.874313102602872   0.191756590138971
0.571182852319434   0.513995054152784   0.413113795181486
0.296797443196441   0.945948485293582   0.671836114977178
0.825210759788612   0.914512336338845   0.063376691095551
0.721850430000997   0.436326951853615   0.420760974004472
0.200106883072938   0.986096796796116   0.062954169993713
0.807715601655855   0.753245653226014   0.063821448723370
0.132563883686987   0.239372230488723   0.576383276045337
0.733136771985898   0.344503203821087   0.349335418843726
0.149840525240558   0.955956754415621   0.748840374664823
0.129609718133746   0.326248057673436   0.192659820300504
0.239274873233852   0.454006792264611   0.253839985595273
0.563707486510135   0.874181160526687   0.279315885051349
0.681186985909300   0.698078493176409   0.608020802582976
0.078825473929886   0.947207750932376   0.943104187439452
0.551031765595225   0.420375252497131   0.719130647002430
0.940138727377691   0.223020493126311   0.629096367523810
0.251194216261551   0.936757827709865   0.835900242542592
0.944790608864273   0.750068858068258   0.011904446125098
0.210462517211594   0.913282812704617   0.781376962675848
0.683853721663804   0.964063778566034   0.236595683061859
0.957399404059819   0.490833892064017   0.518763570158674
0.352173719320568   0.499257259227991   0.384189566355450
0.046834445430216   0.212706634202442   0.277641860178529
0.475967728972913   0.455578070518503   0.199745157550811
0.411097787685070   0.393480321766002   0.598710906218294
0.259106489854767   0.315056242609318   0.829981371592656
0.517628637192915   0.432921755228969   0.499001054686454
0.061611849728025   0.259963780039943   0.187690556340028
0.721872830899022   0.536548435337421   0.284033817273463
0.671201724940818   0.693793095087156   0.639269154307724
0.103413380674487   0.104243139975667   0.004056459990573
0.596024105545212   0.515715256639779   0.329756455677372
0.007664285408465   0.498165289976192   0.992013986188772
0.736697862212395   0.234130838202837   0.988863063519336
0.557039727833477   0.155121922293675   0.528184097800263
0.749379493389595   0.169048125145660   0.353415247265018
0.665335800189691   0.735540924887374   0.396338613646073
0.499834094031472   0.946177789510987   0.276198215859772
0.072456746968851   0.861959538251412   0.935261278301196
0.581092563498814   0.042361772082725   0.467509177233183
0.555569651655677   0.018339739654813   0.799605604910736
0.842785233861388   0.317172078075786   0.319953390134639
0.601896057082323   0.670414461074818   0.363971217492548
0.178022958673032   0.251624603881464   0.328777080450210
0.611564840063749   0.854226162111905   0.197619469353837
0.588378283480802   0.497398859674410   0.877922399470862
0.582894027650512   0.546417615875729   0.207497040835676
0.010247989955695   0.361969477675146   0.361732600255037
0.607643169606835   0.917393230386667   0.121873770296124
0.145754590505770   0.915033150949973   0.625772317714831
0.618266267929986   0.730318972457532   0.697486726712675
0.578336842168684   0.142006221129493   0.507362424024366
0.902153967028416   0.470789803746969   0.489153936038960
0.073730506979186   0.129752477997496   0.044353264320850
0.467361745033896   0.043144321318588   0.166581248825278
0.455482948936281   0.894312890355041   0.458695436541972
0.561362718588364   0.097552016756833   0.440609838248523
0.967798762274043   0.424212154907360   0.618463802877954
0.524159408523810   0.137227579999480   0.728061184934939
0.638981233892326   0.709489817803192   0.683462486514992
0.604916762993689   0.437494825843100   0.785310758362976
0.225159967586327   0.632321267202109   0.669600082206857
0.195031071803691   0.603950994664296   0.796854054787400
0.600180649447626   0.906687239381792   0.177019779714993
0.628428174654690   0.673396182313632   0.725410736870814
0.095286857226121   0.001627679625330   0.947961582105803
0.207500878391692   0.714293750337929   0.783375775817591
0.538732127335336   0.128274113599215   0.673983547617581
0.517701771780240   0.477836787055653   0.782751019353996
0.309255900883365   0.389331669055418   0.661036591453475
0.984756850736776   0.629368464954851   0.921484218842971
0.747981746475949   0.000881466758659   0.487256158334606
0.304620541983483   0.032383506561775   0.812792877469439
0.043995831172148   0.325323710801830   0.187690715313477
0.432175183031162   0.191726923577469   0.391689935955463
0.226856724022399   0.402537500076150   0.796486120848864
0.089770925591447   0.307042547107123   0.257775095340386
0.533452261247492   0.706521445631724   0.558942294410031
0.657322612028869   0.162860542500317   0.011954068538411
0.502737276984536   0.247077687288756   0.561276300311283
0.827890094728213   0.817328958601386   0.387078621619871
0.617076073284206   0.576238298551670   0.133455756998455
0.047990486052667   0.163912713790228   0.119937709625892
0.606995209593186   0.876723357077919   0.947657497142059
0.422953476828791   0.696253489990607   0.570415272651121
0.257722284855935   0.108577317969133   0.282861275522484
0.664455210570581   0.904094433164525   0.419538566969182
0.667028499380893   0.561894784122984   0.945228373658960
0.766087783185088   0.499151860087881   0.918192294535503
0.278727257635192   0.604983299470460   0.569387495522404
0.656693287793684   0.678594354681405   0.109700568000808
0.290922478166706   0.559573292803223   0.748016779633417
0.332713781651975   0.635774080938771   0.701771008313169
0.056952559328015   0.398650327673947   0.373260201497373
0.446139527096908   0.010454599585672   0.851065236693455
0.108053091376974   0.906707562981330   0.736462963853199
0.075449776762535   0.201300160882203   0.269874833294307
0.960496923462432   0.401241615734628   0.533463727783813
0.933828391358995   0.432244422213113   0.710643582964170
0.311742204245881   0.473617748175623   0.314282000871007
0.060152808924263   0.946895293948059   0.083414765446177
0.399631539407450   0.171504040168244   0.967567120486794
0.480881584971335   0.294277800345995   0.312745136543646
0.788927679679797   0.727480292883301   0.065283739111422
0.376007059891228   0.825780034522115   0.833217976815714
0.491031768345513   0.005839605753972   0.576321430319781
0.599971947699434   0.948693466987747   0.126029127875799
0.926572632500731   0.303146877295818   0.274376568518301
0.151753982482993   0.111256972994430   0.106790638052317
0.896781002538534   0.194535504211955   0.608861372394893
0.699650228603284   0.639048952722394   0.448480512604975
0.659637997941563   0.740075537691888   0.949953572254162
0.311623281526661   0.261531036137039   0.770739762070177
0.061164498379235   0.034551901546999   0.979862558891030
0.644058116856872   0.507230785523531   0.301285558477779
0.381230684264677   0.200765490774089   0.658781904573295
0.668713388024724   0.112107038826809   0.254905197295437
0.504169795710747   0.876583730984036   0.859252872403524
0.131689933682077   0.099510393642881   0.989349591191032
0.329232311713321   0.486112798353657   0.365843667418430
0.738545821339786   0.094271669604147   0.659682744160108
0.692203044987296   0.555237164987076   0.494316392023328
0.012004210754449   0.970274642056256   0.100120675450036
0.941538667794579   0.229046375561720   0.377722917010043
0.739638741225204   0.386771474410281   0.398922313537543
0.819808227611207   0.356720864475393   0.392611246819733
0.698919353961728   0.817857291845513   0.239849770769650
0.289560483697185   0.083613934200079   0.946273633272409
0.759718293522383   0.828624318790890   0.453858186935886
0.314990703064093   0.069363410665092   0.040271941273465
0.252490233948891   0.643910281309386   0.655272439344769
0.084864728085032   0.688821182728115   0.237420070663204
0.371163327889242   0.381887927048480   0.494444257676117
0.461320292240639   0.093622404525056   0.838844081619551
0.899502787661593   0.304540293519087   0.256580053792368
0.462683407649329   0.479388550657881   0.258537887622330
0.618512118001040   0.068970934824750   0.920580376679608
0.852022828971678   0.511055918655935   0.512197812814075
0.056226842242294   0.267956798914550   0.289893617641280
0.223512457666288   0.434291938979185   0.051341646835166
0.729913408896760   0.365216341170758   0.925748187679996
0.016845374122004   0.508646774698460   0.671317620317959
0.528481617465429   0.767279871761470   0.484765460207843
0.197346959242620   0.337424374109628   0.515255159392761
0.242720610196545   0.683041135232989   0.399179988362449
0.289384685585593   0.189672002023171   0.717034777354119
0.360194544125859   0.331175134129063   0.391710280881191
0.341977427718940   0.067038125899659   0.308907554252455
0.219264918440457   0.162075758803882   0.963112886621119
0.887241378795681   0.354602487936024   0.497942456924994
0.478815878298231   0.870062849343566   0.514627200487154
0.886068024212664   0.176346307999525   0.294480596633800
0.410915794412943   0.131702167241571   0.030704909950358
0.524888231754888   0.167190009643639   0.386242899119753
0.511503053619710   0.071478588769951   0.751054362504330
0.538594487307773   0.067059157326148   0.731472945817123
0.052019421451068   0.430568062838170   0.467660723497354
0.731977015740245   0.246779279283303   0.140612145272127
0.161672805601864   0.913691720968393   0.021687675388219
0.619556267268733   0.049041145863957   0.671422067252040
0.242139750389805   0.608887530652780   0.612534858249233
0.863635790292407   0.129418467633263   0.514404718064826
0.592378906279087   0.984147104918409   0.988551310154273
0.843799744337213   0.307380202334195   0.253849767516428
0.347144082718964   0.856871728998730   0.260031215738368
0.802497570248574   0.311916838706034   0.483612707434982
0.449453888094444   0.024518262544382   0.216061674268152
0.574918571724704   0.761347441589714   0.377418331233989
0.366817243109516   0.014346635925706   0.561026507536984
0.880455233786511   0.987034252376480   0.037029874209743
0.708260722727328   0.713588517104968   0.289368350529368
0.024976645082749   0.160064266242797   0.175811380951340
0.889788030217008   0.691682667574977   0.017660536281308
0.198930945741435   0.430108801933637   0.716869019966353
0.072736876692150   0.747487280743257   0.916494706213812
0.184672884427762   0.115523273900782   0.978878736082995
0.827374064000270   0.107744249771082   0.113691396561256
0.119514063200203   0.321854031981388   0.253894493731311
0.994693407443567   0.668455185839300   0.209482615991871
0.103002371349069   0.980340559611463   0.070095573641477
0.911287651329804   0.108846450928018   0.094878728376513
0.083803207821171   0.368233824381418   0.510518981980931
0.941460224868764   0.204720671541621   0.574320437036380
0.947197504596970   0.770385428744159   0.112335884411558
0.419568685057067   0.947491518698865   0.401086178794673
0.691700802290474   0.133112714657926   0.263935631202468
0.561167982544862   0.551290036683791   0.791848566705044
0.701306190935340   0.114230842268882   0.708530198668868
0.246099132111253   0.395773307873540   0.086479801101920
0.967292511105724   0.214831599595382   0.329935068779273
0.805828517413832   0.848513557168456   0.426576220455219
0.000528734061508   0.479275295830248   0.581177207683997
0.733678384449941   0.421354962639462   0.925309099339407
0.799727815886765   0.136089254447948   0.190861760529597
0.271548450037251   0.118122543355080   0.310355478448880
0.974869470253174   0.827783982309983   0.101869035342532
0.873927315504270   0.538420158436772   0.909958313011112
0.572743596063722   0.448250268085141   0.916425941008097
0.054011151055742   0.223625714777265   0.545143208399425
0.579546896604491   0.089101669103694   0.176716211874418
0.848540473369225   0.359521632343355   0.407339778448675
0.716504909660094   0.649885958906999   0.545916602740113
0.195136196108315   0.251342122187237   0.578509477000602
0.222115644970694   0.431439927753419   0.205773157340727
0.557343336472013   0.170442713496643   0.173002300818062
0.322162222792288   0.274683042558541   0.559917088812679
0.181880279188413   0.359718186320442   0.204704072615462
0.456168312186311   0.379660283823906   0.487858474731070
0.148960088059675   0.015589665430838   0.898695459993220
0.276701258434220   0.515168706374611   0.503112004687335
0.087467535848845   0.466178682965640   0.035633488883716
0.766752659662501   0.868116588006800   0.104920189767559
0.526994264681757   0.981318707760871   0.897002043575902
0.071584833689965   0.874178712165843   0.763411341092668
0.516279129265829   0.440206926031323   0.126398598021633
0.993017416762928   0.378996727664875   0.144028225775341
0.898947428646937   0.273562721265393   0.727566766023420
0.108053999578305   0.323635583453992   0.427351287233342
0.596243939082802   0.706137416324500   0.794950811796426
0.662717725077585   0.141886173849603   0.847135454396712
0.077823236911647   0.328506896847754   0.436742609247020
0.600120207475238   0.977966165585503   0.043864049492467
0.470179076848629   0.902958435960104   0.567840031433604
0.032739185948658   0.099783770387436   0.153673885549887
0.109440509461226   0.151605853337688   0.334532907128604
0.637261883889014   0.825247712173343   0.108177719296457
0.718689231094146   0.054884535247447   0.466843462133544
0.760350416824134   0.323500159303786   0.303179649008941
0.733798235002660   0.600380802605088   0.612968802925786
0.426229452902502   0.487032761745922   0.300465822917378
0.071038312730836   0.187791599804601   0.349930641164914
0.705414532010444   0.231968950548960   0.130523298996083
0.055143406676583   0.837385358177699   0.947826546566701
0.130005402945712   0.722025937997457   0.233488383901303
0.189865191555688   0.082645453113176   0.978781233899419
0.624632722321363   0.116656347426441   0.090399839612757
0.420644147633057   0.297741220735139   0.112294044529634
0.752921606049443   0.236628037127920   0.088796788114420
0.805474494007742   0.191343694793047   0.377911266087015
0.272417803139455   0.181459202965441   0.250515880650994
0.526553620750427   0.366728678935827   0.883074023666069
0.380263410524048   0.960880654750067   0.662897593912678
0.119327582105464   0.821386779935697   0.133429833758741
0.252905847927086   0.371703961755769   0.837916834521306
0.420136842261616   0.815447577965683   0.383551356878637
0.562329784876363   0.777314264483143   0.559120291834414
0.486221514866887   0.821863831788447   0.594508707295787
0.588531234066411   0.440473687987991   0.756972342100248
0.380226036067976   0.969039529644920   0.271552832503341
0.675139815510404   0.754150789283526   0.541982575025263
0.844285460825939   0.446053010387708   0.017981083933490
0.964210700506129   0.368707076992722   0.154048927347525
0.405690474358317   0.031233377178351   0.263983454183371
0.283070849420119   0.344408927089897   0.102637798777473
0.622848807428311   0.550226464702839   0.782493061960678
0.940600190128370   0.186485417478458   0.289227091593269
0.618194033438023   0.104327074210808   0.497172078944682
0.429559724089563   0.763483546055889   0.796554134836116
0.606739274369578   0.784448622173791   0.630623907093546
0.800267043972913   0.649357505261519   0.950165555996434
0.156399798696815   0.842408813645238   0.836544438794071
0.760498562590924   0.312871536390845   0.272017124567977
0.823248305836746   0.298931616067969   0.114439304150022
0.735992294248098   0.527069931963487   0.882883818367327
0.366458845275208   0.082370465498203   0.478958348511161
0.928029433511890   0.522451014813647   0.942409287387640
0.696530005830326   0.992280663076014   0.625872101121448
0.280489156382252   0.151219191343468   0.826203406641976
0.175510771567484   0.754794951594292   0.229098138227053
0.195636684671936   0.526017294135646   0.582569833471751
0.057466860680215   0.001557038900732   0.095513898060449
0.587660828041946   0.366458394484095   0.390325268359456
0.423579989243304   0.645288626070701   0.501898805247158
0.497919563045852   0.924492829263971   0.300360066519920
0.756117579813077   0.668094440527733   0.015426267955455
0.369301118472091   0.050273861160349   0.227700975723025
0.704928737066995   0.779812951706705   0.499281969040341
0.070296731376630   0.500165085668100   0.800097044218747
0.686227441549938   0.613866704019848   0.845073729580278
0.398135495058273   0.772138347784638   0.799554719623374
0.113285610178455   0.050600718470817   0.967976189953796
0.005903369982548   0.224174313283518   0.515881951267851
0.023615814520578   0.157610493701248   0.142344982280348
0.684820117660564   0.871087127891705   0.342618218613644
0.952082786042690   0.503432896612318   0.990143626809685
0.115491316874201   0.174872550078535   0.419064963930745
0.255970403767590   0.207075445748846   0.451149323021330
0.782518766893101   0.419268866512526   0.966238169078716
0.707943576562854   0.021359853025944   0.118319989610700
0.281559438891671   0.644464716201535   0.737642705355446
0.473916851298523   0.026542022951857   0.194666757858444
0.857195824153338   0.156896682241738   0.596699377497970
0.344431582928776   0.509657200654760   0.413999787291449
0.287456244060013   0.545114368142174   0.508948103768032
0.598719427163311   0.840859222603768   0.251220930192628
0.322434244198547   0.402439788729711   0.149247262523569
0.610884711738170   0.863937395961775   0.532945313530240
0.060443240503779   0.280340390474830   0.213309256912493
0.197834603118932   0.229207976402250   0.067115960025064
0.758109564555845   0.247477510228086   0.866735612491337
0.063450170575921   0.492400215028987   0.993023189613277
0.658150969041284   0.134024366252116   0.878296163967381
0.369336379598914   0.222682854155967   0.679987476254405
0.002850824638308   0.413838769508101   0.452090521647798
0.988720995029086   0.333385186630904   0.189021098401513
0.688283366839542   0.726120415701476   0.494181802161234
0.057093200310705   0.330346567345036   0.663086622991685
0.535674925893745   0.541648493368951   0.775535931283098
0.369449516800747   0.040399255818861   0.141373263508522
0.612501076268710   0.714286738761834   0.316110875531395
0.594340450711046   0.524847817583860   0.708084255172637
0.570070268865475   0.233575686362798   0.443024984933053
0.407369333301086   0.188598264144198   0.577005535339299
0.609007905353152   0.539378538148742   0.088488565476136
0.298803951091649   0.519473138578314   0.846519011876908
0.774917324983288   0.299736621530444   0.471717369822268
0.401757998976998   0.183296225588458   0.609006596477989
0.578746777770726   0.194926850479709   0.174357182587496
0.275854780878580   0.162635197234280   0.224360455162070
0.344679357668721   0.333462440660982   0.082039311317902
0.524120606790759   0.365658969684009   0.000427897602246
0.189021941329294   0.277413491485408   0.111357828296449
0.034350225175035   0.642725492914795   0.900288084487391
0.718534518903482   0.154036166696003   0.308696103484751
0.525620809424260   0.968106926634870   0.230930574627827
0.633002730910303   0.076828941798729   0.504976680535906
0.868869846829073   0.179540406535180   0.616620632093717
0.271275282517869   0.210655920681174   0.845003847884736
0.295663531134240   0.192866923508529   0.394271543002835
0.697655882514334   0.846992348952593   0.148337803681241
0.909885156134120   0.212780126453007   0.632535266460152
0.873819206654851   0.313327895857679   0.205917515569881
0.790853432693271   0.539731450779791   0.888103762091241
0.344916811594521   0.132199309306137   0.689757102237642
0.501933854240386   0.808887996727654   0.570041554100685
0.554406530376592   0.886574337903596   0.627124952031596
0.695559963636177   0.144092980571838   0.756356627825866
0.532329571956539   0.294787606589552   0.780674068005524
0.371637878336878   0.032082028252441   0.342331384106911
0.633183810492030   0.684819764260269   0.224633915912579
0.564998536931587   0.594048426042267   0.664837998095904
0.881902567857166   0.543564423926741   0.621185986562087
0.995722994841137   0.707295626891140   0.170715322571010
0.155359912533697   0.215093764355096   0.291373267608291
0.938740595718188   0.449516100145720   0.656830452654317
0.323381232063799   0.086222280785934   0.809960498996192
0.992227401651957   0.536309001594191   0.816895272309592
0.656106259826207   0.638109812358558   0.071836079051016
0.742796138781084   0.536060427645462   0.506545013335785
0.549318337415958   0.119359077351184   0.618784754648913
0.071866358111227   0.186394404066029   0.122593777355478
0.743665790016355   0.475684415765409   0.918230124243268
0.276296339343385   0.472304625863565   0.358138330043081
0.420169008706315   0.036707198810400   0.209594616002602
0.826917104188492   0.552515666713466   0.652244767044044
0.158306645908460   0.095141052193997   0.079410814454580
0.968644882745868   0.476228819965062   0.573987647257034
0.334727022671111   0.581195456937245   0.721937718372942
0.454495830462037   0.912357778761819   0.374042543837801
0.130682202218834   0.991033982762085   0.889232542495090
0.966240623146483   0.120761604175885   0.088873054477711
0.311773625558453   0.792644019654789   0.638182910787885
0.318039008992089   0.015345560999843   0.145994403873509
0.253879409773408   0.877382063016906   0.157266007322983
0.096947608119890   0.188244549421906   0.442634275520976
0.505439085592443   0.238399311090462   0.592270269248001
0.130836954281605   0.174828023329609   0.255890033214612
0.221777080693584   0.249561351725501   0.075215217984258
0.034671557988023   0.888606083024687   0.092198427763623
0.102427592977957   0.968983925536560   0.846851764899388
0.152327446712743   0.237918943566460   0.314864797073940
0.495910168350579   0.079655869228924   0.493072757897509
0.099224383718138   0.487367025482996   0.750397519593395
0.556284830113213   0.160726927127098   0.384003142419373
0.661734977883907   0.162627316752275   0.301489120302964
0.718973577428718   0.133560880139924   0.246377255026779
0.950956906056733   0.302660345916419   0.323537781938665
0.186265374624054   0.099907172606394   0.063665025282446
0.054741677827299   0.385660680635011   0.602846621158125
0.697113965443680   0.311199341466633   0.909662732667405
0.137167513559513   0.897783166017469   0.024249679355326
0.658454704610497   0.585070404317436   0.004280410895672
0.104347216245921   0.888602858521214   0.665022264863366
0.072185220021224   0.029887048466020   0.099660920331405
0.727283857499918   0.667446974583613   0.182482677368423
0.431596040762678   0.092103847960936   0.564062436348895
0.021342752251669   0.114028462003682   0.055192864315796
0.448524665163168   0.157899006550458   0.839511770103471
0.583053261675938   0.969194813728510   0.961062239405392
0.664122007185260   0.515182598851482   0.146721238980316
0.591156838601114   0.753967097371929   0.349869406522267
0.968580228955076   0.417438064911937   0.111176991863573
0.276710869345150   0.451993302483299   0.511762877999425
0.319651122601068   0.066347702057490   0.246619703319647
0.125835992585788   0.477906649075266   0.767280534289236
0.504764283979602   0.274762111541506   0.670181980163860
0.743222654809860   0.774923037785060   0.446050022225895
0.729250304407975   0.718981738174691   0.203412176493913
0.276279838929158   0.484443209805328   0.788762368283289
0.188706213439385   0.548555100338734   0.804905733739394
0.353825488952479   0.077123573720197   0.424525837429471
0.620155526419685   0.318970608279900   0.324909348339093
0.396391291716544   0.289225353245910   0.326189576223034
0.279256786078206   0.215005558864374   0.664961694141624
0.676130634018769   0.481917090380008   0.393008825171277
0.196021362343498   0.905543763339288   0.924780822759033
0.221398838213360   0.834804588724735   0.699634384488886
0.244410498680055   0.972480792967209   0.095393480956970
0.536570955291124   0.117195044042887   0.704789482207998
0.963901775988302   0.531546277230902   0.703918583386430
0.827928050483329   0.085971861399770   0.507737530146521
0.244395664325870   0.050694807161526   0.817619580152082
0.520890003813069   0.821653970600762   0.403898896938834
0.767308427101549   0.675419286794077   0.985479237855858
0.249130906727053   0.077523333115023   0.906611087997668
0.108766500629528   0.660746180016718   0.291711966053962
0.206462443557767   0.931714430486042   0.088734713117908
0.802473523998828   0.275355032431401   0.105991351026062
0.152299444250291   0.504921207125982   0.915465403675126
0.132142353134781   0.336147976816780   0.444966360875942
0.878372780397628   0.619374270291617   0.951646816373668
0.571553742337165   0.780095433462682   0.838715977047128
0.748073017814742   0.258876889134009   0.444687867880650
0.588922421476635   0.876549178740776   0.584143008988820
0.242751096056610   0.893981436051773   0.883611985680823
0.292288857798921   0.289729225006281   0.559322847440372
0.348213995400471   0.964164437536328   0.659405174681092
0.936168384030545   0.881010729806382   0.099703564958979
0.867323464201557   0.468687192514280   0.018113753915516
0.068809956034267   0.663718249952707   0.253050974180839
0.516820175616595   0.480101759382027   0.569996193829851
0.806590651929419   0.287468108846070   0.050416512337835
0.665610227948660   0.078648818520553   0.165238762160492
0.724503454057530   0.308859999932554   0.927881691765217
0.815998587702170   0.311351540409745   0.270606285752765
0.898841843892374   0.172786135598821   0.523240058009842
0.341273178004513   0.223780285301517   0.389533564504536
0.832286589792333   0.138660160381304   0.606650175779953
0.688968842076270   0.781320031890255   0.528067576235465
0.419219257397762   0.858373357751709   0.345759506389392
0.552237624781871   0.488644982063595   0.149845240920569
0.397859241245815   0.343228953171399   0.090338448293966
0.709819124631549   0.572221701666290   0.193745337412764
0.681947382930414   0.589668829716129   0.786399535809315
0.606491982340794   0.619386444962110   0.293634942887755
0.595887814649819   0.016611937069893   0.989565420620484
0.556538213245571   0.508088044602696   0.670817026252831
0.416952421596251   0.385217283109824   0.125137083747730
0.842957477042023   0.023146444081701   0.057429565831360
0.674212439632307   0.829238904160195   0.378177695938111
0.321274530834602   0.921549237247543   0.210564144065171
0.153386697348424   0.158105217793339   0.368489180873198
0.478097152277551   0.116512885548978   0.143927493352372
0.715001863555029   0.630194514874631   0.272426508765650
0.448902753420235   0.385466600841765   0.115761797836079
0.067874481662585   0.006216698931728   0.965672115628573
0.455857578325058   0.491392593532643   0.288041632100943
0.263975460596714   0.982918952888455   0.587543547540133
0.924507760035829   0.301967191272138   0.306546283945316
0.098444465888381   0.483640898172093   0.648835289682206
0.320242127804249   0.858963760904155   0.209398570956661
0.726577409719409   0.845209867381705   0.133878008167052
0.856620728131589   0.326850896771586   0.150534584253055
0.447875470288613   0.339477682037272   0.081493764293970
0.798065266004583   0.968118634244996   0.520108685398891
0.922892583130659   0.496929735322424   0.002856443745240
0.400734761755939   0.975142141381620   0.457117767497947
0.703472543668534   0.595139193268375   0.078576503188413
0.565681557943738   0.677376125774539   0.478322206608100
0.825343860413923   0.629692407242164   0.945740047622099
0.879866412953071   0.376361196306677   0.448964988784047
0.571386531597307   0.058979312723253   0.184643785860548
0.549953718456658   0.984953846598923   0.564563221090269
0.983216331056847   0.310921886353721   0.279538036661876
0.356564018525818   0.922169488003181   0.253558512996472
0.066200230774744   0.892053789465625   0.944805274555393
0.736349835433472   0.016514674352669   0.103735418777292
0.393118320893417   0.038221468507039   0.119015776881383
0.936010565320575   0.740753095237068   0.120814193423627
0.254431080150702   0.202087120625213   0.933363470731888
0.315091257891824   0.350391962259400   0.700365791001261
0.307394363312881   0.241733996329202   0.030155824618543
0.421144779644642   0.385662458321293   0.533473750921906
0.320533210299583   0.235829329595289   0.296151644200417
0.506789096485538   0.291319268177268   0.925742253743325
0.905802065305135   0.239942524380513   0.682531327107745
0.467212367532614   0.330196857319708   0.846122671772311
0.029331645117563   0.300805949205370   0.450569099799067
0.154152255287739   0.910571117438301   0.657169645020385
0.215203564602260   0.956356311074678   0.595926061265625
0.268070733807175   0.177178488169239   0.767390954214159
0.709605844349803   0.559079488450190   0.223815336125905
0.498350057890869   0.783987967530266   0.749611400484911
0.514575846507523   0.264423943607058   0.700213128247263
0.554115176705252   0.638336808403818   0.699479401457676
0.200448427425569   0.288290980675431   0.366895805160564
0.822353086442463   0.565216199062816   0.813954686215337
0.551021502043114   0.685363140846071   0.505455034399365
0.314942037162674   0.103884449779519   0.130338912998535
0.098481859469694   0.168240181818479   0.075401062540224
0.598113708718673   0.001035557685610   0.102936983591423
0.936030341951820   0.549700262525039   0.816681744778918
0.363952228526206   0.531014104682845   0.428221570377392
0.657731331668880   0.774036231225286   0.041808064720231
0.791805499863381   0.067271720768061   0.582794909550486
0.821025652402144   0.339299536908352   0.038529445709324
0.777937883091128   0.363750063981992   0.968978935656278
0.129290650756445   0.202390241965397   0.277945301897105
0.459190001865520   0.272564003226320   0.847434864346471
0.222450270100682   0.660977797422672   0.412748900576366
0.698645932486543   0.674917445275323   0.593554250926954
0.538770310991779   0.010886567775662   0.548524155540779
0.842784191500656   0.493549731884516   0.974504269212705
0.900777764198368   0.310570782848774   0.224522204213521
0.940740262932672   0.463320242677797   0.528180380762116
0.341942350049509   0.276390833776610   0.328545206648436
0.281162841665823   0.467875778168370   0.865162878056669
0.610362437774586   0.600925705812841   0.230276061183320
0.405044093364297   0.153182946288983   0.620711007438453
0.440838984106090   0.400895400070242   0.584352546102150
0.676312396709510   0.285476537891693   0.907170833050561
0.669135877183625   0.158941831827035   0.960682789081052
0.388632368626925   0.031113355893219   0.827838675993451
0.537754885071880   0.159473942443310   0.581162651964777
0.388883579309155   0.177731512281332   0.818480223807835
0.565482113995918   0.522059903874961   0.193947782518392
0.781661993965800   0.010508098289702   0.554533131354864
0.288478899135858   0.232800299023969   0.826154150143270
0.324200617214619   0.233612266362548   0.781048602098941
0.776162390346982   0.648535449417381   0.927689467136110
0.093710869461283   0.379769675263846   0.250819522235033
0.671613515718785   0.229038146121264   0.917659437130614
0.606414518325218   0.957014768195711   0.506487527893543
0.049786443133271   0.394184531115735   0.119729309448395
0.734233668456813   0.280338706186040   0.940624360156020
0.062991810322249   0.893670148234650   0.782709176255847
0.859185801942698   0.338300942141582   0.501422201929476
0.627875116270985   0.169207732311237   0.442194670286950
0.421991255490951   0.927813022901225   0.680240002820665
0.268392244548853   0.235954151374090   0.613504419392983
0.055236145855616   0.476683856472866   0.570714305842996
0.818721142926344   0.699576336352212   0.022354268471566
0.936908365939354   0.544849777297710   0.751978188916666
0.356867644262347   0.994066421416913   0.612579423652824
0.240162326992688   0.924826278368522   0.777679931751071
0.324500489796321   0.484212520359290   0.811721763994862
0.428230952651794   0.957408772016157   0.848372421745830
0.391121205192027   0.387750068555917   0.546070267118729
0.648989170322256   0.315267717335855   0.309558375929161
0.812842281564659   0.293547985843069   0.170721907563683
0.967361318492444   0.175341353132718   0.240221116204878
0.516328024041257   0.210446447005351   0.683564411009095
0.798389921491594   0.099143741036862   0.101923026355401
0.953342723707368   0.240694404188546   0.653075129933535
0.211866755990131   0.881963264331308   0.927303333953940
0.752902004022047   0.575122410215402   0.565846010468358
0.435310912646709   0.798028126388956   0.751859082884677
0.100982742108075   0.034094889720929   0.085813233472704
0.245915530838707   0.313161856091787   0.533739395094977
0.226791615865697   0.469334866628701   0.315867570344072
0.471002600306261   0.677527127525760   0.500226974299819
0.037985680368316   0.489860821794554   0.622529082471939
0.497569696373658   0.864105974022255   0.376270876044545
0.507583598191899   0.305560252292582   0.327543740544376
0.369806591512176   0.425660916490149   0.186147103574039
0.735251106801155   0.550441460484703   0.860875260770519
0.430433996001905   0.732050620694295   0.611028056444239
0.237604352748265   0.806681828757551   0.698699572368009
0.277883153787953   0.500923469089748   0.864536139019575
0.329138281988268   0.249164157628006   0.006345364205548
0.737465536486216   0.946289062083456   0.495788426427016
0.935262337355040   0.530734911703893   0.623358682656445
0.704805666801903   0.669483739760963   0.324672319386762
0.642209652575448   0.123123429766304   0.357951187050798
0.572073194982550   0.075333707357448   0.688032040455384
0.093634960042678   0.358050079353218   0.480783099510564
0.797143875637669   0.604059621576646   0.906771745370177
0.185471249387067   0.339232936777837   0.458854998100392
0.512908071431299   0.289964361814749   0.807040335936008
0.794535593519433   0.373772905552595   0.403796981633948
0.513641728248154   0.128481010514971   0.758914221152751
0.548236504902821   0.440077973154656   0.080002745657814
0.580666431883676   0.938129142348578   0.563374754426784
0.364115230247491   0.312355050110505   0.365561997251471
0.626178880399806   0.237210813949757   0.185194426467286
0.696768048158158   0.764923530923788   0.307688319794224
0.179697693990254   0.792726020268444   0.187322404617056
0.255805330887296   0.214106992491743   0.563035261113870
0.268512047636939   0.192043921432965   0.739014402702213
0.326291502189903   0.193879052325071   0.822043611359836
0.058519860109335   0.053343117286520   0.117873914938401
0.456802436929904   0.262956810042683   0.271433450794852
0.783450071909892   0.978129427901572   0.547063924685915
0.941240590155458   0.198880986805558   0.319419407050707
0.216154612805348   0.049212498329948   0.834396420341106
0.275136892887121   0.267022736744832   0.067694638540002
0.830929037757612   0.167601265046402   0.299311937573562
0.211063710815622   0.884452406405157   0.120970786405599
0.639919957452176   0.761415711895128   0.183381863585425
0.410668528869418   0.561604709090323   0.427714307238259
0.852684468757804   0.561770305064697   0.766273674114985
0.132891385613478   0.876580486078155   0.874418153717409
0.630737463286413   0.801689074456669   0.460613566063967
0.338218360186793   0.155602438019478   0.396016297276437
0.909623556249299   0.979001766197090   0.026219218868955
0.983139398702846   0.682646590380416   0.187794175555417
0.181712344340945   0.832806123032141   0.147906965878848
0.508898573115995   0.890508680073288   0.660653860578781
0.693667141138678   0.192982399237719   0.038849450761234
0.751971553117597   0.677873778379772   0.069952116644748
0.537880303200833   0.675496207690760   0.734973435478257
0.462183268996414   0.371601625471447   0.456418633514549
0.629872466776809   0.865573597894536   0.057161142609436
0.095633114881659   0.502369758402666   0.913789426093761
0.323242680842948   0.506720965228139   0.763476890072546
0.750769657133112   0.070500902588481   0.115086209382579
0.881119799075641   0.556172973356529   0.750959895059562
0.332805534833690   0.678722688684951   0.608317977255778
0.600715075989542   0.011711189505182   0.132955237136252
0.121022423052883   0.437231646960122   0.306428112916124
0.909548069592294   0.654509500217694   0.981219245652351
0.545807158082685   0.540468632490323   0.623371267288687
0.514983035630999   0.228730827097156   0.537419683266964
0.939052212630848   0.395644355567016   0.508403755247685
0.510736787004691   0.442929555242276   0.529140633229369
0.586730112277279   0.524395588839147   0.360464201190267
0.693803323991736   0.571739388162227   0.331609346355552
0.124287793215582   0.483930448291327   0.800442085521231
0.506442946567211   0.076578503253923   0.881197741836832
0.338498118719042   0.297204100411965   0.353005863067346
0.824113729681993   0.604638790613078   0.923649554374769
0.916756454356420   0.308739078100980   0.487009041919665
0.508464365871258   0.532602419290225   0.783916501489262
0.773902623542644   0.567405815780619   0.649434125662852
0.184506822883226   0.442586353940229   0.247278981373001
0.831593033269868   0.305547145077097   0.146162669457967
0.637244009084338   0.946521531785649   0.460200269557293
0.577071682788016   0.041551835166068   0.791469529895455
0.296876774816956   0.104729779768098   0.895450402988121
0.986899817748215   0.315151141079289   0.364536335939894
0.441296220985403   0.181742627068141   0.862543631977778
0.005023785841294   0.402572613644366   0.583631978270848
0.553004332095109   0.021392964546811   0.521478535713105
0.018797339799133   0.524642739536215   0.800179335951414
0.120791142690363   0.263863450192015   0.352771940070252
0.306471137357489   0.364842643934893   0.111009718025325
0.988659169667505   0.514624913618038   0.656593494918415
0.605717783687942   0.043302540242226   0.642112148623540
0.288171132664147   0.722282749142172   0.701442314627158
0.358988315958055   0.042184707204654   0.820417296900014
0.719598041559296   0.615950877772885   0.160585786673241
0.140453806058773   0.731237987954786   0.850026577234886
0.667864737765002   0.661470422940597   0.685943290152696
0.413651605289908   0.182195259545828   0.205397438068089
0.526638359177338   0.181684424152098   0.331094446977359
0.794337557858810   0.034932582749562   0.535923086087092
0.514372648791341   0.047548893733127   0.969932792428723
0.080837690075092   0.280483997970013   0.236949768850859
0.635543879953805   0.030692010276479   0.536808262654075
0.428969085547041   0.102253603762244   0.625921488566491
0.610968216423834   0.789544108102598   0.272669859899057
0.266704985765798   0.182438878533081   0.824406354238948
0.067181573493458   0.890954541524865   0.087743596369133
0.121488039283587   0.496093078689708   0.962911187909616
0.249436446683232   0.031797687874776   0.447067422431676
0.258130562476303   0.413676471117357   0.654842379409568
0.465775832961739   0.062518040641653   0.846916553471585
0.958826694254298   0.914694020478258   0.007590962204810
0.571587141401934   0.415264001180145   0.744773339930453
0.773491515511621   0.308429133451382   0.972715342374526
0.359266031990861   0.055225267973431   0.283634084050607
0.566187086030134   0.423183694721740   0.935791319211173
0.417314996276332   0.161024693171654   0.181084749402645
0.892355194081216   0.375265164498048   0.778633811496557
0.254573015384838   0.502380244901773   0.523251252773061
0.573419209365096   0.545418692980293   0.420181740920306
0.907831449823857   0.366947820761264   0.435360339706464
0.500450022329357   0.119460715916543   0.453560153071325
0.248535494896164   0.756114338933945   0.722220139758365
0.615965327167855   0.072050832977433   0.722624970699173
0.237880541735078   0.727703824706554   0.324545643737534
0.723350819765321   0.072696733093216   0.132840227197597
0.881562520047689   0.533667141479288   0.555806756786620
0.445741673736492   0.840492310938797   0.715831794025586
0.984472410548373   0.518071690500464   0.911767598558844
0.618049917277519   0.097349954695339   0.115892021671598
0.918331103447604   0.947813349764797   0.020106794712965
0.597219167142670   0.054255296845790   0.442175225904456
0.166874311252868   0.065232312227497   0.964716609391734
0.815292021609591   0.229805789849707   0.748749086689027
0.993096518183219   0.802907973361821   0.111350972911076
0.732362916025635   0.699317714121104   0.177885542683359
0.362314587935455   0.101627738948214   0.032021282239723
0.249308877301717   0.171525804595973   0.373967369153452
0.604589093405284   0.725016545016226   0.727539113373128
0.489610649334726   0.063268028161367   0.153655904320419
0.912221029234609   0.167893058741218   0.244762581007186
0.176501468769872   0.343470664104399   0.490537586259322
0.131115023797527   0.903920078499619   0.680063925942568
0.291635798961533   0.791171990385427   0.273941948434323
0.703086646455159   0.776315549184100   0.277362659613552
0.597527037471263   0.030471216169208   0.958695834623433
0.788365406337244   0.326454435963975   0.318475288550639
0.667863119193271   0.989088048500047   0.178493885597851
0.519235966663741   0.840289225166163   0.377434534120299
0.123356881906001   0.107405152591569   0.121837987026913
0.225553443740013   0.458869542502940   0.800238640858559
0.563569976273900   0.312580303450334   0.326888131285780
0.618372959841514   0.088550470168833   0.775630405619778
0.761655492839273   0.197499124214825   0.764270264067598
0.373417454481711   0.668337630962242   0.568678937997302
0.639409988894583   0.915425297647596   0.469199701344551
0.682631419271158   0.839413697537648   0.348585606330343
0.655102876643690   0.597377820006268   0.033317028643061
0.044193934040237   0.384755310871474   0.547696632119242
0.618746019256386   0.335221308940528   0.352789089445880
0.480637113957012   0.217886211303667   0.843555257470101
0.395964436389188   0.169060682707785   0.552235737590167
0.654909978368480   0.390049026301966   0.395108558885202
0.480907365102042   0.713763039843212   0.543604919743479
0.673775527145981   0.046547277865207   0.260156604897261
0.925680217494291   0.317600787962469   0.369684888639426
0.824076112869908   0.925425503068553   0.459677851102551
0.076533100304212   0.717618885109430   0.904525668786026
0.805671360335358   0.337281145522590   0.009722174246688
0.013787355142523   0.517124656601715   0.864577586981407
0.926170517351078   0.413875564083191   0.734574490230733
0.647867382703554   0.987941486063716   0.423142035587034
0.542903939171194   0.245805371939663   0.232267562005891
0.720985863265142   0.184593825301437   0.801520104692142
0.650962893039575   0.270962307144754   0.222030290583121
0.590410603766111   0.460269273216944   0.009107924802363
0.342969336492451   0.217682327112116   0.760508063218132
0.368888750474641   0.254655478290230   0.673008018077598
0.561963046157480   0.032880393246058   0.853504091557018
0.779980879530620   0.837838643830033   0.101267383785895
0.681503864760605   0.888404011293679   0.194454715534916
0.317793255584093   0.169218974554920   0.722302031760107
0.776666431596554   0.218850975744560   0.417747623097942
0.616597114138438   0.846485766472300   0.942363316033897
0.288560399053598   0.202695668408097   0.562314555444318
0.694171162555164   0.396489649067776   0.895538196764275
0.241786161864392   0.543945199322316   0.869409035894465
0.701176608026720   0.700952247019059   0.510386478071023
0.330816703865304   0.336067299071988   0.404388140024059
0.442064243359762   0.348546929243212   0.410217498814322
0.772603365624571   0.136292779331191   0.209212750522389
0.477538396166759   0.509375456343938   0.304080794137208
0.352947790863604   0.176236038252287   0.476464732808102
0.287824408520144   0.914576651060605   0.718555843120704
0.175580997549520   0.750411293541454   0.811369516049198
0.506688039183684   0.156053833663028   0.411223842095134
0.767260721262380   0.682982946476881   0.041890780535249
0.654687188478404   0.214322579241896   0.142480307509506
0.853186486676339   0.185837845455280   0.644928427589165
0.617050388209272   0.140380020902411   0.374734673340785
0.378725423912666   0.193478964034114   0.794506078979492
0.800213245567392   0.551914421270860   0.602569233166139
0.686314311642252   0.625685070132257   0.874913310063567
0.258680955641075   0.079229379929216   0.235026700124900
0.728793985675597   0.720346332972812   0.439193267659407
0.534111081047528   0.720408626942108   0.610922173695052
0.527745465218857   0.168486884860019   0.635846226229971
0.466569015083548   0.772299942951816   0.609230691607844
0.165601383937744   0.422519615821639   0.073057517542868
0.226831012309207   0.824034535443960   0.181413550602492
0.652580527333916   0.719943736043432   0.147302539867965
0.608372706292227   0.831631281919781   0.914588536457326
0.920436858383717   0.450119028621836   0.507691262440540
0.010679550477150   0.593556836947097   0.882833505108704
0.285850635104983   0.111022143180634   0.865651314788130
0.821279394291079   0.999146634341184   0.060512903879694
0.591927456329030   0.471310104842105   0.383689280129082
0.666130425869562   0.626430676212375   0.823917630344466
0.669755487230903   0.679182973474543   0.024609337255590
0.856595367550893   0.130458798441171   0.547004730049371
0.598387662820811   0.523969187771564   0.826992859138810
0.747509566953309   0.404680617267831   0.508649702334804
0.095057496291566   0.857057254219877   0.912132006135480
0.496458524581751   0.846807722142183   0.693264047323494
0.694150595179465   0.974007566785497   0.291968239523324
0.052844586018606   0.360934888834977   0.652976141394161
0.887039882787420   0.294497470926202   0.481527171060827
0.058323962540379   0.460403668411120   0.048763847339725
0.610415384861417   0.094690643852739   0.169603056108457
0.529356279100974   0.070172110590473   0.979726886998673
0.299663149877385   0.672567856259723   0.654368153801701
0.914529498422286   0.198771744407188   0.337693377394170
0.086142409714801   0.868014054657856   0.682657543296140
0.170070929106617   0.029305939770185   0.876985852885337
0.294918187390248   0.409976891047806   0.611674017025322
0.171706000742685   0.896538395753933   0.838059935895349
0.407382315810193   0.036054681643094   0.067440018210721
0.269044571012653   0.071184869801910   0.967313504998357
0.935630015110020   0.250896561301109   0.678405338953769
0.587767088023207   0.158497570675559   0.480728834888768
0.595630376340586   0.303530550146873   0.853398325970343
0.388959615619044   0.800177047334931   0.784695983685999
0.166394825644677   0.169503412748154   0.396067885538874
0.766400476517768   0.810663191910274   0.114766029046360
0.693435162636812   0.104358751845347   0.206258007520918
0.728389979297081   0.462674533693926   0.439851093816527
0.533287775860720   0.973691886421241   0.590391170923851
0.321982529887850   0.935447296870269   0.824854535309441
0.725063236754873   0.634631077188635   0.046574512560455
0.543271789849143   0.642620018218529   0.644235392948338
0.791961542788211   0.004738143186525   0.073505009651840
0.676247976737519   0.183018363045609   0.066171842903378
0.828731466047582   0.400346535791097   0.441510046076689
0.957395232635611   0.312927499585862   0.229991778981520
0.302944831706151   0.080432287404069   0.270469761560561
0.986630141707029   0.240067451945002   0.494123436851495
0.538370378351612   0.284018364957300   0.285120400794319
0.310081235532950   0.811333555160371   0.256699876583258
0.999727738708473   0.439531736770306   0.472507412726274
0.649185694352846   0.113829754525561   0.936455757009693
0.097732673053172   0.972292672135714   0.933026047290031
0.666789274428402   0.574778470174537   0.496499129634213
0.969487127556305   0.883561602548253   0.096618401013291
0.587016812630318   0.845069262831992   0.894447434447134
0.292899270954760   0.444291199171169   0.458009059488630
0.651952868489656   0.793721017260118   0.016357993877909
0.567030366592179   0.279386388485413   0.270654099544452
0.492475804786749   0.373099417913951   0.442288917190517
0.773473934728198   0.136709755945550   0.669393044560464
0.399586865225816   0.729986858472862   0.619362579485623
0.290135925543963   0.953799975499189   0.164546458521852
0.168073942006612   0.021813925664672   0.845156113205112
0.682956308415258   0.515761919075126   0.252577692764987
0.026994560373083   0.998367431052486   0.105169048917443
0.299578921396983   0.412790813281210   0.461620479076213
0.661695590363239   0.070056692883145   0.346585368860014
0.646366636876183   0.491511951025618   0.159860119975334
0.874008228431656   0.356087388719506   0.795860767086185
0.318538083902208   0.598135679405169   0.529607645302142
0.298193725526137   0.478186368994109   0.412014222702853
0.514120335390528   0.211028064520471   0.898652904730778
0.811382998948288   0.392124849306213   0.004088747750677
0.514937839729308   0.036187477123395   0.919514942140939
0.692259571977732   0.231604209318110   0.423507453977504
0.453411961087016   0.850798867456801   0.620534351639705
0.796044026925160   0.264631220124873   0.825559913365572
0.657073498508002   0.607851509762422   0.799156059241566
0.476053884667121   0.247378995406442   0.936678181999416
0.145987113619991   0.280352644377116   0.364921171145208
0.473960423452361   0.772423954665541   0.828186729061702
0.540146648591457   0.795864583872983   0.404253274485465
0.010026377015495   0.017244085888837   0.995039414023323
0.698495220202569   0.556150349255098   0.167609067764931
0.827153948073931   0.122216663320640   0.142863497385574
0.229907127074622   0.423585396866291   0.668797548860080
0.450019514033649   0.075510531992924   0.584024438228702
0.417042770937910   0.776923555367852   0.637882880566000
0.909257402780635   0.545862664923834   0.703186852954167
0.573162785177145   0.561913213793277   0.669152434110932
0.258099783125191   0.049198571909680   0.016649984982501
0.549287097535296   0.789266041049780   0.726479153310295
0.357509174501014   0.024719014183649   0.532673921502137
0.904810154932274   0.350652497242422   0.407804235919211
0.024639095364860   0.285262624350449   0.666671042363360
0.114838775728337   0.062819493209421   0.089317668983481
0.740002294016627   0.578059036264133   0.760645083628037
0.263459051328883   0.433072104288866   0.413100073383679
0.526508481592781   0.103596851340952   0.167314888317306
0.449254938905427   0.315697802547530   0.354549180522119
0.395944451797001   0.990050686268616   0.372306981078183
0.426450129952445   0.378884092738479   0.501842261699626
0.338880430347012   0.177258435421619   0.845122446212503
0.445389733092263   0.755866600151322   0.824639489260711
0.320877812196507   0.664125082822509   0.702282080382616
0.564985344451311   0.475303665738730   0.867778044123354
0.146419959601953   0.209876464276795   0.082823739610517
0.745205278164455   0.124246959396130   0.197113331434287
0.702715843427228   0.914923829527103   0.147441057430998
0.508362983087557   0.204367129443392   0.799394328738148
0.919924885132227   0.701739082763194   0.021617349577835
0.387612016791356   0.778557757670249   0.850428033435869
0.343739404265936   0.662169803658638   0.581815086349010
0.043965611714953   0.392382461468954   0.424550255475492
0.641096513815643   0.999979224138543   0.624060272458000
0.627274955591067   0.855764780414928   0.112993428000264
0.263506624066957   0.462248215819017   0.273535125730800
0.191364713763084   0.931250135345261   0.800088013516055
0.595207671085158   0.618041042789147   0.380893104872247
0.538532194608094   0.515935525270606   0.243189295219517
0.897718108774825   0.315969430359258   0.353744306222393
0.672062434000043   0.990849305855829   0.523128464162488
0.495536959945654   0.631611863862310   0.416709609181844
0.293851003285080   0.137823212479990   0.799286840173346
0.760168560712954   0.275562342102940   0.180570431931598
0.818904722491463   0.471865645986564   0.976554512102899
0.388872721934316   0.993019544494736   0.617686691499120
0.993171630863040   0.215756749170443   0.310771534017862
0.764735368148464   0.336063557436237   0.958435012491815
0.640971814433425   0.743397085436754   0.896617316343884
0.967336306478496   0.157677145887869   0.178033129773524
0.161102905158901   0.147038851426615   0.312700513707451
0.611198868208918   0.498842632260991   0.976778602638145
0.282105454120116   0.452730900924527   0.836488674032653
0.284125893391833   0.285428509497496   0.354851402372182
0.655754344276759   0.623396338898296   0.724629304262837
0.826748547868474   0.381122983907569   0.523603066528238
0.701694829383123   0.616082300211508   0.691341392112285
0.246283252531344   0.464001327184152   0.367968508369626
0.714558086808864   0.586957328557781   0.741443415914712
0.927070899749122   0.287674866586555   0.720197485193947
0.868337002109503   0.490280341336623   0.993887318279456
0.326030118131991   0.043751208435227   0.195258283587491
0.600114180098220   0.071447445247229   0.550756278299402
0.634060908664049   0.571065111843078   0.730642642657540
0.198687670549952   0.924758813910049   0.898872058359364
0.860638092887576   0.199634852194243   0.373329150487422
0.854620398579214   0.775632925679692   0.045080112292561
0.748151788210258   0.347488383426685   0.484720524938281
0.942188478969510   0.287798948234350   0.483583756807834
0.455902023780168   0.972834593208917   0.298171424837318
0.559038942252926   0.461904948284581   0.429339144531499
0.381481888959326   0.859375517101813   0.305318404731494
0.219807553392628   0.851347827872186   0.668373133401224
0.167217709089736   0.366835670457713   0.257354339487073
0.202538103322873   0.684083659267484   0.358118626065216
0.513428227097340   0.095035430557553   0.470695117710080
0.539942897767262   0.835487465286474   0.352815085739866
0.771346466088896   0.245190681308187   0.836155073304935
0.652383515065643   0.051766652905276   0.673372287815984
0.013370353441514   0.392759324061029   0.553748273466369
0.559494301975912   0.535828590641165   0.257977497026965
0.996634567789165   0.368625670132896   0.506926106232606
0.964699895383503   0.047370493667763   0.137570371199486
0.166344440109743   0.929581847676397   0.604704683067991
0.637220651995548   0.095117612843228   0.913381238791561
0.440468204288372   0.516090799943618   0.346336665007892
0.212288699032840   0.441575105455004   0.618737581805090
0.116260603791778   0.447781969173483   0.336322084372938
0.744020071219916   0.392604753920528   0.935703337056076
0.251588126953496   0.435802906349214   0.571833665002443
0.636573823688485   0.749487158561672   0.443270327829174
0.241878742352853   0.283450680604475   0.581351003339053
0.196365069696383   0.937255409182982   0.614624385040731
0.952861315954603   0.453001839225641   0.556200124179621
0.692335941885654   0.965172119539563   0.323272633983295
0.619220574385245   0.567553513185779   0.101471752654034
0.672338251138814   0.636630522528744   0.988445562946032
0.998955992310151   0.072319625902134   0.026006847112009
0.629432422404768   0.653147146702508   0.216757582836495
0.160667166304334   0.811755370498219   0.826571742608742
0.772049531631537   0.110516103521604   0.149298362838601
0.653804540705193   0.505370365152253   0.902610619948923
0.335745506550962   0.111790300365280   0.935755325049440
0.642739416215623   0.824190330989653   0.021564417369485
0.169347714743132   0.609613366360709   0.815898389327350
0.662937180028088   0.531322886661796   0.119233017774517
0.525450845877626   0.815286043451895   0.843623733215491
0.023856656202559   0.410465833397691   0.109872307338902
0.390096700975882   0.987233614315615   0.428347246699307
0.576577134478346   0.647485827845837   0.473818711649111
0.857957097382298   0.167878525608082   0.281069686108772
0.374074234030962   0.133718125624826   0.502938997007609
0.635377734568625   0.500252751931919   0.271367417083794
0.225469768726237   0.007530337770489   0.786953574358649
0.243200446794532   0.678990407089345   0.758933932022528
0.640982969115276   0.800016016745447   0.960853908376750
0.782822839372109   0.264988734060800   0.129543575267878
0.123640951479413   0.952276247583501   0.767848163690040
0.367694260884883   0.165479991804131   0.503599246820627
0.627414314274867   0.545398285399927   0.749702075080495
0.541590130485928   0.241075883130210   0.457619195484488
0.427077916977524   0.218625017533073   0.959099505425635
0.038275697175340   0.505391070268294   0.944943406860517
0.186354776555081   0.458335897727704   0.571269846829258
0.034929197786958   0.409784929061015   0.451256172935573
0.241334079482074   0.443372910483127   0.391989819149881
0.532504634870953   0.456064861569016   0.678677505173378
0.250465463033126   0.359248640976932   0.756545339876897
0.631425661788068   0.814159335112412   0.163492808234653
0.197623378821343   0.140989140001677   0.171787227237143
0.394371920900253   0.088370879433812   0.525637763561114
0.676462904943685   0.667307095312261   0.909776100033578
0.692879186254273   0.721305056507809   0.345379920524106
0.761903366819017   0.489262254177923   0.478520486930999
0.488532905312645   0.236541287918052   0.232939987531010
0.235409205436976   0.567738342374570   0.574495797155576
0.120647051969904   0.209701736877248   0.103758747211946
0.124310470509755   0.502164739612152   0.898007649422076
0.527752426845325   0.199992121505239   0.544059372454356
0.141857505975222   0.068227012330895   0.072714841774488
0.398045905035927   0.010345752664236   0.564547390367234
0.158723189284025   0.731742697160355   0.244860907922959
0.688653654536429   0.604910944247124   0.899441686414795
0.510949125803828   0.180358717412177   0.360233708068299
0.595530568533019   0.057644342608308   0.579893869250211
0.678306367298581   0.995877955700334   0.232517242212285
0.513079219133310   0.220535003000257   0.653042953891332
0.752823433781190   0.578774854199501   0.598313739084196
0.699102275897863   0.645647565235397   0.642234289394338
0.006798325727301   0.933200526667102   0.987563963281641
0.677359279263778   0.592119026775700   0.470949213335088
0.412354792342343   0.903498449194894   0.843190436378714
0.212051723753091   0.028361953177430   0.407769519058596
0.369938775347557   0.821464295386637   0.800197751141640
0.502221578666116   0.826794624562074   0.486806835503940
0.702272327123724   0.032677697288919   0.484135957513833
0.756743491772116   0.247814441547238   0.120002064237332
0.768766830817725   0.923602218058986   0.092956054097679
0.778711980018954   0.626102519150563   0.905317368046338
0.903686137710819   0.579746658000009   0.918619629867959
0.629446068607298   0.748961045439177   0.238000165236433
0.455103796542914   0.150127353350267   0.436668785377522
0.335676189848104   0.480521797762688   0.334491050246630
0.163005925691602   0.769324123962046   0.202853130280949
0.598694699554708   0.588647890571812   0.285209522412284
0.497391073977554   0.474793834683914   0.214665015562929
0.312321952369726   0.119398506282274   0.348717995375042
0.620997121108069   0.463915888754383   0.371206873327679
0.358138030670327   0.955069605255181   0.251752092187040
0.685235450332211   0.257545308002339   0.921130730353054
0.277098782939749   0.725974209209898   0.364826480861936
0.687133546036213   0.817843609865957   0.324712561263905
0.983469073861005   0.409929178170254   0.644456701448235
0.676409267234554   0.655659798214943   0.879940957941945
0.294076316104844   0.459846153345179   0.262814128658230
0.478872405538402   0.278675135256584   0.522406984301431
0.026487101433297   0.433007234694850   0.086532628300496
0.470594909731326   0.803307734183908   0.615456344556620
0.915938304567760   0.437469040172484   0.080919206683251
0.663113273854338   0.075587401469800   0.693451155856214
0.405596147438257   0.234788564062056   0.061050635474840
0.245995408171435   0.844980505334832   0.652276035651100
0.912907890409661   0.251200478611528   0.457508325287948
0.665314672178520   0.142213863037050   0.932855681510100
0.208893688865983   0.502179896478802   0.918562528075513
0.844724596085329   0.305313237274296   0.803922000526221
0.273512437064157   0.090101716730391   0.262262511467490
0.986478749169159   0.318216234746703   0.217262877415685
0.019532446475383   0.346223161440296   0.334334640589531
0.647258049213108   0.344644620495741   0.367039607212379
0.027249769386255   0.067306559687370   0.010912059771173
0.930750395938093   0.993411415761807   0.112577916203179
0.074506035196951   0.281793180930827   0.641701124150690
0.432884701821305   0.104394088962294   0.827807662387159
0.188879694458052   0.829888883679164   0.781135150736235
0.732068506522198   0.796092433775661   0.162009696689719
0.211171116576916   0.382226936514159   0.135568699981625
0.406468141968393   0.365769222183947   0.452159440772893
0.880677122074596   0.522816921659869   0.524944974731834
0.117699662605291   0.942619023065362   0.536406459560162
0.670346335220955   0.647807618702819   0.018267693740902
0.479004721906890   0.394150583713824   0.504686466694739
0.056064268441138   0.305224279384470   0.432068642832108
0.703774159862818   0.050765428297535   0.650666204348697
0.432613905335106   0.968861511062015   0.643536932075063
0.459733476485124   0.915924136209170   0.541221285180247
0.233193804757415   0.601042624037220   0.865301306714030
0.447889424064493   0.821237260465465   0.631499657821520
0.218271763792917   0.684195849005945   0.778648987487903
0.561084515157499   0.448095590622726   0.886010159882146
0.172008637739402   0.133958077466895   0.153346649962832
0.335187551020518   0.827674319522256   0.270489711349971
0.574435818095792   0.136840183232122   0.949581606546808
0.715123307532411   0.662270408382916   0.268385169378420
0.435161399509631   0.043120117971010   0.156395622638089
0.353736110004518   0.073872357563803   0.814209418193601
0.844442987256231   0.306703155505740   0.220284697563767
0.254245724740024   0.206582135476928   0.507899774956211
0.607346421902473   0.660587451526463   0.332927760029403
0.497342892637632   0.337959889081827   0.842352134006013
0.568858125598060   0.261361083692406   0.243637271829939
0.210633982844458   0.845058759892060   0.729948002201099
0.619752792213755   0.672506975100359   0.278543370578159
0.747555637335632   0.317434694411978   0.471956091887772
0.531603796289586   0.512962644230036   0.612528492419379
0.446403188798700   0.017899507985739   0.545309512545584
0.301800342609962   0.780802930487459   0.302990750876272
0.695164012001770   0.166259239278710   0.808798226194852
0.134786234381440   0.802503364250629   0.154846147029758
0.740281592916539   0.711279538649653   0.148060571216747
0.694244806458185   0.962079735771627   0.612414288834488
0.237726088460866   0.521143322329711   0.544066762881871
0.910429600599750   0.140707023742586   0.150911036365723
0.286630331520722   0.215316829075673   0.453604658745007
0.143133847458958   0.458922971950609   0.036537442006870
0.709285879577074   0.673643932980342   0.494110946408724
0.154942375897771   0.463946430569662   0.650533711925310
0.647428523767043   0.697521097553407   0.170970816335337
0.949143529222906   0.300601223700754   0.356320629470175
0.672951820893212   0.093009127492627   0.229250783291809
0.257254305357826   0.848459193514660   0.909919389786563
0.319483953564128   0.886607815931290   0.776027843835768
0.159347225044747   0.003802595797528   0.417916160223753
0.653183855277136   0.784356866862851   0.072546124540029
0.704520325777316   0.637052952986193   0.328433555368478
0.184695539275360   0.720017928003199   0.805248578819091
0.408559016241350   0.404567741330063   0.150284270450171
0.643898952592049   0.100849418310630   0.303043460223144
0.646055859797895   0.721494064802199   0.457131767269558
0.008651791850538   0.678158770923366   0.936989232389404
0.913976886126875   0.855570240967224   0.023598793583834
0.590923414760066   0.845240860984467   0.593964037152857
0.419235652479013   0.780395508996761   0.859740982917793
0.068370122571612   0.502820713899394   0.864660188850138
0.583325934451896   0.869449987211782   0.253731047431539
0.552201181401753   0.610992389494623   0.639188741769868
0.063781164550174   0.102336190652735   0.148777415347720
0.470692311688153   0.305878840550967   0.636492248838266
0.094165876069935   0.500604562044248   0.946216591209872
0.103413553255504   0.427292140185742   0.446234268317619
0.238963080878770   0.298095798490198   0.096690346606900
0.087879394802859   0.816817733216299   0.127130458021852
0.119564793699530   0.954676666769473   0.058901114355217
0.799448458839795   0.094097457460047   0.599304910968271
0.280063410962705   0.307437429693527   0.889658464985481
0.475822472412507   0.327364898875481   0.369606479350806
0.717979029189778   0.567355572505646   0.279916749551578
0.358018442948499   0.211282942872675   0.708082169220450
0.731172493721556   0.659300896270116   0.127574758945602
0.786001483213548   0.277089319092879   0.160625690616941
0.146110277808387   0.351844866765897   0.497636995876052
0.637831250867444   0.049350850030706   0.403790569858010
0.740282835175030   0.336341670688850   0.936539528206246
0.516483538060117   0.176029563849382   0.274551940124018
0.522963575482944   0.487784025456791   0.632632731886861
0.405503522359046   0.935459288472059   0.841348552084812
0.279459562965092   0.396381573383228   0.672144289142344
0.557063762506793   0.176743556488370   0.912851937613527
0.802521286471692   0.160034673734297   0.285830777784324
0.946401793296513   0.274392447469608   0.697823272584339
0.380815110489922   0.895484921426325   0.718404521992341
0.136852742514534   0.071534901819488   0.973925612751886
0.261983653574620   0.426565337239085   0.833301157605095
0.232361977753729   0.568398413964554   0.774675108437620
0.557032621651053   0.613286722656099   0.552327289755943
0.763811637900518   0.750941308918207   0.113383743654406
0.561774395329594   0.330588749219531   0.354285500544114
0.524633765241136   0.268125844067122   0.449847557910797
0.552478018340288   0.142169226294729   0.557833197308310
0.230845402991665   0.694295108657360   0.369967753404554
0.419548050269338   0.320707722108010   0.367047558182111
0.619681061353882   0.038729440303746   0.134001597158399
0.164020358114172   0.532281605417545   0.853129892870011
0.093386412911043   0.481873253176964   0.614473668103365
0.583681353326093   0.606851791630703   0.436066611413917
0.864578708923625   0.207338728751792   0.666118258142102
0.514102022337664   0.366443906585628   0.852844965125739
0.304040148900299   0.264251463206993   0.053234774106689
0.677157463043229   0.871406665360236   0.571687016590762
0.802430792821282   0.340660553418257   0.498579209910964
0.804413958229431   0.061505001046538   0.553235402607758
0.386093676338053   0.114422819584294   0.658678693588857
0.310525376736774   0.510677787655561   0.458501300555796
0.714442849439170   0.617876227937979   0.500963506097797
0.648029395728945   0.862544078015152   0.453958144937619
0.573252778760770   0.311552367422142   0.725111140839418
0.982268598114536   0.070788667208390   0.148297278546494
0.610308144445819   0.117158070418202   0.007790960130144
0.402463521504718   0.203156597881619   0.058767801334780
0.796464952183379   0.267716849157510   0.074153049293197
0.534650389092256   0.734879539633573   0.481498721245988
0.969931986692493   0.408030416895864   0.674772639437660
0.361395392562957   0.063526686763705   0.452946527046433
0.859692942606814   0.233543364129957   0.428618615754368
0.198396162061431   0.053779198064694   0.918953687759207
0.691459299214263   0.534164473100810   0.469613450420147
0.783737722967995   0.798294413967345   0.413119988713528
0.606267507770562   0.053706461392769   0.082201729803787
0.896680047526624   0.306318904858175   0.322253216744452
0.020382559944082   0.270432547529399   0.458450367025046
0.909673821229529   0.500567794484995   0.485462836753550
0.588956181910007   0.891959980862610   0.925541740440774
0.318351161852741   0.094190717443297   0.956742220941231
0.002789713652790   0.468099359441717   0.049734622149267
0.751628378567973   0.667128122535363   0.934978441103719
0.484795090530195   0.854456729609832   0.486752814396387
0.944199517792631   0.443072544587358   0.629214577607173
0.672658962378538   0.522586692095153   0.306390117802459
0.253122199277692   0.138182953926206   0.179646331910335
0.885915230834534   0.267108128777044   0.464318382552575
0.669508193376858   0.797668146614235   0.382973798529212
0.340043577658507   0.988918558361501   0.823393380938301
0.100264084262645   0.711889795854126   0.883536634104053
0.931669502472767   0.338888847416453   0.393881690485214
0.620211923684458   0.760504055970039   0.648696725483898
0.083052002376565   0.166648541897241   0.329886248768360
0.345888242431879   0.005310685042405   0.584168759471259
0.191341209320216   0.432187114189177   0.217361072236468
0.693466591704625   0.522523187997494   0.281905893340070
0.957898111111633   0.209216140994809   0.545397239699917
0.478955836322746   0.085777893780637   0.131436088929457
0.610163327769865   0.326708256044036   0.422370060980323
0.462590754681178   0.181720579974710   0.389808848165903
0.967745750440992   0.100344050656639   0.063634614259037
0.212442154579533   0.475208783853541   0.561891127826255
0.502328431646093   0.012351159142119   0.203348075734584
0.205749976025898   0.490773255884824   0.949089287371300
0.358139894750524   0.189743479777414   0.772034979863825
0.169700611122662   0.996037699232901   0.784508473125049
0.323433740121149   0.152398492637749   0.861485980705636
0.607409421080758   0.407556935579108   0.799596861371065
0.685205653383585   0.810690295659736   0.541492879371117
0.862043390786943   0.348382941518521   0.126365191313587
0.968518240684239   0.968740079578990   0.004067579057620
0.681324259037988   0.943774296515890   0.210871237578457
0.667368430089146   0.697753595515776   0.914635282002573
0.532385263022146   0.413492627497546   0.070370604829116
0.321599691470333   0.555464623930237   0.735232105035868
0.619129370784336   0.252514275648766   0.425318437233018
0.290371895021189   0.814864728320231   0.632203694252016
0.366421367255948   0.029870585952691   0.398238107436642
0.220603398635415   0.413707842530600   0.076319509585116
0.251075325258587   0.245611108289797   0.062441913663967
0.826172168355020   0.170036082395020   0.652974273685871
0.148174230548347   0.504374537920089   0.846865259264081
0.644668196019136   0.665748316952853   0.163394502683808
0.694429133959771   0.530601256730864   0.226287845806365
0.660064194379545   0.671023067474651   0.856896215083158
0.585938107025212   0.638164992447761   0.443595704207965
0.704383885368434   0.966843936525575   0.130244691135583
0.348462745195423   0.133503115694487   0.791616056550015
0.582684599924854   0.503028325881732   0.384618521287346
0.249637798484159   0.153149585569255   0.208212745274050
0.521389892821317   0.640244090093668   0.397959513359966
0.832389298133068   0.221636095924767   0.416634985850495
0.188960318543749   0.014024907892511   0.425254661771959
0.361225538390103   0.375462790638225   0.116990375660100
0.698768818025105   0.623065764852948   0.357717643108892
0.478958735037279   0.870585695493727   0.402441519335750
0.989617835283828   0.216905974955188   0.544598749608479
0.640216882083083   0.626301543661836   0.123074292982161
0.071106348341026   0.704813843514280   0.212714422376249
0.216356384426416   0.962853236356452   0.081235814252025
0.593447024883006   0.554036023782184   0.693766272474582
0.568924597419387   0.138054652392283   0.403243735654552
0.676831468241587   0.946010143635100   0.383407632935164
0.376162417217615   0.183730128224176   0.530168387385045
0.030971742166334   0.353754636086584   0.468982272991397
0.229051827081413   0.466637459835735   0.994681009302483
0.535268046728293   0.572786614123961   0.347364083757158
0.701396548125301   0.613454968889256   0.051741120003189
0.948500479628236   0.943726277878705   0.009842324472341
0.887503668619402   0.395229125378289   0.106146828207399
0.389149082062843   0.494359388946483   0.342018199521350
0.022426689520505   0.181135979562030   0.238215146960646
0.577516160928644   0.774213873612689   0.720963711945624
0.404883407696842   0.874836540544362   0.323222058831996
0.881464406677993   0.552714583170718   0.718608148142043
0.067418380798313   0.199756761536351   0.435619236697187
0.304662762442362   0.012353300253062   0.547252599980080
0.163003278954754   0.354880606659990   0.228522714762393
0.532220755377408   0.020033424791720   0.192663285783844
0.304938239033982   0.233550853064199   0.432726276015678
0.274362230357289   0.007967504874981   0.537892817655349
0.720816796637306   0.275558227912492   0.446846504473489
0.579099507152107   0.804310065005471   0.327580904033931
0.278919347721032   0.064683275071396   0.997408718003144
0.703821504187712   0.217010701849144   0.101338083781182
0.607766134930918   0.074060856434838   0.056589920914102
0.171757882310080   0.867612396278662   0.821411436901077
0.872699690344170   0.016751883873590   0.047036442766674
0.062910769108450   0.281952541499759   0.411283266462095
0.145239957899438   0.662594215063561   0.334345578054683
0.262898848382083   0.781513941637141   0.261988057132928
0.395163489265751   0.158004090605426   0.019814394757150
0.512528207575383   0.713359420653416   0.533830637124690
0.536330717018284   0.410985535388546   0.440961925382896
0.635372374797000   0.310052974288929   0.432714759629874
0.298504803705541   0.388421462341275   0.132468348558071
0.438850229422394   0.569220492505990   0.413557402319377
0.803208906653891   0.256324719413895   0.449889458441551
0.338155110822547   0.264696942516803   0.588733004341715
0.465133045455799   0.416970275775293   0.599254478249831
0.686691508080585   0.987546865985230   0.346504765645911
0.536520309740414   0.300649053351997   0.313262110387505
0.280183433732430   0.698566346836845   0.722136465048587
0.589130243766293   0.469069227465279   0.741132682552700
0.684570889346691   0.586972083310587   0.754073458968589
0.446808593596950   0.450723491366839   0.212650273373532
0.379113708358442   0.230298264047763   0.563751372175083
0.906096344939489   0.423239287848149   0.758719910571458
0.402419650437551   0.523397500013508   0.387693194134081
0.884061505344613   0.160514424432916   0.231107411913604
0.745269008371090   0.997866740843793   0.597017101556571
0.014634087928364   0.567538869417914   0.863470672318648
0.198535168650787   0.451213185227165   0.038762829069668
0.709674978427908   0.509602854676732   0.892785107447146
0.073606104303893   0.944353576372712   0.805437679114527
0.940909830258728   0.239646122432228   0.407633704733380
0.642282326257961   0.617692370121556   0.091954679656056
0.847293192773899   0.485706606501268   0.490773314937493
0.462287968205401   0.042560952996197   0.532914251680560
0.640277611810774   0.440967794561951   0.384705437493308
0.519981021503778   0.901028330372095   0.301640333458031
0.338533564223981   0.036100646130108   0.130883649763286
0.315358034415707   0.260718870230588   0.449627710496352
0.942505198346798   0.695003588578766   0.001301609736959
0.707255755511604   0.585576992443841   0.305104318955907
0.619837996222206   0.865933990068714   0.143066837520906
0.083445006181423   0.916911962483790   0.932476607943644
0.870801222112213   0.464332855671205   0.483382009852943
0.791437907884376   0.555241227363175   0.859550724781055
0.523224023081384   0.689445850532307   0.714420647371615
0.248136285782481   0.551337711741987   0.549381389997144
0.324954089553555   0.050665170664467   0.105128264187324
0.097166321528162   0.431995434070518   0.357356095675948
0.514141676514415   0.252232511592281   0.245020379886516
0.239234431853070   0.623820961906470   0.768615052065318
0.633698101535877   0.842618630978651   0.996233430973682
0.176745422313189   0.447918883751950   0.700627837596001
0.144609653275070   0.002237462472681   0.834653932057415
0.767444214191910   0.959444630264507   0.566740470441492
0.319589969547206   0.913821438493082   0.724148283229236
0.422528485403101   0.989146419545696   0.844617714702566
0.451988729089459   0.344063965632288   0.703960460944142
0.482861396541997   0.853729002658006   0.850879752354783
0.984026438086394   0.602012969709728   0.902274928674410
0.436057226100308   0.208993973887189   0.929953143367506
0.773684167047228   0.245823149371782   0.066007289302997
0.605808034087603   0.166541760926892   0.359344584732752
0.610533082130196   0.520970361150378   0.736198256980230
0.350554991532702   0.109058266175454   0.423237727494924
0.757450426841928   0.084548920176648   0.635266745036956
0.203609472660120   0.882338775872022   0.772668574056561
0.610850367328007   0.178692985610782   0.306159514409891
0.512134219074833   0.394992110917414   0.457112515860614
0.392374733127656   0.368542188338215   0.109802579792469
0.689292640845310   0.912555994280814   0.304972763832621
0.107003744787324   0.406840914510383   0.262717759045609
0.469194710670724   0.407936761698827   0.128672361485909
0.966685756982499   0.148645097789247   0.146826992621009
0.586324422922703   0.556150751026634   0.366146008728309
0.176451928883190   0.993153164566802   0.477171218164842
0.824931846398093   0.564255459772240   0.749442268357320
0.589891799375900   0.653750251303024   0.775628103721000
0.340367647769122   0.780726187054701   0.343670197841790
0.684613784893808   0.595740046083292   0.414860594055798
0.298488483494475   0.196318605157937   0.262825867882538
0.559227037698059   0.178359385441430   0.329806206096474
0.617643346482573   0.523426307079949   0.799675831201903
0.094478717795065   0.266183518819560   0.621525904876272
0.942780677095829   0.210808762372371   0.515154094090418
0.685193177325250   0.164556319019377   0.840047885085673
0.485916363527234   0.804189671214991   0.727894467274030
0.869050629185737   0.882418100820481   0.045812479767271
0.456678816363216   0.963732590487861   0.563275981834002
0.354906232614843   0.171521939676406   0.419831714467774
0.165559761979093   0.808925560989657   0.162969752737465
0.071869645674039   0.492346916394061   0.667726021870753
0.768219681640538   0.391864995368677   0.956843525163208
0.428085300745574   0.266449234483882   0.286050145062197
0.372144672432666   0.331563653246958   0.673239675932780
0.545129334437205   0.654942920670908   0.588241351384416
0.584874005050966   0.891686789334711   0.229452304421700
0.385836675029142   0.343495176771282   0.406512889083089
0.967384499207018   0.185947883607775   0.271025435790464
0.227330696012018   0.134071798080344   0.160782402828999
0.697490796691278   0.690164135426543   0.407939287539443
0.251965556905901   0.313129806651888   0.390582237911981
0.550858562956358   0.622605263659900   0.583260129726007
0.254954720526060   0.038674076909962   0.196947143301989
0.087185850533627   0.729063131497682   0.197886325584587
0.572826270841206   0.827033447930856   0.871252594923107
0.227264559829322   0.087301721239685   0.229365587392010
0.147061546139769   0.488716644728490   0.599182868981553
0.405493004940586   0.621125727655625   0.489704765254370
0.439450960774395   0.299819743753356   0.567981019287810
0.143483346445035   0.432818262227271   0.486198633414194
0.593950427711207   0.292093123221245   0.283461244074086
0.298435016471611   0.065013634548046   0.813730754194078
0.877727634205802   0.327067951991965   0.175811009247525
0.105586819537889   0.911857701693566   0.909303951188681
0.075711560799132   0.408793773102117   0.347451571991858
0.932149901673841   0.043270820486174   0.134964497268707
0.206181364123130   0.032706278876003   0.028684465852012
0.224999988986052   0.325037435461239   0.402602284681555
0.504678768098997   0.829727300781815   0.430804236481986
0.353874514066543   0.060035063481099   0.396613830685619
0.382839089265716   0.817588988518144   0.342606651687149
0.184544298431987   0.302094123609387   0.131636287960798
0.559677787579564   0.415466303663094   0.021106127126858
0.310766978763651   0.716249076275415   0.679360082485623
0.154499947138218   0.438260063191859   0.260207655590524
0.305033535199044   0.164920203440401   0.639498425263874
0.518340745107485   0.700466408406407   0.657501219525825
0.089100106888883   0.879357300894749   0.737020625251209
0.160593199181551   0.465669110724488   0.618692814238732
0.166872448519365   0.469135570951597   0.338304421249175
0.505530058957480   0.321926145634888   0.356207673321448
0.381585530622131   0.207185470441371   0.243997643043148
0.983913241777734   0.250205804492512   0.651076537332992
0.232467666118391   0.255795410939420   0.331524210560322
0.850349101626030   0.892105014463805   0.419971631778237
0.103516133420823   0.084451060418046   0.111086259375925
0.284163625123868   0.759118194153884   0.319655112755836
0.774960351047590   0.358562852412212   0.499182362526146
0.504509612471958   0.463178447951742   0.622288040129223
0.017830803667416   0.341047557029497   0.177115501258107
0.235792062535776   0.009427453246861   0.497874642803205
0.634418471567831   0.375372120435749   0.838749731337296
0.277502596745814   0.301038727392020   0.531494745136715
0.284938841799529   0.452998999379983   0.426896517494490
0.692572449191390   0.429151240461622   0.406443214144922
0.588553584609786   0.082849338974118   0.429875130864667
0.795437686770990   0.284323883089040   0.019534836134345
0.679347965854985   0.743209868734067   0.367530789222323
0.588680576334439   0.937585841494857   0.957811671167589
0.016429414754322   0.474926706187420   0.527744416755198
0.798799291854103   0.564123861091304   0.699625310137415
0.615077851323963   0.693215555779871   0.817464571850527
0.704617244567474   0.322055126761412   0.305947719046561
0.705567299978903   0.280656924686496   0.216251076199626
0.596976178128172   0.258451550469949   0.228031327832917
0.637475861188034   0.485922024715924   0.353107433776607
0.409186231765575   0.002759867237152   0.594112895571150
0.642853696272534   0.747928326504443   0.535062203511705
0.349748151802113   0.705947205481689   0.617867351499036
0.504163310807461   0.167484825468958   0.845007502895670
0.246106547460226   0.442452881497072   0.224017482581991
0.117003705543082   0.737123617188456   0.207787940651868
0.556078875429943   0.370306688216491   0.403864056023795
0.406246807435220   0.226500989636255   0.252292078126768
0.101004283194878   0.414573962371975   0.294426802959359
0.690581337817094   0.828340134014025   0.294221855859760
0.068698665764323   0.576880797894026   0.856134978076137
0.651982744591833   0.894111252962411   0.448178077105625
0.699533055179035   0.569106710187316   0.138204674110559
0.287172287984979   0.643447652049377   0.609399104679231
0.827799201080697   0.145313404020998   0.203966343003090
0.683905872109575   0.019181117913658   0.338613325957068
0.497333179438430   0.042554980856724   0.756872590855890
0.652349685303568   0.782355772541038   0.985726154405336
0.175155036085507   0.407329942596789   0.171866825840133
0.522564808440265   0.593725124093044   0.368414971056600
0.287715874485980   0.263427952846611   0.331734531054375
0.204246663208707   0.155427485852411   0.346146606736617
0.569689005858471   0.455090121677082   0.060228469136897
0.976116441296569   0.479496208136385   0.035390371615874
0.811422959558233   0.449152804735385   0.464469014489687
0.385128030093055   0.185482077977529   0.220175134992760
0.722117545164901   0.706587476215439   0.233578670252482
0.676500387102671   0.342353102839552   0.351982333654039
0.263277465980645   0.107947589842684   0.089184261543843
0.599984606201414   0.564935115164922   0.186806428262668
0.644007369214903   0.815067620567819   0.077738376789210
0.177277590826411   0.491613920829283   0.964919146619260
0.043525073801363   0.557249244599687   0.855499982527858
0.703306664408316   0.202103021239314   0.953374793434917
0.719693652924023   0.769102918040427   0.222753791382657
0.846244237526527   0.803880116476299   0.056572216280056
0.379000921207482   0.043151473011566   0.172191429405800
0.300930793135106   0.815884230009573   0.225592679726730
0.630670166066634   0.550996598077449   0.035592246990068
0.829833476648841   0.844556944236892   0.404166204360124
0.470263088974285   0.729750602450393   0.571079375043232
0.280408374483186   0.396088802623809   0.882015033065596
0.870581033701934   0.933231352712304   0.037671628426890
0.496040978274632   0.882860991975301   0.349817907854692
0.718951172342948   0.121680776773511   0.216042169696290
0.614147980398768   0.355326737097744   0.409065630503567
0.148393056312611   0.189610386950883   0.057699209381260
0.166888148928237   0.849955971174422   0.124481466448570
0.000187133022584   0.448142503896068   0.075523673339455
0.591746811647916   0.381051789568322   0.787908051403219
0.609992519673186   0.896639640408434   0.147499300064694
0.040849459602543   0.236696210926485   0.182213128467455
0.618889941367306   0.966617846232150   0.477782923643448
0.939423378819578   0.167299850473561   0.226722902148405
0.594676604628083   0.823802270591127   0.569180754228248
0.629221258710461   0.518456660202789   0.956792219469183
0.639732833190799   0.835099511405720   0.052198329708800
0.777637857734374   0.197177482177465   0.393417301933803
0.961975656679985   0.344984023946918   0.175743118855238
0.318102562673144   0.466625715377590   0.283167159275393
0.436722754811006   0.244041604199117   0.976733678855104
0.524996128025691   0.682960188367773   0.682194948939286
0.621060727450940   0.080254063576028   0.972589774025907
0.211995640717093   0.840486489660927   0.157184917080397
0.517440728404102   0.069403138340123   0.911447639223287
0.155646821050227   0.349946815696247   0.552665827390323
0.271006279999343   0.859653107623838   0.179216473448710
0.958097724627163   0.334461079741242   0.718294258284102
0.134493218754170   0.429236609922773   0.454428839588977
0.767255739939480   0.077774926484226   0.452002268410810
0.558458767351207   0.937138481412905   0.911158130654500
0.345954304059815   0.383200657142088   0.474438781612200
0.558304758998005   0.537220041480810   0.653924801664573
0.218284342467109   0.738649515097435   0.765242508462618
0.887908528008261   0.313350794593083   0.765590598287735
0.559888138903704   0.810061809981063   0.353291916490661
0.083920502146304   0.658182625967511   0.878980666420521
0.869867115323218   0.308416995358956   0.304687737304270
0.602758356268849   0.957752230444483   0.069758544646746
0.597637426759763   0.649191656979186   0.388436946359065
0.421181319505942   0.212428842095176   0.368562786498800
0.127503374501281   0.791815005325085   0.867858486526164
0.705297118616555   0.676231017112073   0.561360475833369
0.649633661161768   0.301000245531911   0.280126697882355
0.719889702016347   0.212441841054357   0.045916965985253
0.506541505867726   0.960272053805093   0.882829505502144
0.165406124411979   0.554375785948862   0.827178292936791
0.288292346910931   0.547912446021439   0.838920618605273
0.079794402132166   0.082838320679063   0.000243171585302
0.462291430157243   0.305535798953890   0.002242448421811
0.600506916828424   0.886120108713777   0.554753566879176
0.357221236719482   0.276345523904328   0.696394705472848
0.096847838299633   0.892920557206279   0.635293042277788
0.072785763022414   0.790827774719767   0.139785487474801
0.431901473723198   0.938217722720614   0.486285928675343
0.812776201271317   0.944169159677572   0.065083937973163
0.727039964984154   0.891498565442721   0.502555083021267
0.625887086673773   0.613590273763078   0.176322787738004
0.192931725289869   0.462980007052389   0.792478129128962
0.015327324312594   0.326066513216544   0.464886813712534
0.460747804227622   0.638157464702124   0.460227848693851
0.118770292064581   0.025241461186387   0.947905502613714
0.583708560767977   0.483705594691044   0.067382838080204
0.681522852269657   0.892531890268123   0.366807273949771
0.606635730671753   0.096137810434910   0.406566563297713
0.188389232622642   0.084203898816378   0.035624346302311
0.791301478239435   0.494649154481480   0.491231537524512
0.306420469371908   0.056771340446603   0.218612726940335
0.978677469696472   0.494746634225602   0.006470308100948
0.285951000748099   0.113868551772238   0.140537173669466
0.034507728524786   0.927484910839338   0.972414797556507
0.612610549931433   0.996097127810438   0.466209571588570
0.175516639310726   0.958130450526130   0.556396628686396
0.795904155236501   0.088689654648648   0.072560411704392
0.620816521291036   0.137488190049064   0.269488670247183
0.133194247772294   0.761209127915434   0.192962144840062
0.554582183600026   0.040987767978224   0.741669142130527
0.855324814840490   0.099158118212691   0.098339552094661
0.274324637030914   0.345190810874536   0.739674668596360
0.522864989587215   0.706753978606273   0.501896273617963
0.821154501958372   0.561598362984398   0.846449132478670
0.044529357402739   0.212855237532672   0.165303071055579
0.717893737132536   0.603422458098890   0.190327759986153
0.236924143942795   0.873445870268127   0.908874006118688
0.242313388955014   0.076946081039091   0.874842192418381
0.938127303411044   0.515628426431303   0.527325186311854
0.560708301160943   0.573085666396505   0.513907636577774
0.718108994035086   0.610657022896198   0.246141018644387
0.169117098716145   0.445123256236633   0.050153923349580
0.349180743286579   0.181066706370263   0.711024974510533
0.294155851006745   0.186497446829249   0.619113335767021
0.176556868709259   0.124185145126004   0.122730123506609
0.358554168896332   0.892296939309834   0.834146191079015
0.689756323827421   0.933791620923131   0.329710642837618
0.083426338435439   0.434086691956040   0.470931668823143
0.528906410318685   0.903367966855971   0.638527448980756
0.540005557607700   0.049958584468797   0.181064552423306
0.207351643876183   0.439108167666131   0.651546232657035
0.055258429313609   0.438902108445663   0.072828515141576
0.620699765642886   0.322461877636517   0.849956268240768
0.708917474319352   0.951676088302562   0.509640451514911
0.540009535981556   0.164485749727851   0.264137313832842
0.215980959933691   0.874266859598750   0.743716384741475
0.252347465454602   0.448359628509383   0.006597345460718
0.685764989650113   0.398325596895881   0.397204782318354
0.021207418518854   0.196880612663120   0.266593357126203
0.727235155374119   0.640229830042664   0.101954790720696
0.644908359349168   0.317439732435518   0.871474666127988
0.684146192673310   0.122533314175578   0.734710079420140
0.898901121497225   0.922284938925927   0.026055070053568
0.492349072058982   0.305226111039766   0.951831933143673
0.288577136451558   0.426121784913897   0.527430329329099
0.420054333767802   0.127932280809619   0.605697382659339
0.726129958451395   0.396779121322142   0.491812978317985
0.537171483108478   0.148648282475686   0.611811921897333
0.804907316346984   0.419445094700819   0.988936340630441
0.147752217988075   0.786770593248000   0.843163470622369
0.601490675337980   0.557374042287319   0.154391912333047
0.260200663497478   0.412266200006919   0.166711760053548
0.820384623855519   0.200172466988867   0.700626479889237
0.661351032181353   0.972068162660561   0.547212077831828
0.271152201137981   0.406772526879897   0.035517802618714
0.209292724907947   0.555203114088174   0.591101522643510
0.518640441191907   0.550455698717393   0.333075580066211
0.585656769185136   0.099367468482475   0.543349427357536
0.172111493697928   0.461385637440059   0.307477684569500
0.871544528138572   0.328695603195130   0.367194562675938
0.542541027203088   0.918101402375060   0.890219939908413
0.286666154230628   0.203422962419768   0.507565836524780
0.316906859827628   0.258288327941546   0.319064310447872
0.576286222171061   0.580464915620255   0.783206689636083
0.807928720907751   0.835094711223304   0.083971086826665
0.442910682635183   0.943830307856494   0.661207444261890
0.609288470926215   0.084871566691624   0.002597313210574
0.035913162013465   0.245149841441564   0.443525296429768
0.830540528602759   0.268869963186115   0.461216160434235
0.470571182737469   0.290666815878716   0.973120253720980
0.769277853931198   0.047542332163686   0.595011522854047
0.984919352892312   0.685202336994548   0.958156898551711
0.367269433513741   0.248054637376950   0.588990506868808
0.989692586908239   0.393309709391898   0.428953172160621
0.120604535745986   0.150278921190208   0.278518100232291
0.890790373562755   0.442692481977857   0.061554651374529
0.277488910442713   0.324588769016946   0.404657588532835
0.264411966345985   0.399038663683445   0.852198515218868
0.672717971066673   0.151569706667849   0.902565978734295
0.523947512805050   0.015058797261713   0.892466581629390
0.494883188432877   0.907367637281496   0.864426518556503
0.669826811998383   0.183534739775254   0.409327125745306
0.559448882729963   0.695089610927785   0.449175033601599
0.293544946868770   0.999304186220922   0.192695485947740
0.151133421182439   0.461937890330107   0.717150168645266
0.536082442682201   0.729454735724963   0.582003049478882
0.747694483981815   0.743072609369574   0.142460376557990
0.501856943755992   0.156894387320284   0.175303653986496
0.559822508829651   0.406334137694663   0.989762506345214
0.939755829348010   0.405573500130483   0.120307204352882
0.286818852966268   0.359905594986849   0.713445724319933
0.288854246958837   0.420532509891091   0.935800492346723
0.659554114387835   0.019948602352270   0.518053652629503
0.697122403749517   0.204696510192632   0.917783604123689
0.555595974165534   0.027091975056162   0.884032406127728
0.612399733278217   0.167871867632331   0.138999910989562
0.349288701608570   0.230834390783699   0.731699172845247
0.371750019089501   0.854967354022754   0.755707221288529
0.721690121093252   0.205342042171655   0.855302200719964
0.414240705889793   0.299857200854010   0.618675701619971
0.206017358566509   0.768391758592467   0.768489125337249
0.140762873603977   0.991434833891385   0.435716408068963
0.379551780501761   0.093580084177248   0.814075756442391
0.210668006094903   0.134887536000279   0.295843493008292
0.772753826026453   0.094126389139421   0.121284939304867
0.285927777153250   0.979045726657416   0.814486516725262
0.603465151270373   0.490005287273301   0.012032169919354
0.230291727228097   0.208423132823418   0.023783584366377
0.539900920126977   0.776037870765802   0.429987570119956
0.119506878798832   0.865065771565205   0.097643845459354
0.507553009940088   0.775905209751175   0.573534938200022
0.300885497497399   0.448711926919171   0.232865037982469
0.630471431796669   0.118407218133126   0.324844881389479
0.187819662851522   0.903831208984181   0.662395646735395
0.287921418706461   0.864277989553754   0.866388014289312
0.480836903703113   0.903896082453342   0.669086338372662
0.931974438501583   0.794088990118859   0.099834398269294
0.986040795829835   0.344319399675009   0.378131251339710
0.917919922614417   0.022352985593959   0.122315023156701
0.386280818817089   0.151961935065675   0.989353937690521
0.729856369252173   0.960077632518274   0.111381856030492
0.385687356055343   0.169038486334292   0.874787250091855
0.394483179724663   0.128964757200458   0.141509644348947
0.688991498726376   0.182024695459593   0.973728007836414
0.561348637376867   0.634865925819644   0.527619271110547
0.278519414420038   0.213079304424528   0.633724500423229
0.461286014766890   0.691801617132752   0.528685066325970
0.831042181710776   0.352758169002589   0.509196628430429
0.445951353503522   0.906989403976263   0.430053789912651
0.464642045030391   0.203684590928316   0.868785501596689
0.445408981276174   0.052435329565134   0.100660903295893
0.536457305183560   0.484356225695275   0.661618229815106
0.503986066351367   0.985969996733183   0.597520760225461
0.775353207688984   0.447029560022955   0.952255583600241
0.979076689516937   0.774554107321827   0.119478725482540
0.722290838792601   0.225823060977058   0.907676749969450
0.502007983790977   0.017091735585349   0.742817782728923
0.193848312412162   0.153170519288892   0.201487046856383
0.650981928824983   0.714821139911932   0.653279796762026
0.053570630555805   0.951996649133781   0.962682167359621
0.974543024498901   0.855216351876054   0.001213833280181
0.230501113710243   0.475702756438738   0.963510706189601
0.351927752006861   0.924132959269099   0.830779202357797
0.817532636198064   0.537572547041948   0.905596724827998
0.660012498891016   0.668842685491609   0.078888915650042
0.194586106458690   0.014171957156374   0.796109856885407
0.358109480874758   0.762422379103457   0.632766683098396
0.223912589193911   0.416769570661994   0.700224235712924
0.614266450961175   0.529979666152274   0.055410969454758
0.012787481662479   0.315100283949321   0.266138281845897
0.277987736218506   0.224603948785359   0.939968714140558
0.478290978816487   0.969698301634177   0.870158400433536
0.959784433087393   0.998674206906923   0.011369354454066
0.432610968989508   0.682809318743720   0.542349185716598
0.051586765434385   0.087707916087057   0.015493527163422
0.070714052514868   0.458929371981550   0.520191604295597
0.691466233728275   0.869460005957201   0.540528429729146
0.080977384156491   0.422083855951282   0.082225900200419
0.414152555238054   0.982351594573782   0.346560036486933
0.440045263328470   0.463436116532381   0.241714954322442
0.629849061669625   0.122308987565626   0.472626263757501
0.703141676023399   0.896811813510855   0.524763441756334
0.880395716491594   0.285036639520967   0.751810834902502
0.024357053890353   0.385974251159941   0.376964007172146
0.072260859756858   0.499283903038254   0.767143663204102
0.611966066692255   0.640375821391093   0.794939839871711
0.614400578763339   0.906849225443166   0.091771468729590
0.694048294713565   0.261664456782866   0.435461087980832
0.995084925052525   0.173526125405922   0.223115137801486
0.534367245478946   0.666536769795564   0.408510333031547
0.733924390890709   0.226945447390478   0.877746625836915
0.099987105576146   0.128250516304691   0.025385593807543
0.026778954042790   0.758462889525053   0.144456373894012
0.723178374406457   0.655111616402384   0.212438987092807
0.590512766999842   0.014541968536373   0.480946311485310
0.632701821720498   0.588222137904745   0.081664160398316
0.591254961799415   0.659370791992783   0.419176810481558
0.337035430517230   0.399109119274568   0.536825074325990
0.797846579405512   0.932779876981569   0.475006346688487
0.252995955417476   0.349515574688331   0.112235293961986
0.550751446841827   0.727158996879525   0.454307907200172
0.275818117158725   0.212138320538056   0.993744869339797
0.413457780069707   0.256370351072709   0.034522895088328
0.790049044896882   0.960820271366081   0.491661919082297
0.217136264287623   0.404701645331703   0.764276129085144
0.324383820978178   0.118146729740621   0.905732114151943
0.125764700132179   0.474590427339654   0.699687470593642
0.260296861181967   0.998868999233925   0.084906389192252
0.088344246112407   0.771355474142650   0.160601929370182
0.362304661025359   0.757010549523832   0.399684662439782
0.615856040032456   0.493555302317873   0.784625348474689
0.400541828025547   0.973991482061759   0.400518266825456
0.412849860180909   0.269519320640400   0.108013112628349
0.613585492353203   0.915113553595053   0.035999446910936
0.417078375208439   0.853263663134570   0.722918090630115
0.617210332308134   0.464377210392228   0.799902855394575
0.574668189432267   0.442660481817362   0.030867534274697
0.272186435904616   0.913719566486128   0.840418141598725
0.556694328956629   0.998946456036185   0.198108680965994
0.279752107607718   0.422887614159767   0.559503470683421
0.296503413992437   0.629610946556292   0.581581110513921
0.009690613433344   0.506521791022465   0.960563214399012
0.339650059635815   0.488857080228834   0.784163992364782
0.096931183042957   0.187759090755563   0.101144220255281
0.290743962302163   0.317353237015815   0.086664847574418
0.707220009600534   0.751386207451312   0.483081005574091
0.099489060762956   0.486071237544588   0.717005064021987
0.030651328972564   0.447202052865618   0.483413992921596
0.274593666513067   0.562399530997789   0.533369060473583
0.791943518754514   0.703622907931818   0.041701040210871
0.198567609500496   0.729346926877060   0.284352154712277
0.293574313400107   0.903026711336658   0.788524702977703
0.605962460614539   0.493973892688339   0.753618284904203
0.009344459296041   0.649974465346027   0.919824235093236
0.488909792644592   0.544187613565016   0.346800318421969
0.853883935376134   0.554884264370364   0.701747320809874
0.502830583143132   0.126380142847949   0.162218113637536
0.505447685124124   0.106933101301845   0.869333636074307
0.676883132177210   0.977766238649984   0.376021864353664
0.548842087321909   0.197118752276373   0.491775938882854
0.086226806582399   0.124198123911439   0.161879176731692
0.418570126855426   0.184750129768506   0.915879267615930
0.672750344102631   0.882470948475687   0.396590570480899
0.028089613667203   0.049638331511296   0.128112492838052
0.137864827124869   0.214943292170200   0.526733256027542
0.156666195379772   0.939280039612443   0.575275568812639
0.864506244338743   0.433719331351416   0.475790340790613
0.357734454724388   0.846724862919952   0.783645456354088
0.260223400827845   0.402618029389265   0.424369997503806
0.593700437930166   0.577246249542012   0.341941198480185
0.034478869478138   0.489312335149929   0.007646346119143
0.736050618565110   0.596844100921407   0.548189571566876
0.460026025619269   0.261606139985646   0.962410161951304
0.853722209181411   0.856945435934919   0.057091898645531
0.050875551425030   0.238835124713225   0.599625564089688
0.369817560454503   0.977917928273316   0.830219262034050
0.243328054291314   0.197476515475218   0.423005594097779
0.678033347966496   0.283828755791254   0.233588638255275
0.936844595541737   0.541192201095684   0.719649049769482
0.699272751940545   0.688690281477939   0.350783432635015
0.781352274056791   0.444334686534882   0.450901986065189
0.277036179243225   0.772011559367615   0.677214611742981
0.334663029230145   0.745739303131810   0.389049961301048
0.269792639233374   0.384127484464753   0.700500155727546
0.546522840087936   0.851581821515371   0.668832895182037
0.545715090799120   0.504975605871015   0.819691831216222
0.186544955170785   0.448826605997820   0.387469611303056
0.425497188016045   0.285629375129862   0.312345410212703
0.320957994212046   0.083972698072152   0.104497090893722
0.543352326220399   0.441654782907986   0.449762075222638
0.975134839035337   0.287643070599262   0.692179002996431
0.300347281366268   0.478799524454292   0.378736908016437
0.206065714309726   0.326182522572804   0.131905011210648
0.799586021533142   0.236423742311115   0.776760872244887
0.143832022809139   0.991421850139995   0.803672074508280
0.543948907076585   0.521644552461520   0.527648759306871
0.854175361529190   0.551062052333603   0.669360248246135
0.018366485108003   0.514211557806108   0.703182136588707
0.282414818201859   0.129140347438255   0.169036008844530
0.376502247301540   0.037479894927779   0.509465185585186
0.046507861928220   0.982205838691128   0.971060194450069
0.687826412763370   0.027575386470841   0.307899547723423
0.237558371418330   0.496507428900424   0.902751088612387
0.082434673121578   0.245167166981657   0.599995044113931
0.534075307750039   0.449479316848956   0.827704478970370
0.100630070347035   0.211006874218340   0.288007682539921
0.676486116748514   0.579086063618966   0.441502379972674
0.327920994101938   0.321914758083385   0.710030207345432
0.227164150321062   0.016614446862072   0.467209268768419
0.115958447182777   0.906337993530615   0.613560271451960
0.325003576145349   0.355329194177204   0.429727600288185
0.964681897347896   0.542332801652073   0.800719916892922
0.405437029738277   0.794753073960813   0.396230236024557
0.671885831382247   0.054923926157464   0.144932123763195
0.361698737997284   0.127245876256943   0.946807960951967
0.339912689778321   0.733354030504935   0.633775220304691
0.146093557620287   0.476869013137005   0.009603256524721
0.411191027734837   0.198662377994928   0.977581253147435
0.448281409034589   0.947361473120853   0.539032877822671
0.985322445932740   0.506913709911167   0.625846929559659
0.718737772469648   0.228997242091169   0.961933062415921
0.592490433569555   0.307865828846587   0.311835939364263
0.468364588517618   0.127129143354097   0.457459429465997
0.881699434190470   0.382253281443390   0.481033887017568
0.170522307207778   0.231066870211382   0.086030390743966
0.646709616633946   0.699649988282905   0.862807521010463
0.186843383713197   0.388633305292570   0.112365750054957
0.323461046316685   0.758022138387362   0.359713504214778
0.185092677379163   0.932647584163045   0.712918042741339
0.250343279419731   0.432615032463901   0.034475391662435
0.980691590383782   0.725882800913847   0.148580190176626
0.559586574099575   0.361554570068053   0.741888727652297
0.848502161958148   0.370088474190601   0.076521472946060
0.903974008585587   0.550153187590914   0.899642560394101
0.599064704543412   0.965280436254606   0.014336188328193
0.244664164787588   0.956477728935797   0.784856307949403
0.959844818569657   0.721983972991086   0.994598400541840
0.622663400634632   0.780662827908339   0.243368981162464
0.338894420865974   0.430601185217100   0.194880719809336
0.219903899953494   0.160192539809455   0.219474465491256
0.682662278292956   0.893811041828624   0.161762744761756
0.756300255563014   0.042129527792808   0.097762558422600
0.909119218737085   0.542802438996338   0.670858131916342
0.770326557784281   0.536674465245720   0.524065019937229
0.393617127015430   0.920655279970353   0.295909074150428
0.278822278367591   0.087798856945389   0.915965715171841
0.151280219173140   0.958440346255423   0.053438179255729
0.500854482869927   0.259604217703050   0.812053807150354
0.598893260404033   0.239203801802534   0.202076852134337
0.709125858641418   0.617734803425148   0.302265397760384
0.854902705751094   0.132808710660942   0.155551860951758
0.711448957218094   0.799271176778639   0.216311654043010
0.396208702868484   0.992270804969324   0.484534098704898
0.660812653155416   0.731950249002881   0.092178187594965
0.916478065984634   0.195659969184101   0.510897828114274
0.457081503664713   0.947712302024146   0.859103531551356
0.938260921068893   0.123774419097875   0.105265923247789
0.549377436167282   0.566883204767655   0.601280530527116
0.438382256726908   0.216447393648634   0.342913647335276
0.860163285245250   0.963111685399578   0.042101151569993
0.912553235421969   0.330825076469395   0.752332890383185
0.705924607393627   0.264888253913480   0.187579300885578
0.402192999719867   0.137734856738174   0.551565342881935
0.104936601962650   0.681895205417604   0.872421256527343
0.249803147990384   0.593665160660755   0.763739892345821
0.454918944746122   0.595063349233085   0.424080135150177
0.551212788302311   0.450000534846094   0.704557034080181
0.019473421759362   0.363768625995665   0.154430340029087
0.977414822083946   0.381645051181073   0.693736106573528
0.628426500899876   0.215967011677779   0.160967445166349
0.233335485637254   0.385008778063694   0.419386965569710
0.246190928976950   0.350210453396536   0.787599780751278
0.584635452380518   0.797669907715611   0.863351102231216
0.846434774614898   0.554921588457993   0.898448541146438
0.622150923473398   0.092760722501507   0.860728208033304
0.451807761360269   0.298756537531995   0.481467886829421
0.074707377656725   0.180903559758219   0.382454456164754
0.123920095294304   0.592056049524379   0.842802715759363
0.516733214697563   0.208772837288203   0.598579987448263
0.539322537105619   0.400583625420782   0.041440655715698
0.212527700782097   0.628871718602092   0.786191216267194
0.222250261654332   0.913845490276818   0.111383194210171
0.507059841875463   0.402025141068936   0.087662549315865
0.316309953238847   0.724679323308785   0.403269118568324
0.913729468516603   0.086858636867911   0.071179849750025
0.872443461717678   0.717422202989478   0.028034478785911
0.887833956949627   0.227085114988813   0.414012516653854
0.533676419161999   0.017307753351485   0.751801459604185
0.670092750158268   0.450065689754065   0.395239103194652
0.072797025852299   0.353427573414149   0.456701383414468
0.882447962155178   0.129827154495516   0.138213162190006
0.370973559601908   0.921829361359609   0.702466744583699
0.105750366667282   0.368450805350145   0.534531498680823
0.712706795780428   0.598010392258484   0.134505393895269
0.172491880269571   0.169169357617398   0.012738915101196
0.746815804745314   0.915681463798797   0.492987750751313
0.504885091287650   0.672545893029594   0.455231600368867
0.380002172490756   0.190029512829216   0.412075563021492
0.124072317913820   0.385265740819302   0.168924691822328
0.824595695697738   0.860581173825309   0.072908480624041
0.983165988755446   0.912765362118380   0.095706387568727
0.410453399305861   0.904955741639310   0.317109844465823
0.665505386195769   0.935815284191141   0.412390698018293
0.544046074647729   0.018702109853765   0.830331770208464
0.377885312902924   0.145992012762637   0.925479040118067
0.577368768243411   0.004618059872344   0.508950743370523
0.039167022965685   0.658332511858958   0.243654752017367
0.247551571308868   0.922390857652740   0.680682785226359
0.662258731384060   0.999013139734154   0.396049054536594
0.434765858833451   0.223315985744729   0.237364498875335
0.571978125267984   0.740000516666617   0.402066114564053
0.372709513002659   0.905192504332538   0.275573859127102
0.475086647547465   0.163143358307137   0.413433134244918
0.187350742479127   0.414427476189463   0.441496344954620
0.454810741781222   0.812932190025922   0.730176811399111
0.567853299060785   0.919458694614545   0.231206949508674
0.210381841395607   0.611498389803175   0.657346753388054
0.519644015476800   0.450173493099883   0.798121077766972
0.445475715029374   0.395062295591083   0.552098395557678
0.397855723546347   0.839085146350439   0.745030523132266
0.526627903530114   0.189104918399981   0.574568991563731
0.012331150729629   0.512456138426450   0.896016819412323
0.866988779452359   0.420804347945207   0.061421492962663
0.557150151055249   0.111843978388403   0.170648370397745
0.522113699260993   0.351026086133803   0.936936125608910
0.914929143684136   0.212293696125413   0.367164396774884
0.803285811392428   0.397499196990086   0.525008853571581
0.136371197429386   0.645968354888851   0.843510800039806
0.378441028737126   0.779528765045412   0.385923847219342
0.688230834719965   0.859931616527137   0.287532094630682
0.393243490622403   0.437012776392214   0.205302767082172
0.267787883032910   0.072064892952158   0.825392936109292
0.816778204988890   0.476279569923921   0.482554024673268
0.721023981596428   0.217674274702611   0.417393254740528
0.611880961519168   0.757118325837318   0.680125390315632
0.828613680930240   0.153466711480081   0.235590109377943
0.570217541660961   0.985999243716479   0.936249771528609
0.912978489589145   0.176310141931649   0.276273510003938
0.473829039236094   0.906404529690841   0.348445208883307
0.682725791417179   0.911460818536068   0.217379476169903
0.319235852911858   0.275508242393006   0.505296497438605
0.667741499997528   0.709467037695074   0.944756445355263
0.100577987061284   0.234694827243964   0.575261943501608
0.105551111483305   0.437259160554342   0.388846971504601
0.102709055331277   0.166543756360250   0.390166660182267
0.620768936330298   0.756895378478524   0.875074966763390
0.213600592249083   0.072823738832551   0.203648677755476
0.314614397343510   0.003346205764225   0.576775203028623
0.622356950482819   0.059433765455863   0.530380998291355
0.850702763340712   0.869075544038475   0.403242127541633
0.375736305700587   0.945893932753087   0.833903519947643
0.605240804751707   0.181777823988275   0.942038286548036
0.325714672203988   0.537843169698776   0.468500050467716
0.434019352345850   0.956975709851511   0.347342280043283
0.614203812128815   0.149379138703239   0.464118838712383
0.126550744079067   0.930253667030345   0.563949046009680
0.669814597777061   0.008244302532916   0.637643708228879
0.614558518878196   0.198526897742004   0.437046335831313
0.451324389712907   0.082769622283317   0.612322869912354
0.377529671984237   0.069555253410297   0.505670735179784
0.255312452761078   0.953246983930039   0.634575736618407
0.399371563332935   0.145694546762244   0.814318034734751
0.546092111757095   0.223351772764133   0.208980441611205
0.649825395708193   0.757675948944040   0.414966361939778
0.751102979856680   0.056803963016026   0.620283003590483
0.261916794891958   0.247657777370085   0.320768923925714
0.689107762454137   0.340232012610847   0.896814953421615
0.677384707123983   0.298229925512614   0.262970692234708
0.541137619948664   0.945128541924908   0.603460316102142
0.907386557782774   0.630469402986552   0.959506877184855
0.604034158568879   0.070357129970024   0.752481181367347
0.393454427318342   0.307515757621512   0.352860813579367
0.625366272039286   0.726675580672700   0.261945639708737
0.298478229281293   0.275867602309880   0.932106983189239
0.344928761203179   0.158575742019803   0.770842522782998
0.728940816546245   0.129539975644008   0.702551940108838
0.256210896428542   0.593965953650747   0.847949715481277
0.788250929370292   0.308622968073651   0.254843241299281
0.757943085645722   0.970447310426236   0.488457218819549
0.265830571955054   0.901524430161828   0.738979205705027
0.993549738259727   0.134772621435733   0.099718021434659
0.353017087948795   0.209963253608576   0.258944250865019
0.216628142968366   0.274856381331026   0.094625214199190
0.567556057336723   0.082620127047960   0.656825398585144
0.376479683543417   0.124644212684271   0.805557097579883
0.843562784577345   0.327496652082511   0.351023891462471
0.741658372189273   0.816118624592666   0.136293882178082
0.044649195126847   0.270120218110892   0.646073006553789
0.183192738699087   0.344975198909619   0.177606472834989
0.178656469949894   0.664765658294141   0.812555480948441
0.289001570185813   0.276032462326811   0.788993610326416
0.095227928696612   0.493631043064218   0.849416987573420
0.255009776914079   0.291934423808450   0.366719569768479
0.039277246004546   0.222014435671317   0.515762868208903
0.732098003731332   0.647879656279775   0.019112678144405
0.634645502671131   0.742361894257669   0.504943796924019
0.259610944782592   0.799274440868149   0.675614075333250
0.492503056635534   0.212088217029837   0.211314999095188
0.666398787927235   0.928137342624017   0.581057901786545
0.630560088090676   0.410717980381951   0.389539523711552
0.782865453643696   0.161299140479183   0.688189954846714
0.987434446580565   0.479362806345264   0.510180373130122
0.789023081687537   0.338182235223056   0.349026337243413
0.454524031316175   0.951963771425085   0.322861375185420
0.533244472911768   0.786200602247081   0.511308393126290
0.480624873294097   0.200252039617866   0.309564923246045
0.719429513935964   0.093811317137342   0.157561720910333
0.175172385142733   0.480377833595570   0.995723110122699
0.472668689388923   0.931920256616921   0.655759362152782
0.748370276255668   0.231259873743819   0.427468764476674
0.887115267337642   0.186425410882738   0.325508901078641
0.170628643320073   0.695135720782582   0.820150451236863
0.597147951486944   0.580070181834539   0.252599944453176
0.830448645225809   0.295938400666869   0.479112676810682
0.599713041987318   0.030310902874419   0.019907047561354
0.290015365391120   0.496554083564108   0.479953850813596
0.585046329162244   0.793165123706592   0.577113304175210
0.678878311294843   0.775253813769429   0.360519956762469
0.773125911999671   0.552659673684909   0.552764914713776
0.412844754654880   0.000800853963343   0.319994197148608
0.671625225615846   0.817015695895355   0.570022139583146
0.336326701950865   0.873394557702433   0.233825931397586
0.206846319888842   0.241618117379164   0.318539872662765
0.603963392099760   0.778304905028006   0.599454828443786
0.423342723272480   0.115615487332158   0.095927011012520
0.174697660812343   0.427908134292327   0.493687527979878
0.736727288836867   0.574499980806306   0.793402286353099
0.961704090960199   0.353279361914250   0.399925553160422
0.237690444758982   0.212939151508954   0.535562149737057
0.541118109687404   0.001240454509310   0.777391626969669
0.472638063921045   0.344175014224851   0.398018085427080
0.878001135650110   0.558251535108588   0.848889209508051
0.454493198389486   0.328019151605013   0.052016962368930
0.706907932676228   0.648678397957487   0.610637388383638
0.466891309457986   0.857839807063222   0.698386270619936
0.775273956186073   0.418494532817283   0.431359318007414
0.692627428630106   0.004797726168962   0.285727523151106
0.501515391271508   0.459756790182700   0.590479118619385
0.160740834056201   0.170823467964684   0.242336999967117
0.405957322134939   0.248217343551881   0.089732209250632
0.532384751866548   0.334268095741263   0.370248417352287
0.315052072526253   0.220413911575217   0.810132982890568
0.835441138448196   0.426805280493016   0.460515528608519
0.991974604869836   0.529261997198491   0.751756770146169
0.565267288094755   0.927586872111856   0.590178387719729
0.600174437088012   0.153467953211613   0.958027631543378
0.204517608059263   0.216478791075066   0.533382221729172
0.479389715803768   0.249617077487240   0.835670077935120
0.081029387221929   0.312623337559988   0.649775371818848
0.197428484590578   0.008162526736643   0.456682235384213
0.714359850135085   0.810592862494186   0.185852084921201
0.084470754695061   0.648851614196743   0.275853944154184
0.531431588337998   0.396434970282945   0.707306730279052
0.401764887225361   0.188476120607088   0.030705200789065
0.084817694563395   0.802224773398692   0.915524958988425
0.273272892884044   0.662485647611681   0.667693799882466
0.199840359328377   0.872161003492771   0.657020876196955
0.601729612559211   0.723578997816401   0.345740153899065
0.944422275268728   0.451178003046085   0.073177913740879
0.129091864997841   0.146349390898368   0.308097878587013
0.469188770645400   0.800759819544027   0.843666727263029
0.655536558417482   0.161400246166448   0.427455295382327
0.301888728589191   0.203199430613011   0.478568036532706
0.611215474549373   0.760500962825243   0.492269305629064
0.265449973274268   0.224746126111245   0.298069982777091
0.682758780302796   0.015515992646620   0.257429036332155
0.370637984383540   0.830760680118252   0.315334774966396
0.963424953492106   0.995060080573066   0.113188242839822
0.451782434245360   0.298725706036672   0.326516275849026
0.665085082375184   0.721733020684922   0.061324492740048
0.369260378520297   0.126422852752000   0.978910048338830
0.799444778945739   0.397046616828772   0.426637007123553
0.510639248615405   0.057265963773070   0.511709431217914
0.693476522162687   0.326014567254913   0.455584399667532
0.167366637215699   0.419655760021618   0.200499314266380
0.217045118813238   0.342214143661177   0.455016979321408
0.477796750788090   0.969467630384212   0.274501449972974
0.624061241458723   0.178437302299562   0.335522932657898
0.143130258334006   0.300586367915141   0.390787162038539
0.366163015924552   0.388930249385396   0.525864128427489
0.251278090171165   0.513825993345521   0.878265540902797
0.325333699437022   0.505468802167264   0.834280790130325
0.432401159870553   0.376633836674337   0.647774125831988
0.022550476636153   0.872687425042060   0.976057563859488
0.578993759167904   0.176227996770689   0.302301401111334
0.047899012466749   0.370846026901919   0.448328159987040
0.893529408228002   0.219959704256805   0.660232153641541
0.330039733333285   0.261831207608365   0.532320380174224
0.410660052494957   0.209161178288694   0.007327512026141
0.263221662711975   0.189362309629543   0.397279316054841
0.054694837601505   0.230760420413710   0.391569033431613
0.287868253182349   0.318115446303667   0.750665920531470
0.676335092461234   0.634138546226854   0.702208729757777
0.777831403040047   0.259236019187565   0.011735126790189
0.426702395873589   0.136530176910628   0.826859351306980
0.250554153809180   0.023010106024681   0.800824878423138
0.463893184200534   0.079758052616509   0.104019978723167
0.991758232418740   0.539737133833110   0.851222319460676
0.593588224593394   0.783194976886974   0.510531499991352
0.113982964406943   0.361512088989076   0.590108761024950
0.698156943424131   0.355983037452279   0.463174288319131
0.267490119768980   0.394530788420653   0.140369548343680
0.336052047626710   0.227100167555620   0.525776196813085
0.730172906599705   0.600219412571396   0.645302816952419
0.301732445992099   0.410697346018724   0.579865603219705
0.149967551979888   0.148113743616573   0.008833462059668
0.005021922768677   0.736248158360490   0.966160887766443
0.477546717628562   0.989284836922273   0.248724330291453
0.303835700901019   0.034961758214040   0.086639661769343
0.709666576689751   0.378220643222603   0.388008556563995
0.762229879478738   0.350050921467760   0.363175709301922
0.716050211987354   0.004496544562108   0.491180923319042
0.614126214292057   0.682398240839379   0.309356047756315
0.775349575794387   0.159744402728055   0.304136924169990
0.570729714608509   0.897519608397936   0.601234301875306
0.014207827357332   0.312404262823485   0.233611310350127
0.732701568203984   0.329900147841183   0.319700199647473
0.276886939548931   0.439354177382021   0.213424286378233
0.451810845012670   0.653982754925853   0.487553516791741
0.788706533003936   0.299570828130503   0.222914752688507
0.287143925459622   0.303919143647243   0.472000542426155
0.599081915021704   0.968785004120870   0.099685334242278
0.255517531306767   0.470433647734245   0.528070944083378
0.433861238854781   0.996123313278166   0.296009351477442
0.515911584342574   0.394281059356565   0.835412233109706
0.367485563136513   0.873581177976255   0.279802504615212
0.042568193886993   0.497345606036434   0.653943232935928
0.260067809466020   0.959449591538782   0.813042582946179
0.262973913696549   0.907749277435140   0.149492397054202
0.686423276735230   0.569854802788589   0.084639232474116
0.044122813998618   0.782939356163681   0.949309206002174
0.322983419682873   0.300665160869978   0.975913589509861
0.474596267276097   0.852390856353910   0.596605397081686
0.340501606173265   0.117202371597382   0.144164534939875
0.585352441151523   0.710797383772255   0.398997924709685
0.681022449337769   0.552252447379762   0.916086932426363
0.325309137913148   0.638480383389796   0.568391009973784
0.039595622377584   0.507515166381262   0.912566598651809
0.964733136367287   0.539272313683331   0.768057519316341
0.126627428545132   0.970768150397004   0.487783031262132
0.772090467747876   0.271526535411941   0.883108922013713
0.117298732811088   0.233209161559875   0.125998797487766
0.238574151213979   0.458739456141058   0.553196421950604
0.349463397025401   0.232215344260574   0.282164179247885
0.305303677869290   0.156636108601483   0.212136291308894
0.159040057133608   0.428650068421084   0.432235528196222
0.323602193388697   0.381889041911243   0.930501905009163
0.485494214882509   0.434144605093374   0.579513290949524
0.634628807214075   0.077152785335031   0.179064926265617
0.898924536821114   0.518266579874129   0.956060335117541
0.704908623133661   0.308803720201714   0.275782633535448
0.374236903545704   0.251310526429814   0.290759411852982
0.647791611638256   0.773200740594859   0.128178953388224
0.678717903502776   0.646677288987597   0.934425679855502
0.570302257202984   0.160136991368881   0.274438526811762
0.154714427346857   0.756234269772427   0.835152290845585
0.086516012875744   0.260009495501122   0.165865626860123
0.684108005360371   0.924123986055215   0.360378369311874
0.161293546865224   0.187901128908006   0.448968880417311
0.985294717574707   0.324503979619592   0.477118304357899
0.077862951587241   0.399302265905752   0.314371255732613
0.933505826978497   0.317218785341358   0.731633676703365
0.705397309754797   0.354470024666049   0.364271461363721
0.599295788263772   0.400981447462263   0.388132721259767
0.716245962005831   0.478971350487214   0.902106311142952
0.276946219271930   0.304246795918868   0.778297849140152
0.182762964617149   0.916694234222882   0.072907448215547
0.472226744161242   0.168627687816526   0.181840320108931
0.626902718618641   0.694645810672157   0.255267275405645
0.376666332140499   0.613528263077715   0.503092259357995
0.121916992768034   0.937033354745138   0.897016734836068
0.888023784628571   0.212204876577693   0.385165281977071
0.848243303658023   0.214752003669694   0.693655609035417
0.660721811111437   0.751766847947483   0.980329865018737
0.472961253147333   0.000937215582243   0.865964271940578
0.019167008266362   0.521397568807796   0.767475228520326
0.368008962345975   0.314020385843118   0.645046701997045
0.848601886268798   0.559382901013417   0.863843331811862
0.746069500530313   0.725336576729424   0.412778039582456
0.102823602604805   0.372571897392430   0.148132867608702
0.573680688685632   0.967360240463397   0.551208858707381
0.664575219072300   0.214897941679093   0.417931967973746
0.024716777405633   0.396475779717192   0.608584868865012
0.136439851442986   0.470279384227469   0.349549906647543
0.123495373652566   0.169317780572700   0.054066379608005
0.995147660648535   0.273106712329362   0.671231103842923
0.938542588472238   0.669196163882089   0.982652294804277
0.817163868810133   0.340075587127498   0.364716777695914
0.209957444422296   0.217919268501380   0.296156158403111
0.365422528820189   0.629890972764945   0.528860993879296
0.801533377877241   0.153334299119751   0.253919626238928
0.621470798465800   0.037125599713842   0.428962301647392
0.193276175455786   0.922351861969756   0.830785689944773
0.309506987021931   0.301604169466248   0.366141878175412
0.804270366310850   0.207230352460389   0.728323888558672
0.379601049665177   0.019907764034438   0.482430073626785
0.358190385478514   0.047466710448250   0.197348277191196
0.680157866609913   0.667709335340587   0.656298608360567
0.626348316270169   0.662718627062600   0.813847723733190
0.129997831164472   0.486406558028075   0.376413478903583
0.508450238943358   0.421198607722696   0.788421749291332
0.256768444210142   0.187528658692817   0.795209559462379
0.667465645857119   0.312326625838344   0.441880842456221
0.526969726261402   0.771940430766709   0.804879068929894
0.278119948201166   0.589285452137599   0.748314501064611
0.225349518876524   0.050056577484049   0.191622444116043
0.937419977490204   0.785747873873296   0.014362286530592
0.960998582012099   0.538767036972751   0.865093676363161
0.317527116395030   0.499065529812510   0.428668278875912
0.597019684804605   0.141250818505500   0.146586687253471
0.519558827323215   0.134060288608149   0.431190156014868
0.294142948256946   0.988957142146443   0.597406554343266
0.666518503671641   0.732058440229156   0.005600487588012
0.624927851995145   0.758119776453476   0.585830893497697
0.588863402732421   0.474019833054777   0.928301820454492
0.655109339560141   0.169440227804923   0.332809168593548
0.047685670111703   0.253440950682583   0.413663119662664
0.830158892800508   0.393478114376755   0.030000685140920
0.174457955061244   0.189961645204574   0.035948696705059
0.549755834419482   0.087457511924870   0.709940915726959
0.182684590138495   0.874113734718708   0.109354181856463
0.537897785234805   0.813870274597268   0.709136861564821
0.273585197095829   0.432916960053270   0.988122320762815
0.258234910009246   0.321978379940498   0.798041591042696
0.995614946174838   0.096234572454734   0.047555079629022
0.529965024498265   0.778181787092844   0.750165310385213
0.707799736139810   0.669270565329568   0.459898957439681
0.831247512719149   0.319113686704241   0.090286775950196
0.328101636065527   0.947669264610958   0.678986527043783
0.646968401587994   0.741005607262163   0.602853352259343
0.512529220423195   0.505025122049953   0.259743306093283
0.521741256123450   0.130725779263897   0.883764441677446
0.711285950857277   0.078258491791654   0.666321319154978
0.829170264711682   0.309051119763223   0.831463904676400
0.604332497255524   0.062796470789419   0.025834241230782
0.200143966407080   0.570827371805187   0.618946471078645
0.653857013120489   0.159163539359700   0.066317023107964
0.367862462353982   0.792469864500129   0.356762596332888
0.024907332415053   0.807326397337737   0.116368419610288
0.775352875065154   0.271152768945639   0.456308546698731
0.586616518256745   0.536764161791917   0.305707563463255
0.029122060515628   0.944124492666085   0.091839269067554
0.123431500097975   0.899202545713431   0.053655556379000
0.623369420268635   0.273372894873486   0.239037659961788
0.715029687577590   0.836146250808689   0.500610245040994
0.434943131245633   0.938122483667357   0.373643412508639
0.073714507276580   0.331537137202309   0.175533927026724
0.372794043495665   0.381241249457305   0.641352262431371
0.148440223766555   0.446809451601251   0.290592829733019
0.563551370851352   0.858947172455861   0.641819318152924
0.894541431004660   0.040098330636777   0.048091735856086
0.719515832021764   0.806623248631277   0.487025332103533
0.959101668799624   0.422195516428759   0.560026870087043
0.179526900314100   0.450213458463357   0.667685727155614
0.216680558590575   0.174997281158743   0.247916791118889
0.746773007514806   0.120334716624388   0.677030556327503
0.541030517849304   0.529792639504739   0.559117394933856
0.745349170565460   0.413747213193892   0.417532694211725
0.522134074492618   0.179261071899407   0.690465154355826
0.320673479428378   0.312839657961396   0.074707106220965
0.425177728527193   0.044077612215927   0.125532391903294
0.980933269037830   0.458736435759247   0.486874762193634
0.148463454269586   0.929691329363235   0.878921297188860
0.611475699969726   0.030314816890211   0.587822199049413
0.615084730113808   0.241288398223158   0.909754075778502
0.041217890330435   0.322914058570005   0.287288913497784
0.966283615073018   0.233418111638251   0.356480402380578
0.655013407831711   0.763408953644883   0.097774406998586
0.478571599147792   0.872293142988822   0.570662200687120
0.598969105058775   0.010425412052915   0.046723614263260
0.356278626724824   0.284506002373729   0.040356143903741
0.580771940396632   0.048666088427169   0.760276862526480
0.457384731601768   0.114605001800380   0.054914028103261
0.614088918697263   0.057850365465374   0.951391491690928
0.722501927568295   0.191978452589394   0.397366935235878
0.750191684729579   0.184631671662514   0.382202216761515
0.573583190301742   0.585735024684148   0.458996670551241
0.917452229641866   0.966677822958547   0.103339536984878
0.810355685199990   0.260050142034804   0.796233778066937
0.123941098276618   0.149121104049827   0.029092962830814
0.735114966536988   0.650876475188301   0.072869075195347
0.621878544619642   0.756657949033119   0.555023160118115
0.064246063035017   0.606492505343302   0.868794056757417
0.463984595840691   0.221867922224696   0.920870512412433
0.244888554015304   0.538464599999283   0.773449600041701
0.030001560674886   0.842498491515866   0.968229745712324
0.703230478714393   0.081239711207326   0.455969363521880
0.698660815933805   0.641247080957228   0.385415727185754
0.689817526035567   0.953492418417263   0.266999518206126
0.935985801391457   0.255782233194836   0.479312307948432
0.048373254206984   0.371731999583617   0.143303811797398
0.402953879550808   0.248337843943024   0.276192688545939
0.134773635570556   0.960340934394405   0.516729270559419
0.549252931330894   0.559610735655565   0.568998660710530
0.221046258512264   0.930621789144130   0.847998609005923
0.623072347430915   0.770910577619750   0.463072832475078
0.962894646395332   0.526918275707038   0.671980773923448
0.245098247386112   0.201082141361416   0.991742869837170
0.580656506449550   0.825810077491838   0.302928728258295
0.594656896271774   0.992302934917123   0.159318613449976
0.298954874238669   0.189719528797235   0.588209733587127
0.657592761329080   0.114089041839395   0.457786997472965
0.670439113128300   0.398945204541519   0.873738314791734
0.484755614651403   0.855234978893512   0.430505476669307
0.750375998052038   0.447942552328653   0.932539209482272
0.627692401134864   0.007209423434034   0.439643357789665
0.662264078493676   0.075887579802667   0.313484406728195
0.890938742720097   0.407801403232282   0.777172158610412
0.690253633611170   0.150661837260716   0.291777914764765
0.295023417918612   0.139276121545317   0.852944936911297
0.629443068164600   0.641418647733299   0.731946470747217
0.562167737737049   0.852429688090955   0.303617216534169
0.459065244600264   0.998913679065088   0.569125232981071
0.681534557879792   0.147343704547201   0.785583818233906
0.720487675323870   0.306058688119938   0.458376377749649
0.950202399618547   0.723451869120915   0.138338845633563
0.732548400700654   0.305258559369964   0.258371103339600
0.566081894123294   0.113671573278848   0.565127388453688
0.004361767216708   0.364954768999332   0.684242719930193
0.359124253120532   0.589070337087102   0.491093632652501
0.079350183040027   0.468327616003502   0.550297499764774
0.275133596272933   0.534576980145645   0.762090448627618
0.698276836642684   0.981942096932393   0.506714710600202
0.674756231113642   0.657768745630204   0.964231186723345
0.355141255198020   0.127086389901510   0.450132745250441
0.653598200923166   0.501785270186539   0.246049372289139
0.479651349384931   0.146801001927502   0.840039541276928
0.586633061769241   0.256964769016198   0.428625268747244
0.337446376866084   0.358315779299734   0.102752978027445
0.044771056339360   0.513900043343679   0.815847131876713
0.769173372374720   0.573285076006502   0.746727714020335
0.648584777862403   0.656486044947019   0.132382659801727
0.633125756229071   0.107980817734259   0.962857858290618
0.723229492338386   0.009014138009470   0.618337554527301
0.905785683765691   0.552925071623443   0.865285802208188
0.679544773467835   0.233058979211764   0.149699847526155
0.010832591405466   0.818447737946326   0.978942410462670
0.237532304300697   0.036534628250377   0.416924402527115
0.058034634832177   0.664789792818465   0.897269079915299
0.636722544386930   0.488266076815569   0.187096374238169
0.198959659369400   0.317224009222473   0.567517358981821
0.032460993207137   0.040230760463495   0.994075212490202
0.227777245735578   0.979363867921768   0.770678924861151
0.991655180214823   0.525198984541673   0.719479853317374
0.827045223766334   0.548510541154891   0.619920514262829
0.550511773804054   0.109364742726456   0.649724867883978
0.645062247395006   0.555565357601598   0.001027710761897
0.119351525626208   0.390684085470516   0.200716455686243
0.050813203226788   0.173795219744300   0.224901742294880
0.459671095060336   0.241832811254650   0.246572558043473
0.068002391950744   0.504018878570231   0.896956090600593
0.756805586621695   0.857091442195128   0.469303420033211
0.602313062290560   0.624602495370887   0.734406327565501
0.534106775064198   0.867187119076094   0.866541949749820
0.932127183262796   0.938345461567394   0.101124570034334
0.039080114850158   0.835098789220277   0.107244221922757
0.197931397360267   0.310660807645856   0.392543786482786
0.333520020389054   0.105177418846982   0.369322135121793
0.523516097852269   0.485191656831460   0.198476306606311
0.669443272145580   0.280592523511927   0.434972469762341
0.151856143526398   0.393151593427061   0.155438133598022
0.572851787325947   0.425754521132136   0.967606613442778
0.151055318221758   0.900382979018008   0.862698065953291
0.217161518137169   0.168316961884157   0.372383373333743
0.750868876336958   0.052314579832115   0.465679974058298
0.384130428086697   0.652859738171168   0.542062886481737
0.355131216839258   0.264964538369073   0.015200854356791
0.510476398356456   0.235783222689848   0.791666902783206
0.509827046259717   0.150681693144868   0.781124493542191
0.082824812388152   0.862356469997883   0.710224782116705
0.491368056617854   0.053814914513009   0.864275521348028
0.545765451766135   0.421046676075048   0.875000570865154
0.558281645609292   0.832874425542587   0.692149507908195
0.816083787287194   0.300446533086938   0.204086091820786
0.409209812575079   0.831311266471752   0.356232185556940
0.301828255338920   0.164143549395587   0.670574947825935
0.521641269435095   0.309466981760878   0.902635419347436
0.052171029937156   0.374436029549836   0.517678700426728
0.215117552128433   0.993626927651564   0.518025924168173
0.152913699446307   0.322629358930238   0.601331599598811
0.336414240088507   0.980010597333007   0.633567481980525
0.930594390366455   0.532394901313112   0.911685063311935
0.285877669780283   0.392308157580904   0.441504890926132
0.679534375416750   0.546908153072225   0.442489754412956
0.518562628720686   0.879743252720012   0.326234201356533
0.253591397518081   0.462834821117926   0.944984854822349
0.462103338805121   0.898224378595937   0.514149386490174
0.633030453486479   0.222605709085490   0.425580835315296
0.622281314360060   0.289072263421454   0.267573660464251
0.047392744188513   0.148396843412028   0.091016687836478
0.574771350685312   0.632747551007194   0.753514253782176
0.774578495447689   0.387729482383306   0.513920306210271
0.526265367117076   0.275131145835598   0.754515462588169
0.542110177212535   0.306503761672417   0.849420405962025
0.987756168545416   0.225252138147868   0.600363223864014
0.065684447458652   0.383431401571068   0.571951604003914
0.385367711179464   0.037045521538334   0.288319543878280
0.987071223017422   0.908901409293399   0.996632245274869
0.646709367482115   0.757141133475765   0.925566866056479
0.452851070603344   0.981900340062977   0.621770687230176
0.174980196773042   0.273869130841415   0.352986898821424
0.993890269043384   0.198895311794370   0.283081318207783
0.582648303731575   0.065148156619535   0.633766295277991
0.231570958900744   0.123714846923822   0.130369039845418
0.848334211952925   0.584221575054039   0.918700492677433
0.656030667719381   0.128374088039592   0.792271084590656
0.165935274114184   0.451225909625688   0.546116656581830
0.612157053203564   0.890312536488429   0.976596610201811
0.501571980625833   0.989552122835780   0.227168578238431
0.600711548437224   0.021720156496313   0.077116052022079
0.334516891513848   0.020902696849805   0.818728413063823
0.664398241466599   0.742870764951673   0.036360160652197
0.137159110639891   0.846825563136112   0.862796232057772
0.265665777094725   0.016389816211384   0.507722914697392
0.691136245224661   0.996097487708603   0.129720659054393
0.041552882699946   0.897022634527380   0.965224313613268
0.883391950051142   0.152516469835392   0.199495818494086
0.213637564924794   0.507718350872912   0.561957223564525
0.345357365794599   0.816791540527271   0.299858799344670
0.745088758336861   0.966112611849129   0.588026473038891
0.594311973886517   0.567792640968738   0.310493452240017
0.528967323468869   0.474957080512399   0.168113873937254
0.117567853718669   0.967263606256662   0.907858517269975
0.132207671136599   0.392784571284577   0.105761396851653
0.692311991295392   0.093059825191613   0.175871879308001
0.670280064249096   0.455358618030659   0.879321165952661
0.637969221401380   0.578477704055951   0.051364337308451
0.568474312494155   0.109560424608563   0.964162024084007
0.624745834208837   0.608874092965160   0.793126295122048
0.507507681195741   0.027277379621830   0.948838389593696
0.625817886025911   0.101573553590569   0.829958115982544
0.139910822357840   0.256164601493196   0.127515397524775
0.471453637669902   0.417210483109016   0.631633852547297
0.669744676453606   0.625264924501883   0.043177938007487
0.822922496536309   0.113518095529635   0.588613631822442
0.158668377021645   0.444581904696672   0.403827223346040
0.481360109611275   0.604336246164422   0.407967581137598
0.422963720091485   0.124567476777265   0.127077086132456
0.553258405886701   0.503354524061426   0.465898610793445
0.291460938026793   0.153757154282769   0.771253811445827
0.738834376289963   0.872891607605712   0.121214468350805
0.001535084816784   0.764580922031083   0.978186305633165
0.333588779235980   0.526352396702944   0.740280674463321
0.626395166817319   0.905528350627030   0.497749697024016
0.641398104760730   0.111523959696673   0.272028489331706
0.518511365141123   0.071360530036315   0.168091278802091
0.792355113092417   0.497507654333646   0.935918293509944
0.211884260237660   0.431587165657679   0.397532223973593
0.209997094121409   0.586646079135883   0.877507671743690
0.521761470817028   0.342400663036812   0.905467359035587
0.981117585490199   0.317885805722876   0.702284017010031
0.597900647225991   0.819238066031309   0.275999188913018
0.264804924878133   0.418755413640235   0.623250043142254
0.597856391710387   0.125120144069323   0.395432147961348
0.500602660393158   0.021087710163559   0.866456917333278
0.894012047022338   0.172734572077632   0.556680940753151
0.654562476711184   0.699532350549304   0.437144263016161
0.983653126034717   0.824378185276727   0.995394322247217
0.937910007905894   0.370982893657793   0.448984800735208
0.907013930034926   0.795544555937631   0.027979854406282
0.186356962889992   0.774890043830705   0.793233200171591
0.734752617543152   0.181190534658098   0.771817606645971
0.597391336408773   0.608230603747969   0.349568811163557
0.572419598842416   0.185660309784111   0.472345370079351
0.642935513901647   0.975857986033289   0.601072250039166
0.887617498414665   0.412411703087185   0.486135988226786
0.768332368486830   0.726470837608685   0.091135895868772
0.202950234755236   0.822136201611111   0.752201486881974
0.277969105495495   0.039137081638829   0.457233207032481
0.105296995257153   0.215584553756047   0.523162944400773
0.222076875300093   0.917870564255870   0.877982938030345
0.550109459753801   0.397290350670225   0.925159616054380
0.488456288466777   0.856638432426267   0.542650523104555
0.612273523480792   0.832871763188716   0.222629203982918
0.158291629330976   0.303314002026211   0.150742081819743
0.687011283005733   0.869904479681950   0.256663099040803
