Generated using phonoLAMMPS
1.0
       14.5733121649         0.0000000000         0.0000000000
       -0.1340291779        14.4272639251         0.0000000000
        0.4345461417        -0.2015240620        13.7109875096
C 
206
Direct
0.885647210885485   0.634058862262342   0.089147071218918
0.527781505167751   0.791408430740709   0.115278555894922
0.069621909831878   0.295664315145787   0.520166509159636
0.110546796896543   0.917647048059470   0.768059907619829
0.463440679938169   0.154887552455039   0.734387380409316
0.788276335906984   0.065890803789345   0.164924660489751
0.216939024188984   0.408188290232940   0.530722352777658
0.658721644618599   0.592381274504201   0.787373527431282
0.742090348284356   0.543144333986375   0.747866008398045
0.293734788058990   0.510087244521079   0.252583542766354
0.628298758994295   0.990028536781157   0.159650878426324
0.947857694090530   0.270023600602677   0.620835053933204
0.634433553302816   0.519234146004316   0.191674249441182
0.692758326675304   0.060706125177104   0.185837440098021
0.401607508039223   0.518519861643339   0.678368394215782
0.413758896390674   0.388351424278930   0.411373078419831
0.258292207667570   0.353002341914960   0.350015538023053
0.797700129985979   0.450650281383277   0.257442346696659
0.387462441958909   0.333852448774005   0.236638047239725
0.118974622502770   0.253407493711993   0.340779218617807
0.408529314708392   0.625889842995594   0.196728681147977
0.306456252430020   0.432403364346225   0.559424310949851
0.764126158142338   0.182305538503983   0.277477381358288
0.198004719167239   0.090868835735801   0.521553181708691
0.801923548603048   0.291285456864993   0.700870666921083
0.450964547578298   0.382675770753290   0.177045966842312
0.882273969487013   0.406188873400840   0.276268448742136
0.369821741028605   0.230990827836442   0.096701591265521
0.617401865053766   0.018225571280405   0.761605376176485
0.140126855852419   0.454251968976121   0.270441625550586
0.909758965937330   0.525106557313000   0.703362118392109
0.857135281733332   0.676757436516153   0.745486114172545
0.146760327742634   0.511247846925002   0.655373990655918
0.516630445784600   0.173171060467758   0.464466290669518
0.253721440506351   0.982404419319901   0.890192649614344
0.403733068167375   0.097659854980137   0.797102892286045
0.012387592261729   0.223339701250926   0.554352337836951
0.550829229163929   0.172462215642133   0.771969166523498
0.810561430227486   0.390442808211037   0.701543628660239
0.053678081438815   0.405939155910057   0.279243427748677
0.967002685351074   0.367655639832379   0.629262025361710
0.315631885514297   0.493140302097918   0.640420350748038
0.875601642663673   0.311104833938156   0.304087050409809
0.023129246586157   0.987842105360117   0.147227929322130
0.966434680689891   0.831676258507119   0.762198221877374
0.170958967463730   0.720913671104738   0.176468754588676
0.188279307457719   0.018306507532750   0.335223030199820
0.630818408844399   0.460670445846113   0.272166976841544
0.607354987928129   0.446870128553807   0.862894054255116
0.476546282822543   0.473966894594515   0.219028783149086
0.135070242662921   0.436390769621182   0.589237714959868
0.693154302075395   0.956969233338634   0.754869150945784
0.101991183970559   0.022166217621263   0.194570471903072
0.515229504337842   0.300609970264488   0.882251864902537
0.294565607300365   0.110049433788653   0.661873548761241
0.110596150813203   0.093656123162786   0.481011826127205
0.239231705755663   0.027258027104882   0.800143781935373
0.551855901935191   0.511943837990896   0.044230775396403
0.904479177087768   0.782513694952216   0.024943433706766
0.972955439461367   0.535975925524085   0.201988609358801
0.960532055570795   0.264757211162289   0.305770293136407
0.859131750299100   0.941528113464582   0.747849583614648
0.503087195951730   0.625442004005056   0.746240027775978
0.715478171835276   0.623569116959522   0.076636535425642
0.707817036423204   0.325432432371041   0.345686221848092
0.943269156136295   0.040767098063525   0.160070717624337
0.677114729803491   0.132621208572433   0.257936435105335
0.362624511161584   0.112719946779771   0.498041131261975
0.568362573970447   0.348037577604276   0.450135666426557
0.707029305353161   0.772818002265084   0.763204072111745
0.546626066493162   0.390297095406615   0.919000851775089
0.630428804432324   0.287535244791069   0.399632101346714
0.329408828628633   0.762247750045441   0.778624471251630
0.969797676611811   0.451021442702736   0.253152299757383
0.117200988830667   0.119961207023963   0.215746169845814
0.642540186378591   0.308009726347790   0.760628145324906
0.172558463978793   0.974197208181208   0.242044235521065
0.206394237094385   0.351726533746494   0.447316667432288
0.509161157008763   0.221384177644924   0.557209241467895
0.388303434114259   0.911248987403540   0.811788136500513
0.715961348008248   0.556759928031631   0.151565844440086
0.657363584724995   0.918129919840161   0.091416235272799
0.156897340658030   0.818630354948119   0.163663771003280
0.711886187616030   0.415141958481847   0.299915210127703
0.155768757329985   0.007610658252821   0.755180572715880
0.780843635729216   0.995788050622010   0.742693047664885
0.565039510447173   0.871729753375568   0.777729079873627
0.900788602780233   0.429159190813954   0.677042832509357
0.888590435508314   0.564477094104402   0.159784176629588
0.011565697939656   0.748229950444195   0.760168637941095
0.713336392807299   0.153114447213245   0.737828372530924
0.040931730658721   0.087658881755753   0.643978099594782
0.253524391875059   0.827697669895112   0.798526648232605
0.537946915307005   0.446456048327789   0.303229299646652
0.250394154319012   0.230374352441675   0.222648024284362
0.079930906077783   0.153537606389094   0.312904569200148
0.068729863587249   0.825032551264645   0.116698540413642
0.461831413908501   0.930617295880722   0.203039977102365
0.829901064795483   0.581187037607271   0.731262361152315
0.443952299047110   0.991168348354694   0.799083515489223
0.086380546902448   0.578530065337074   0.703877044833042
0.572433517009844   0.558509501510197   0.736836095352459
0.158200700464159   0.828233157321349   0.778767808848475
0.875235798599770   0.229641656061039   0.672980481058668
0.442720258717505   0.115675322749639   0.436008534455619
0.139277898602796   0.542006343690066   0.229641805726644
0.808840262501905   0.763711791153221   0.754342048139006
0.645430375085093   0.696007669040288   0.777246962885673
0.343556687961498   0.701448706362659   0.194285566822584
0.387466036837793   0.533913030452776   0.231619008315518
0.251116585660323   0.107725200071991   0.108746581451995
0.451577264497224   0.174716278991849   0.633618575169532
0.276236531306538   0.032787265120965   0.371214774751734
0.457023000621094   0.836329525835695   0.166325039564311
0.525354711568235   0.065512840739566   0.287039191542143
0.815994667162114   0.748395509870209   0.004960406451569
0.947094914268198   0.985597468697135   0.739988581631783
0.062319291154522   0.583470522566659   0.192492951959300
0.293478726317115   0.909168272646105   0.838045442894231
0.368423770674219   0.137789927459673   0.597414812336808
0.926453375260013   0.117088706819974   0.228723833188839
0.008392798070832   0.898395140825740   0.100386551955962
0.540909570892402   0.533045416738647   0.153410818770512
0.145462460770249   0.654345600915060   0.738838832207173
0.561056764755237   0.467613365373320   0.709407679292953
0.510779709479525   0.401328899951629   0.388246592469932
0.108766678761346   0.743045561194349   0.761642645556217
0.464647819047167   0.389583865054941   0.581176167976282
0.529288235456566   0.319913417193508   0.543160712150431
0.451260756404224   0.240393538642222   0.936001815406394
0.499178003141457   0.626845246165407   0.156421403527525
0.211950847879069   0.273689318431210   0.302739483723816
0.628042054120691   0.669599793701809   0.038331194061115
0.212664377217217   0.888020722042584   0.209559729230898
0.784473799707465   0.269070213650033   0.318936190915367
0.056171124709143   0.378792480147190   0.577912298764188
0.522029701131847   0.423144302243650   0.014907137349289
0.433556315450589   0.276836252266595   0.034577039667497
0.284583472922749   0.028779329105663   0.970150282077535
0.535719858721426   0.966356575195056   0.780105633712450
0.372530780465991   0.948518389139047   0.246345957038840
0.662081202607705   0.862385099983090   0.764206720534434
0.087326518872843   0.671504909529942   0.157495866617050
0.749617069167888   0.898060032269811   0.048716793632284
0.469870872238604   0.361743852346412   0.076568331002048
0.044102222826544   0.313908508262723   0.306815555557510
0.641400830281975   0.409205282865574   0.760738166576033
0.543981256277267   0.693803769248572   0.103030829034809
0.801654607736386   0.659058944341331   0.048050550956940
0.790603916554739   0.094191027460728   0.727173574698331
0.411852370074838   0.817710875845586   0.788381390649765
0.565982289946448   0.263465575504140   0.802829802907546
0.236211078006538   0.023375244629782   0.061458440568923
0.869663902254253   0.842439431564626   0.755844332346149
0.742676322800554   0.807876049389619   0.005029093305768
0.327193422713596   0.667020115330702   0.746095705567340
0.980899567622013   0.168861065589537   0.292592652950133
0.361695239189391   0.016499462091202   0.318541431603085
0.307999109058373   0.087721012734890   0.759649944448375
0.336613271487398   0.265722494807563   0.187313579580011
0.595353837476265   0.133490432541791   0.312357348951078
0.349098655866149   0.108981983018278   0.972280332883835
0.114831467747616   0.077630132233838   0.378710638921112
0.240521572019269   0.624849119652110   0.727188213323000
0.954858186631521   0.672288007667476   0.744089409523329
0.234029822765091   0.435333001224946   0.290822214461803
0.390192552305705   0.398865345591571   0.514290851411162
0.206724163486586   0.098314943963802   0.623156228099376
0.922454124707015   0.875094885469940   0.054415696424317
0.505603333279688   0.795509184303583   0.779636710522527
0.279412743612974   0.079393198300574   0.462442374450458
0.230177695284231   0.578979410244743   0.224710331611256
0.537985805103199   0.994553049431250   0.211729712244825
0.950622816209353   0.708793741332971   0.067830980252066
0.366129132311474   0.797562477335968   0.188447756092761
0.653828522383638   0.768669918294716   0.016153815532610
0.308474267094940   0.875208072886009   0.218780608464540
0.237674858189851   0.539524271589243   0.675473682221317
0.015262314035446   0.915807622570728   0.756529388764837
0.603792453170043   0.836393824271851   0.069954168022430
0.328981471946047   0.151227304964567   0.062316982303555
0.409646172985856   0.606815266019289   0.726995650971226
0.203342583464210   0.153731656979132   0.183372638056859
0.733204780449308   0.446942717624744   0.732493257175536
0.841280715602117   0.931053693196133   0.067113872385611
0.408485077722976   0.149839355196029   0.903294484903321
0.626312422526614   0.113772650633771   0.755913991807171
0.586511091432902   0.196381008677590   0.394382195754604
0.800916301957250   0.525301145016225   0.190299455686407
0.032461604096885   0.732380370490623   0.108068477851252
0.956222328149923   0.073717267004635   0.698080936424048
0.359374419768435   0.358202083278694   0.335396643515297
0.128662881808825   0.068494526011250   0.681013903882727
0.718243058837974   0.251710692281576   0.731280616584305
0.477277983972342   0.454647458141946   0.657988778976227
0.134240312837177   0.289695358709198   0.444681975366913
0.442436156113216   0.067428296712309   0.345218858720854
0.875682485574479   0.132209228474557   0.696592710285288
0.598856122463440   0.576025088400991   0.981020111832368
0.856964254436039   0.011729755495540   0.121399157342574
0.548351803973736   0.708726122555970   0.772284555914449
0.625248798050437   0.541691954270138   0.885952320465237
0.039911116336650   0.129095086710337   0.549051196693827
0.831068191622598   0.131622069037675   0.225450191522360
0.249186525756840   0.671344887703198   0.200891592095131
0.990126561127175   0.584547071882409   0.714603066565396
