Generated using phonoLAMMPS
1.0
       21.6407435721         0.0000000000         0.0000000000
        0.5896573786        22.0359288239         0.0000000000
       -0.3103185545        -0.9165662344        22.0463948733
C 
989
Direct
0.786178199698159   0.348623090855609   0.086003557084805
0.791695162802700   0.640048648260906   0.048909784397715
0.011069068125436   0.079528390819242   0.120000830757324
0.950005120373226   0.890897968801157   0.892325834362384
0.953399201301734   0.605163994465449   0.361164197854547
0.970507638819128   0.310170821420543   0.610810591817379
0.315588013121047   0.011221447696137   0.652604953448627
0.585311189266221   0.818430915683942   0.537634255764639
0.627053023996327   0.594620645026122   0.821883659624744
0.151514524492246   0.785119689617007   0.110937098516820
0.012429681315209   0.332012584640263   0.881728328450750
0.784647736890773   0.582356567189659   0.230612427982833
0.279631350869503   0.103290884829869   0.498472002481875
0.254930719570740   0.393906541472825   0.105118656511350
0.420802868825600   0.628320013002581   0.206165662736297
0.288907933879609   0.149120665206552   0.543236010641559
0.433321562275237   0.224417330969416   0.744814369622244
0.148520248359447   0.963199582486287   0.364379278161661
0.896844763979253   0.370705450688447   0.115461885928698
0.411406314902093   0.786456338255553   0.795301163785039
0.116429097294072   0.138095778368136   0.041148791637524
0.331897513133234   0.755132423735251   0.457399396044229
0.894708219214330   0.017281187067727   0.462547022250337
0.189866059218044   0.847836185017064   0.287729372373819
0.985497405780373   0.165189087287285   0.179041223414736
0.693663636835660   0.066520968423642   0.596228189485951
0.767245275742537   0.183643925289163   0.680689123380186
0.250481843824454   0.425123249141551   0.167281658121184
0.832407976392837   0.025491841421173   0.289485806032136
0.880603332481829   0.099002443109374   0.362146015522443
0.944557305490216   0.020514728572657   0.308257424356963
0.961555648790004   0.343192972297495   0.230743837676647
0.833066714096703   0.088248089620758   0.552614314948827
0.428787909447171   0.019337953770874   0.133953679818035
0.891094989110948   0.630106744874547   0.103698759508692
0.995319239244420   0.289408985790201   0.831560888088904
0.938491573352767   0.283108252693166   0.797473274022345
0.725289208659771   0.415287283791807   0.423176408370459
0.374589756581910   0.492645660300700   0.048446041456579
0.400311361876938   0.232011360300001   0.989154168984355
0.194988384963755   0.496257712592749   0.288091927342373
0.389222508324712   0.360148890901205   0.906323814611469
0.133492280935146   0.269924801455196   0.208444098747658
0.887271194153810   0.376240557149398   0.672039777258252
0.132609197413701   0.170052904399003   0.436643553529851
0.989100539909241   0.578308637079854   0.866758053179136
0.721983286658178   0.024059471363697   0.284600496637155
0.386540800087229   0.270317418931075   0.763315412642841
0.940047541144097   0.709127470466901   0.960845635839290
0.879073961983442   0.428272775432447   0.716182423055575
0.943646117115697   0.813492258945685   0.595079325912311
0.828863911282757   0.352871507804581   0.645781393367056
0.043519871854149   0.693388911585653   0.263904990064669
0.988972275419129   0.427914299528037   0.440732706451138
0.444646744542643   0.552380093807336   0.519215865713404
0.231443412051988   0.075851154234694   0.025168989496419
0.331507081751941   0.268686242492537   0.725605319687604
0.322995720548198   0.482868141012086   0.010122003542187
0.874913815709725   0.353514847437376   0.296129800700733
0.878830955197290   0.186251060051451   0.662673737994841
0.144506255525412   0.645015421405916   0.233918410227045
0.355746188087279   0.452837860634838   0.321900278062911
0.318240052496718   0.190840296565609   0.285685171484785
0.092870243673323   0.647925708571105   0.521588707182525
0.035249275375499   0.067093131760377   0.542304284610248
0.454825483329394   0.142887228936046   0.382730558374372
0.100926545816392   0.243049425751907   0.837218629443753
0.770866935206371   0.714702227354452   0.692058891609438
0.796279682695281   0.726206403865613   0.198196944448811
0.717224817497642   0.333767074960567   0.678983497575327
0.169550966079301   0.632567507024223   0.756267725213992
0.925122816339446   0.681435158928744   0.457611730080106
0.726690095003901   0.878231695487673   0.645986193291305
0.939437523653509   0.756452583523871   0.755360565557507
0.263006553549473   0.889884191026785   0.538315482790024
0.061041203711140   0.000031835909784   0.063455049137955
0.163786300985980   0.486178721904943   0.234274844013392
0.527673485752426   0.550281891206946   0.892219522195997
0.931210935001121   0.531373159897243   0.544250280780895
0.209890163484836   0.266238677049042   0.632979413650100
0.622890223165649   0.775135641320343   0.778676427536489
0.781904772421195   0.493137623151886   0.164161037702500
0.011583886365781   0.941978708071492   0.978922341908029
0.989892518215377   0.103289797520686   0.375932860571114
0.882396264007690   0.521188483027657   0.212261600451845
0.694886667921012   0.711694662578037   0.387324249568874
0.995095179166391   0.996024830964120   0.817912720135403
0.425666435105690   0.279565019388436   0.078317121231057
0.882685172509978   0.910201926295528   0.715789474455598
0.162124191829577   0.599088385223540   0.132172789553407
0.325596840670959   0.700767748286704   0.357640845830490
0.278860468619929   0.790578824574037   0.471939170090833
0.214397888889038   0.774852268688102   0.135768302581980
0.337958062191644   0.549515336349349   0.481156323333702
0.816698509899353   0.532533377868554   0.203863620597813
0.158702340480625   0.576291262125766   0.460013710100166
0.325540055357659   0.161304434757509   0.822144396132143
0.789797855997795   0.083606882126960   0.039970830653461
0.081180374562102   0.022236909998996   0.887334170163659
0.352721777665251   0.685551105525393   0.917551001705889
0.951442882041224   0.203995229953843   0.011096424127660
0.671546699722744   0.102326086712936   0.020997962735424
0.118111760698987   0.053956614553855   0.146982774218765
0.108578172984058   0.573507951399818   0.418730019264061
0.996016869653432   0.045094956069748   0.343970870229854
0.146819820912998   0.610097485583381   0.512401232261385
0.114128760797183   0.664246425417653   0.744728341951466
0.293912309486925   0.136689789936329   0.770021134864075
0.811444529440929   0.717505751575318   0.451335710313829
0.832921828630524   0.982650029303600   0.238587890683674
0.198572069732297   0.699515203718026   0.847847990903835
0.618018208239634   0.259304516041782   0.174574442312160
0.335920281191129   0.126019244036507   0.178422437890917
0.225941358436409   0.042954627398204   0.199238531979651
0.149594569484373   0.248764684984500   0.537793946272780
0.770171081012126   0.237063614906468   0.716993480831813
0.928443009503044   0.547628421905367   0.255698953611103
0.798389762467608   0.620557343360365   0.940069268427187
0.767350720265280   0.516489633362772   0.955657939589754
0.893376976338042   0.910495827035803   0.174557531157200
0.223845048642710   0.267517323953548   0.900213949448747
0.488152434307195   0.158430395766407   0.977812645735907
0.138920375499711   0.432206029173391   0.852366394051945
0.222670631526633   0.130207926903285   0.059900133223112
0.480001068015243   0.107891502030562   0.643013911411361
0.111222330930011   0.015960875039036   0.375546061275854
0.817369818785963   0.159676261052891   0.430047560813776
0.860465199811420   0.849678905965024   0.851558420680227
0.091186093193065   0.248895040397339   0.507836463255915
0.158260772918680   0.125586457231609   0.228504787696653
0.519631703416854   0.658836775223773   0.252966863382921
0.310720323623054   0.356973151729924   0.089955172326238
0.498176053335140   0.820920516478162   0.848547919399567
0.056906234645109   0.553961417395985   0.325201337053201
0.114229911307969   0.005707543390879   0.100686547744290
0.332631225336355   0.489950677055938   0.373801732998101
0.162068480271554   0.339143188403159   0.964876195053650
0.007568643129969   0.114121806088144   0.578358111304727
0.197945426321109   0.131780197229516   0.706884698816396
0.672827329321536   0.917701547754611   0.085853684054815
0.247191127738865   0.997140382588530   0.160376078280356
0.039709475960831   0.136563814891756   0.399700317473312
0.356626897457319   0.348113577087214   0.850320531213181
0.999731716432822   0.352209573829532   0.281779123330659
0.094396192069193   0.295105295269172   0.623252843785396
0.035223515717601   0.294240831612282   0.594883983316629
0.466569931050203   0.067609214517586   0.591805729461973
0.309764465407416   0.203396941010309   0.633778927588832
0.465867049208596   0.260628880602319   0.505453479538988
0.828899153243973   0.248949584484749   0.742107355602810
0.122030085456994   0.857685226111803   0.731708163294154
0.231091406217901   0.667165421245184   0.304687894714939
0.850192691346383   0.658699751900769   0.919815412748461
0.701028581433716   0.740778146502282   0.445896210536691
0.397940569595490   0.176093551464105   0.372693040164626
0.524955418585415   0.255296030617721   0.534255803168283
0.232480696592386   0.157192713741693   0.757690252578681
0.978561518287459   0.080295858779419   0.896824338565450
0.106358967775553   0.187981729782071   0.744498544742937
0.402944099755196   0.978389258235535   0.029330511574168
0.879049173519788   0.430053198232083   0.141995353797789
0.174278719186384   0.671092820908669   0.590261145860178
0.158922578081866   0.304365459913682   0.313875331988201
0.539293552793279   0.584384317051870   0.763436498199701
0.120030662462567   0.772841419225997   0.648015368594437
0.142369658931282   0.732066561375576   0.831878168988579
0.163858767266669   0.488837556608951   0.576358242380425
0.979562830141837   0.661373885380707   0.939131763673290
0.813407930314572   0.441446438319490   0.139553334578348
0.255307213008805   0.408266733349170   0.874675737725892
0.432846558324157   0.654176830688704   0.843358014172089
0.180690119153784   0.583363701365353   0.715034961071637
0.257469208720020   0.481113506803077   0.299070685610607
0.749715828447388   0.685092940576622   0.360913007579138
0.331870385601796   0.643379539460646   0.262981363770346
0.398341978064895   0.953910080894438   0.452769185046619
0.663219632459249   0.409671703437121   0.404867639870225
0.006050768022432   0.809741208191596   0.610624751909152
0.093314836968707   0.824662749466442   0.680377181221864
0.188730808102604   0.006690186555015   0.943328930626516
0.976097637411179   0.606615064675861   0.619348790515252
0.953437815784031   0.606177105007393   0.106002640042988
0.426564981688117   0.680833865596393   0.310199298765274
0.249510159086990   0.610830401055098   0.204618427000204
0.994547338433996   0.032307971659499   0.503522116146257
0.087979677035805   0.739774984907103   0.599070522681928
0.016214153838118   0.912137236361884   0.743993060736865
0.042048458370090   0.069469522234602   0.917627113923313
0.328927931175036   0.402869654654494   0.549909582481560
0.914056666087266   0.479722719126433   0.170506601718929
0.006674245442790   0.898144874866464   0.926708408218847
0.370421977866881   0.750006582644776   0.142846057058244
0.009165495977415   0.767668965613408   0.039876536143544
0.979724086253193   0.498324857356237   0.173228929806805
0.215883119878240   0.000439235167731   0.590524009699517
0.381309221986827   0.122559675583151   0.608602834028420
0.317872739406676   0.113912804833274   0.117038306028208
0.248616693697312   0.975843754594225   0.941204778343609
0.963340165682166   0.657101540866091   0.661383173248835
0.040509858180739   0.648090102989305   0.967003744717419
0.255789439376741   0.075503238031834   0.250111591109981
0.650848923937179   0.368761122324402   0.349958074521467
0.063985772189379   0.091444946408553   0.153946790824761
0.328602869883543   0.153743653568225   0.594688268778048
0.089383376090723   0.856724387667269   0.248573883462322
0.670470466277873   0.235625263363053   0.547725896655525
0.993665770970141   0.213120422987431   0.716923215375311
0.594197588702437   0.137226743022449   0.429816741215867
0.379690686828977   0.777641256470110   0.493922818791010
0.254613218754049   0.552057526120979   0.067684418181549
0.066478584956792   0.411957651794380   0.984176919840873
0.094248091235919   0.360794052328572   0.773658346320227
0.510947659414330   0.414849857953000   0.387832290909165
0.052931672873121   0.146247826602715   0.190397476055535
0.572663768337266   0.036967208823909   0.572750641207667
0.357370888579399   0.826529672457073   0.529080512575163
0.956861899227459   0.980150483924648   0.992352070519058
0.308774677065450   0.789179386238394   0.762093734443082
0.057779634746088   0.990320016370346   0.835341587857687
0.275778129075366   0.963114038646661   0.116271144317770
0.225283488804043   0.111324275763803   0.460962100987663
0.432410380752966   0.073558872756352   0.298101832874241
0.282420946418941   0.349012201514354   0.451982547135992
0.551046573093301   0.440127706828924   0.432991622660305
0.201689556119052   0.354920294116987   0.802759911618643
0.159542664220736   0.306481493726094   0.714112179813435
0.015221047499183   0.589100588764083   0.369522170260419
0.211498427783281   0.955779576309100   0.383122792118242
0.825383526958003   0.298079846879922   0.784365398487104
0.211609014731068   0.351973746793619   0.006568322069536
0.699971534790725   0.345072536495147   0.311472060146954
0.320485030974008   0.316548296866307   0.036485098204158
0.923726718347187   0.426650324255236   0.444179866879714
0.253896034995258   0.906770541665444   0.363963566656326
0.016825901090703   0.392593098964360   0.387051968770381
0.346716098566686   0.222076066957652   0.681601308801683
0.133924665473315   0.150497474075420   0.696815115953718
0.604676797573214   0.343691274791899   0.665500381550766
0.939037093052428   0.241186067229954   0.744746571689358
0.071014814711034   0.325618577108564   0.908294259223827
0.372595274977113   0.315560485377071   0.485231638164827
0.602843414966665   0.980103784715441   0.168590260283388
0.377915020221166   0.278742107173244   0.031738627064483
0.412505796991613   0.422873265609775   0.328879999277392
0.013070123270888   0.975689299823452   0.474052227589246
0.375142062962892   0.622550024913339   0.765837330639843
0.482949563061893   0.721251619200473   0.690821700669298
0.289320974956465   0.701464927076286   0.937746856971969
0.997475398286723   0.368848348484033   0.709428298362819
0.985947241586119   0.417601430994393   0.753793456730936
0.929608839286491   0.451622787123020   0.752714649962905
0.508402830709491   0.294980055226360   0.191237539481162
0.759176593636092   0.450699770683000   0.472456873781872
0.955177613614802   0.027341476541228   0.038315161179618
0.157463954365451   0.742122171573677   0.374928443289864
0.029098936730875   0.191302819696818   0.435882889480405
0.049085547195758   0.529819490847793   0.263272179118472
0.139879667890619   0.207328454659743   0.797037216333311
0.298506866326620   0.993843953510538   0.983793410425905
0.798620503096135   0.217718650052128   0.987555925815687
0.235778858306529   0.196009594139933   0.142441517447517
0.193815876942839   0.416684184266309   0.495788552405798
0.974245513196763   0.788515046875308   0.334459352759306
0.036029525384628   0.575447349818419   0.615968187907509
0.084610131103256   0.454965844711544   0.502270315107647
0.524378055927928   0.709928739938245   0.357193153132581
0.145365619237415   0.587630673114397   0.029802415214640
0.482415634407068   0.804290115295799   0.500804215993222
0.878598051142618   0.372019919798132   0.844709781668374
0.089275019471035   0.410342233407996   0.812583281890500
0.956055825623200   0.671521500782053   0.202149597048060
0.990241616598012   0.876720880540195   0.695342680202360
0.708732101530443   0.648638075426636   0.259706667820514
0.286296437163484   0.589584695548382   0.735199990436071
0.310062805276342   0.175028640701009   0.220220024539245
0.887096140951709   0.731095999722986   0.722618604608861
0.021734452858405   0.795274858357477   0.815392217335768
0.225342045868217   0.863275911506531   0.799574012046234
0.320669711108895   0.900336447384524   0.894429820082796
0.804020692806084   0.617567341446640   0.282961743897415
0.155862938635711   0.957016058944986   0.080980681433869
0.558801977928131   0.825478478810097   0.869051766064650
0.448204425085420   0.321838690005890   0.181839914554698
0.120263701558382   0.915147178337144   0.037462415635141
0.398654937685457   0.864043962074513   0.557704866063645
0.210969965219802   0.787356502557398   0.710993515723676
0.943839948241646   0.748626023408900   0.290941840916047
0.492930883442679   0.584482427425547   0.548527701218202
0.592287330301244   0.725955111024544   0.684732900175093
0.227356851422496   0.493380761020273   0.959265899097743
0.185794135539163   0.613974095240709   0.190517450773179
0.820813172573292   0.794105944340406   0.560924621511551
0.167543472619749   0.671826494412379   0.289198426619928
0.631657979782761   0.491820827784924   0.487697057128443
0.776850041687411   0.824063254861823   0.300828047311813
0.391664732719282   0.828569444349985   0.843406589007392
0.127123716553253   0.380795748051196   0.419165539903838
0.520449954263642   0.677379402642171   0.993131286354515
0.968839078516405   0.475367115433688   0.976407254959861
0.064968113774247   0.951078019773611   0.019070798215140
0.298771832789861   0.827636135368658   0.284305990436149
0.211888223955116   0.911998313052112   0.847203273249012
0.035953915897184   0.265901384724956   0.537103484177391
0.172661818076303   0.526484811024141   0.343303201430280
0.487155120420187   0.211841964681294   0.781120609467806
0.117338881644183   0.989605509829008   0.528925090338571
0.155829364764325   0.874803173531144   0.478833662404589
0.388277234309134   0.020777135269499   0.080060097360299
0.259874384920872   0.608035909435889   0.543666026526445
0.452267174446191   0.041243718826718   0.243227001095502
0.029575929486773   0.492453287435850   0.827392895973726
0.901963273518579   0.063200227533997   0.053948415005504
0.456799607504788   0.205894444858647   0.010079153905980
0.279354383014505   0.446567409792401   0.572561499172248
0.037026151080269   0.774013840857928   0.347452583246478
0.131087860219933   0.078518473289883   0.604686806011315
0.152960145678790   0.334783113160176   0.769843178330930
0.180549321462007   0.053534986436202   0.988930771915206
0.663723498149419   0.812720551222248   0.877530821305849
0.234312063689406   0.244752825982469   0.252687229908358
0.357746518136655   0.963310730448927   0.982347328189639
0.303433435716853   0.637887247046910   0.587150664514175
0.619125539395057   0.014421588566313   0.530469837232370
0.478311381915443   0.236289031362519   0.064230237557568
0.565055868207845   0.210760057458988   0.505851707913762
0.395105928006441   0.227158086037553   0.418289307752912
0.040138141292761   0.645492699914263   0.479454593857495
0.569078560110646   0.862276862099438   0.583362816184327
0.424927691154119   0.143882551694952   0.654431764599904
0.042761857258592   0.248365983822266   0.809669431332656
0.542899584884405   0.245975214692700   0.883944250839910
0.577031610055319   0.172218378520993   0.052460749099650
0.425055570295276   0.795545270306323   0.230968526566984
0.274700684387721   0.633045735425761   0.785623821923654
0.074664391785454   0.954743747531215   0.488396745222059
0.536250972920414   0.377585134273563   0.032968881768523
0.197968303807071   0.210692775623463   0.512977698394421
0.926265898528371   0.846147855966824   0.845163502109176
0.262010169978622   0.337793692147496   0.787887901846329
0.255331432647937   0.229207050261488   0.607630724977340
0.032303024905417   0.493658622533770   0.132533760135933
0.988490427051339   0.508972677399729   0.031096271519217
0.947937319459108   0.967731242003508   0.266444977229093
0.701159188533473   0.812975245374129   0.554769773937614
0.305127601838957   0.420762505310823   0.211466582032700
0.424466831032288   0.308883533472273   0.521357803217081
0.555226793315312   0.565329570941830   0.536098176954719
0.658525304337757   0.271370420634994   0.981036787388476
0.652464128214077   0.416978326069819   0.734079970580584
0.435832503279172   0.379508666045481   0.282183123624184
0.632921731692132   0.293592284090879   0.232714906427331
0.294991546109805   0.487415515040361   0.624907590523339
0.129350193312467   0.873520120815783   0.297181260140393
0.203410758934315   0.199176805397629   0.801257879191559
0.777341147348134   0.212293785705018   0.508308100458267
0.385007623574537   0.537282513651471   0.690706470945137
0.481970606867061   0.635567855036268   0.588768815699665
0.101158862157265   0.312106719111054   0.683503814868596
0.165933491814574   0.514704949982116   0.938978232902411
0.989385928327937   0.635476080936875   0.154814876972632
0.143860790825302   0.458801476983046   0.134214535165726
0.740925325864534   0.757989313864749   0.205098837972649
0.267556946757568   0.445669979767157   0.927020100903275
0.762284853857686   0.321309459869961   0.782899512559462
0.465665884580939   0.442844420633175   0.654981713925845
0.296984309887560   0.366565530141033   0.836987544042748
0.271848687891115   0.765096684219292   0.715907756833057
0.492794410639515   0.352339922433725   0.293821649173355
0.185276662664870   0.838926490546073   0.748824807632999
0.900125881301216   0.971036289252795   0.960908358112385
0.186267810569947   0.758473639100068   0.008827322794426
0.925331180732100   0.402559235035470   0.880975438915051
0.257725208926324   0.750317720768695   0.095943082855768
0.754157286642129   0.655556234954549   0.303996725020866
0.221180449183726   0.556409582391012   0.446876984042938
0.185713819893223   0.353568330321710   0.407645456849008
0.075612731234139   0.595523756500110   0.944800690530413
0.152083898852822   0.271864387220187   0.597894375735952
0.898131493415588   0.925965668892522   0.914158782686417
0.370701471430104   0.724618356372552   0.697475972301603
0.923556438158585   0.179367662387553   0.435547008714296
0.179810089502914   0.520707618763790   0.629676070839698
0.989073731895049   0.527025559806863   0.232825317223019
0.458281714809090   0.845397616996982   0.334400618893409
0.276889356288191   0.684897813002719   0.632474705281047
0.300491194024142   0.300180026276787   0.408816460096857
0.646848712731849   0.796122204528166   0.526186887546371
0.896160001429346   0.788590790548916   0.015711174139382
0.405768183770950   0.158633297956962   0.900727543624351
0.192125847915655   0.575239562008717   0.077220327848785
0.305384841231091   0.597646287834781   0.168115030656948
0.065216721226728   0.097395270993995   0.970468882688458
0.531432726911341   0.964643710027185   0.473397249753505
0.368705360372786   0.622715505737466   0.578655248321353
0.259943392112020   0.928775496314458   0.894856148289926
0.841852512471993   0.905040398413050   0.889749558271603
0.049683642923326   0.602884860195661   0.427349768710268
0.409609186500919   0.943651514419979   0.632359217011213
0.822989148048594   0.799317368080441   0.844596933285938
0.287261748903100   0.711636577082374   0.000817465277365
0.618844688209057   0.023328462892864   0.269418014334555
0.360134175523344   0.491661909893612   0.648029819936791
0.775063619089348   0.044661759640690   0.313102350732175
0.096928297893473   0.047016994174360   0.556120620648432
0.379022726609474   0.041871304689415   0.520657421132448
0.237563695374005   0.227687674717326   0.848523516316746
0.675279364547483   0.402136815769725   0.798882647308933
0.331800468738317   0.854288102547945   0.848938454906596
0.039097918280610   0.144040513189780   0.627990793032894
0.142759002576199   0.993616908332628   0.898125022879815
0.272944707474947   0.299052173798688   0.734568240887900
0.082581125307776   0.905411234230866   0.761343684373896
0.166023230724208   0.163976415119793   0.069137297447483
0.468614693994310   0.065165717617865   0.827204398034545
0.554349545877574   0.256959372278643   0.150285765497770
0.715487627256403   0.993311348726247   0.227592696168058
0.852484452431008   0.183856567937765   0.966115018913830
0.144231253435243   0.795293469862547   0.921829066239435
0.154773417490897   0.946661325810657   0.850775281300786
0.490584828292622   0.322927152477994   0.948888628740626
0.952593648549809   0.561755663861489   0.053436536756708
0.410264396555930   0.088125101144713   0.808287790471416
0.247949026735237   0.199945078773269   0.550203766634446
0.908248344293176   0.949118638553449   0.761261367060321
0.490160332661308   0.993377607252729   0.129495331840288
0.558859075614191   0.386984962807072   0.680661803720738
0.238754751734807   0.737657570180135   0.035340613350965
0.288308076617816   0.061846549198878   0.685020688724489
0.432575344734709   0.557420870020531   0.116425974167258
0.191514071514649   0.054989674024436   0.620593665251358
0.595627345177502   0.294152602644928   0.978139365820592
0.506300424608029   0.961579975461814   0.074670324080682
0.368715142703022   0.094960015118127   0.299980605809138
0.477572796951648   0.096064415379497   0.341646755094728
0.447677530255907   0.221009130390818   0.456907805466164
0.189448454143105   0.166511840933338   0.465503560059561
0.544608104759887   0.285382765388400   0.937514020717810
0.322185878602852   0.088237930769862   0.734935552643248
0.278134183769122   0.979907503928108   0.607331134044766
0.890925059139505   0.033373819135375   0.831191888982848
0.469140914164275   0.672979914315633   0.947695168306337
0.307271723001106   0.720140548067739   0.678651402462177
0.047644781887744   0.862586601952763   0.423378202814656
0.642879253220925   0.151620859521586   0.060704798570982
0.545239987394875   0.792329733535884   0.493721125950727
0.412673072027619   0.316421960318104   0.128231470326415
0.357923984840055   0.354267915086762   0.133760111208540
0.723630671080751   0.489821182172109   0.928932427169872
0.359524411488946   0.157294402220450   0.323590582541904
0.203423878356810   0.394097224736771   0.059652070896757
0.450771844443419   0.540033755819299   0.707578875804876
0.356572364227691   0.621194088705858   0.207624410989008
0.600092975226404   0.461226260827010   0.863250876588843
0.866993059346897   0.270687599728427   0.557628005424536
0.669019456024453   0.112993598753610   0.691349578359364
0.810781395367896   0.340770648734073   0.291250060016678
0.490997724286191   0.344434377098294   0.601541915411357
0.031765801972725   0.760131366829650   0.577306556157809
0.956021930680661   0.802459676050134   0.805470109832155
0.100783263682314   0.631782281784845   0.054310416142010
0.444023227592521   0.324535136686767   0.905252464844955
0.577080018535719   0.727649792333138   0.395108088195834
0.886962861156559   0.231829083341497   0.184257322040424
0.834802010479658   0.835084232085339   0.614108047043859
0.537602909713387   0.221709851373083   0.091677929276673
0.501859392439385   0.022476080021426   0.788282891596356
0.447518576206181   0.437474718410203   0.383915448699984
0.581292767841610   0.166753808799513   0.818083673255932
0.475679600431489   0.585386918806909   0.750268612852987
0.526534860699430   0.314755654917243   0.250611816206347
0.286850638101368   0.835461640063880   0.804059988123882
0.647243732260345   0.691663047615571   0.073156946941620
0.802165977926664   0.683787169005463   0.149210479033192
0.462124198221848   0.501519049026341   0.478404780491953
0.685286953847543   0.524806600773218   0.514806877279756
0.763975452255865   0.434755872328735   0.706001502261499
0.696178922415046   0.620692340282857   0.913187285980353
0.436538523316006   0.626164974660579   0.783499202444180
0.381492450262371   0.136080192186615   0.843971030498688
0.632402969154547   0.752850514343185   0.163085157943641
0.099697163674909   0.332880923658509   0.324944078665488
0.791783811754248   0.805431515506837   0.957617153340947
0.217883842506023   0.289615550677460   0.694337536271693
0.219847120720132   0.738108568722898   0.390834149506923
0.318216269831676   0.049717871589728   0.491493478288501
0.477044644219211   0.784015822352624   0.794627743024623
0.241086739096170   0.559167815007512   0.704556798935488
0.565452633134260   0.614457522460009   0.814487706638459
0.455949509473791   0.599762065468050   0.160468147755282
0.125482472823095   0.086189172820713   0.998397145043302
0.540546210538559   0.431732878077285   0.068080712453253
0.236345433810229   0.791730089427340   0.197133705759007
0.268174750352882   0.636138975341026   0.262116990247622
0.131060494757998   0.712697657862907   0.325167511568160
0.924754273234469   0.876372046263180   0.680407712290724
0.462941681175397   0.850149158084574   0.550332336408157
0.491383386530320   0.491247464108730   0.691501530640871
0.802578692622677   0.980764417108595   0.430599964962844
0.322217502705174   0.068690352473971   0.261997397451831
0.336556449066513   0.709279399998704   0.042453096317054
0.174355575870977   0.207334187485563   0.118488761768649
0.370999380003377   0.917348284403472   0.935732486810533
0.597090056216495   0.976027884049730   0.479708794148844
0.741203747144335   0.980908800634885   0.450066670629073
0.768614426568566   0.087338313333130   0.362197137259419
0.509081016292262   0.032067128993169   0.558441793805952
0.796303041346891   0.052310444728993   0.510746653351335
0.463317352358151   0.949043471535218   0.025262429127336
0.736985698541150   0.909035619245873   0.098790028143680
0.613307171353483   0.802788036174935   0.837352170551808
0.410523384070179   0.040676337034009   0.193003983846502
0.483207751229370   0.366669000576512   0.996037825059290
0.777421813919964   0.798578778244958   0.893319420847879
0.777426072077452   0.942203826984054   0.742625948328092
0.614384660486038   0.689188704048441   0.304832229424459
0.132365467600101   0.566126973520094   0.970435589263197
0.537334492543038   0.298026230714240   0.584638684649972
0.622369888126537   0.878232843496730   0.616179179320243
0.198942333110746   0.908092600773158   0.521417545411103
0.931120503524043   0.050961907447599   0.502322255572588
0.645730466778012   0.841523777945896   0.933545380924192
0.743183317345182   0.288952036190144   0.220474402637443
0.111284906504025   0.925480392719485   0.327093613783240
0.877836008954526   0.846715344285151   0.349464499945554
0.263492772885448   0.280865438880207   0.357194044434770
0.562671263655601   0.131366425479870   0.722379667583998
0.104220057276468   0.121603005271202   0.405801561271811
0.691451129829542   0.307652993943563   0.030094079363675
0.476784842059126   0.925331336951403   0.639301948504486
0.275443105081660   0.276131016476793   0.939461604449607
0.462049060897873   0.133183213211356   0.921875359522571
0.848900183485644   0.586136972792916   0.835733397949525
0.299872078700424   0.797423003343930   0.224409035056871
0.137722822764380   0.066650680587749   0.403430717408205
0.421177687070381   0.996958483770025   0.495146964514385
0.634268257497499   0.944883993408708   0.434511997768917
0.369479645782657   0.763912889260899   0.753584334104471
0.493720881780106   0.088622605937191   0.883887760878301
0.215307331315985   0.653819498074567   0.801099141220107
0.508205571236545   0.755242656581417   0.745647176986238
0.259683804932804   0.210549883676198   0.200479391093226
0.589694550904787   0.341612459738752   0.024055182629532
0.736792347727281   0.239422620793732   0.546605659077366
0.749910562849169   0.503663305255510   0.509449321058941
0.378060446773305   0.401496367785943   0.954546819148486
0.571269605566407   0.512170031344817   0.505391251677795
0.485148934005846   0.172588628804632   0.434009605878377
0.443186052195109   0.848322586178825   0.878715141923803
0.298489756633785   0.208829475958987   0.857435141148339
0.863337633521906   0.285915012465165   0.214031803708399
0.005611645755122   0.861837603476025   0.179520019157109
0.731278601671909   0.249465402823647   0.170980475568147
0.225340016103775   0.375034610941279   0.453914368199923
0.952129271590417   0.334247619209504   0.119400172460305
0.422166980663883   0.653151818423231   0.612563894351519
0.327088993070427   0.360563420869600   0.498696560738609
0.821733036906215   0.302909757607602   0.599098917347069
0.422977616579934   0.479702022097759   0.431295525397469
0.133310176395759   0.784484638104053   0.044497655677395
0.188557636658686   0.755816969921056   0.945411166759173
0.760203123733237   0.639725591076971   0.993774216869071
0.667651130677331   0.584264441139796   0.185874007680178
0.062025061155864   0.816299051632615   0.860368155837208
0.273864314243730   0.569265621954021   0.489136857158444
0.707391572958535   0.144195625751784   0.439408305333958
0.447478159020025   0.290830003773864   0.850739819720582
0.543963009535015   0.170072281787213   0.457112460241965
0.753890939577247   0.305066164275976   0.048153805921607
0.894231545992658   0.571872809610667   0.021514352334060
0.778257340644320   0.214737687440019   0.142139434497525
0.480026178437867   0.654038248416052   0.887175808670995
0.265432239313255   0.149796567527093   0.103881407058241
0.124385213304831   0.819114422601586   0.209704664938172
0.186572198910793   0.814031525408561   0.231910849795765
0.363691416066851   0.780633396933639   0.200437312104560
0.866492473407258   0.608267678959206   0.597234830259988
0.370035269885786   0.912836751917101   0.589935863652306
0.780324091532310   0.073291661476636   0.844527125954225
0.760827958012998   0.281318623423139   0.590962226471716
0.334245862739381   0.060732890660852   0.075601482218690
0.008919803314324   0.036179647145556   0.072932916208777
0.550236840167070   0.801589813706246   0.234647942202337
0.531817547903892   0.372570494287705   0.342311217927958
0.553505538727880   0.070642870754788   0.902023147743036
0.601371750471082   0.509292644648112   0.125367009703128
0.211526908989457   0.702981164076309   0.631321310354297
0.294314778357704   0.836826088218325   0.516933528837503
0.678791530888734   0.145311218954014   0.851149528430414
0.354465606786950   0.071799550726427   0.206037362394393
0.259771125181762   0.701654929271439   0.353619376537687
0.773361874333320   0.869990022864008   0.056313574946604
0.129916078671633   0.245698597035582   0.145523412713862
0.425100511988264   0.733787480349881   0.410782412364749
0.376475153229316   0.209029165808017   0.934358606855372
0.587410855653271   0.315194501097937   0.271357805409049
0.369058777028172   0.669439584034729   0.857798810584819
0.857271182256554   0.651039781504134   0.373227240883958
0.433681716358547   0.890648340229354   0.929287814073039
0.324823763297287   0.439923081601917   0.961263432039210
0.141735489503497   0.563582975678069   0.666843830226625
0.359391432344412   0.868214443850439   0.367330669551226
0.521597874916602   0.855138694568756   0.336621508081024
0.842355135119326   0.200587915539745   0.148247082064116
0.355627025092941   0.832956895545991   0.312855146596019
0.416282790921212   0.819382955823468   0.289575683765497
0.693752556170896   0.003873230539739   0.825808659630291
0.820496338312187   0.164819085851629   0.645370528005529
0.817582387998793   0.906913598533360   0.703363687764652
0.733018932544654   0.775938779982995   0.799226395120925
0.234804426187306   0.005946191275752   0.421779491995833
0.917609082407187   0.169162465180117   0.969625706282210
0.507343270528881   0.923516672344510   0.429250003657558
0.620268683506058   0.624906093797100   0.210782480614456
0.356769800888617   0.383763464788842   0.191930237769829
0.821994540808323   0.117128144388251   0.382429114077552
0.442882476895021   0.915768858214212   0.423968136909312
0.605903473998234   0.598159063730617   0.552537105046265
0.623997235561801   0.914350398809908   0.670753716650024
0.579563807489178   0.852586625415680   0.927202488999973
0.575045391778849   0.755289417920781   0.739805405542872
0.883094007862508   0.224334149652487   0.716862906195164
0.567280280079702   0.939516410800833   0.071109053385350
0.486356012215300   0.996831496311213   0.509073304932602
0.617107156056693   0.948317774032908   0.113174004382084
0.510315310997944   0.954866660286151   0.690987228866583
0.535493384634704   0.168345931121017   0.771259205766682
0.503649732328588   0.390143495620674   0.646925217568016
0.411911755062190   0.016901424293549   0.718366149704611
0.982462559301411   0.385848145690019   0.905454144077571
0.025711267586561   0.249525434300381   0.075207898140664
0.781592243143405   0.584600301388866   0.835484663404421
0.699163242975657   0.942665625312590   0.421967349013898
0.037825512247414   0.482784781252389   0.067624765798130
0.931035936121874   0.129331691269975   0.389811483437048
0.651650231818070   0.191917018349270   0.892770501168741
0.768293082278351   0.159587726881976   0.906620175991076
0.428398105150700   0.454194103949254   0.040104321413148
0.585816951413902   0.433411721898367   0.716694964904931
0.213240200231002   0.124765628106805   0.266093001768043
0.578272531532128   0.096733170191437   0.957996203977028
0.494147307382769   0.248458206381322   0.837980445609004
0.648322984233396   0.158924743886836   0.460728498168263
0.197304785847124   0.624844411216531   0.551171920390317
0.706857632523229   0.462317513845851   0.728901953918175
0.523824786786286   0.481053665426188   0.475797946116977
0.618544015879676   0.443126128868473   0.440316008389945
0.052651702757076   0.954628709142496   0.313428181329027
0.077672083297222   0.299063200401795   0.221680267367381
0.082969152088820   0.592624975960072   0.659505954763099
0.535411454940228   0.617030366667744   0.876628891529381
0.986123967770611   0.734680971761981   0.535164818003369
0.195791481606732   0.400860714073463   0.848173404652487
0.589935760445069   0.203260537370396   0.871123519757827
0.543787991838743   0.543286574231292   0.127850641168258
0.815694261011977   0.513417112156880   0.763910249126328
0.762245894297018   0.170828015212313   0.459965203303197
0.631167317941278   0.203121943236549   0.508719278796136
0.653446713675778   0.708398406395901   0.665313797756742
0.394174725686798   0.304136461505729   0.816076918852127
0.045436295109981   0.747320409821264   0.777551073475538
0.600622156806085   0.723766321703461   0.111703056855907
0.428321875441938   0.405142272956051   0.998096565286925
0.692096699153605   0.310227598350625   0.255373662785042
0.646459913692528   0.661719188088437   0.258074235388507
0.583667756681996   0.539857559255037   0.744073287005612
0.522303573774844   0.594353231661876   0.163517052593751
0.379103869474092   0.990987853125333   0.667794507202178
0.704715187255346   0.728906179109203   0.703142182161216
0.685991466618193   0.761575806384811   0.758215104830783
0.642292866558720   0.664822389247058   0.011585032903013
0.702983349939151   0.521693235154340   0.761199978338592
0.555553262656378   0.627326411804559   0.206761227683558
0.357626124246649   0.277568787972181   0.432432355257591
0.487519135810330   0.522722141937426   0.100129277039914
0.460196745218766   0.708843256628787   0.362049612912755
0.760627594576017   0.543295205955315   0.785199761661025
0.561379418399144   0.503399667613214   0.881206633177392
0.555416831742297   0.488787929242390   0.715073711171366
0.644537473326647   0.551790769556576   0.773319152540791
0.481114725894852   0.908747658827934   0.974235571096120
0.349829055619518   0.582713353139917   0.722174622721743
0.893437755232430   0.682872072156522   0.199081278604670
0.703946632095104   0.696639398146736   0.108645823671645
0.683309209239746   0.182992274904685   0.101298882326774
0.607219660407626   0.904046465352662   0.391310251838408
0.732896701249085   0.027807679846394   0.961618877908933
0.334589699052860   0.952714450235045   0.434966399500247
0.685679579594442   0.855037552754400   0.602088898265892
0.537124199640000   0.724901259744105   0.105485627167844
0.583413188881249   0.756152342114855   0.451364969973002
0.557579580345636   0.040287226908108   0.282349149408492
0.851315054317719   0.336005525015593   0.085610500077081
0.792071811569187   0.871225800532697   0.652654775653405
0.728159149493810   0.799498619275331   0.256731003528142
0.585044018809502   0.070550616408077   0.628056486313284
0.830846872837949   0.154890312856454   0.914879676061109
0.031479592665555   0.838722954412490   0.661913786079968
0.405039254158754   0.685165046842599   0.961215973032601
0.422384317981095   0.874431344743556   0.380010370318926
0.907542221194537   0.486335250471228   0.949078791351071
0.583750416492488   0.659000937277833   0.974803582332060
0.395258223909850   0.696452425121402   0.022933497240963
0.732919248113119   0.071592938231291   0.012193959082425
0.846345565214814   0.076108514425736   0.850240481844105
0.865589723652629   0.192035683296192   0.459029934742578
0.321613785013738   0.234453869956908   0.913193590866064
0.869876093417535   0.717380227321791   0.480382881684943
0.803463384414586   0.302779449783626   0.238154010674948
0.633705506823850   0.711259010831582   0.362637991197483
0.070548715279861   0.644812353859845   0.699872971915540
0.246488962151462   0.860117032285761   0.314948546912272
0.931945168849100   0.122425804757907   0.919353668320019
0.844835476884471   0.807462676263663   0.306757167730422
0.474694336411015   0.996614387207847   0.732760684585429
0.711821587420823   0.896380213368074   0.371430092178798
0.068603957658241   0.808043786569676   0.393966473879995
0.651316772473853   0.891163008386098   0.028602868297696
0.637915425316369   0.077188640616749   0.971519063461009
0.294914940160829   0.002583921406375   0.451155117521996
0.742808711755187   0.102508065243380   0.617972687974480
0.751429854594477   0.842357110220685   0.999109710525789
0.413018418450663   0.363686334675817   0.223284731054223
0.594121372764966   0.097161952848994   0.377147416517965
0.941607380007444   0.837798321171734   0.101274376732861
0.145475211920303   0.430840615948569   0.074251652454185
0.845082946721684   0.049842142073236   0.023373188267804
0.032643625905165   0.437665229805790   0.797137953892116
0.899289998741581   0.842283243826348   0.630140178466310
0.635558113794803   0.133819943992993   0.802735703579048
0.175604593603616   0.272125317032940   0.257421382616763
0.923070233498182   0.257599497406118   0.041157276471488
0.130425897711642   0.418590414027841   0.473946632093321
0.655969969921529   0.078367908555128   0.360892134778726
0.820279467356625   0.430503104011163   0.466368640273791
0.872658134061446   0.507012730477983   0.522568826613579
0.915235819415083   0.585426834350705   0.308131199637865
0.765070805314683   0.411244393559913   0.857547186678422
0.653531331286246   0.275924304684632   0.597555177420628
0.735258415359663   0.291463487513501   0.729917108555866
0.085839719490835   0.442206951398550   0.040791210770207
0.485517514957454   0.468114710998395   0.069366894169717
0.657400415387009   0.437885874464179   0.850692446895864
0.165924428135841   0.070106008196006   0.189296823538901
0.042120912142006   0.300858477340023   0.169595787950265
0.876493760199286   0.455287659111009   0.484437789551456
0.645708552810753   0.994988064278963   0.216126513989395
0.407425536396187   0.193588153195270   0.692413675239367
0.683752372815950   0.223321442238810   0.942723530057548
0.100623181403544   0.620829013648326   0.118080998955197
0.086299354833470   0.211834876702621   0.456288012521398
0.049338278025218   0.568415958623422   0.893642462326585
0.333120041701471   0.651376199974804   0.806564383981676
0.761356996017932   0.356400998625260   0.329733735686822
0.723562667531824   0.602566885315390   0.216413925152826
0.854086054885931   0.725304647792498   0.230184558934211
0.404483339040871   0.445919857037670   0.627831660439100
0.754920920828549   0.609843053481574   0.888578904287207
0.683495831355696   0.033308045715406   0.540604006618521
0.724429349178070   0.136936726743718   0.671156235975791
0.226054033488359   0.783534045939731   0.439479824056590
0.055452966171887   0.634726507297866   0.163773802508308
0.006992724815661   0.424710344415450   0.954692675195177
0.627462114234398   0.120916805227833   0.738956464021705
0.128174898657728   0.789884733402821   0.407671644804150
0.092766074006695   0.896954681951217   0.463410950348761
0.362004598266683   0.675108236294129   0.310107805348251
0.536688807559050   0.666746592222950   0.607430678664764
0.646561824794228   0.353336633128147   0.054401860571432
0.734695550303197   0.372475861809812   0.812498138718077
0.831500703847110   0.026326441886475   0.464584829350236
0.931456227473197   0.769546719607822   0.549984737626404
0.861887353136599   0.659837886707335   0.149847552354282
0.613284132333225   0.786941673439317   0.213811285114409
0.199424933899592   0.061362999078618   0.428237047565266
0.980157504153916   0.703608595431807   0.253942944965586
0.714368543673613   0.446498307932472   0.884718259474794
0.549872384982678   0.686673454590162   0.302533150582258
0.903036007327363   0.685427081375950   0.673017787500921
0.303978883046275   0.927301215616400   0.578076047047249
0.593045922139444   0.351753607948961   0.327187776570940
0.874286512786562   0.713464272925754   0.945880291079019
0.722244557410450   0.797401342676193   0.859861406318105
0.700208679396130   0.623963991610026   0.589039381478527
0.313914243781685   0.907832069082843   0.391278605848031
0.651626119764876   0.876172086374854   0.351818145532426
0.242792109045673   0.519456655477228   0.651927994694792
0.358883750775313   0.727428005983581   0.405981859684447
0.431372401713051   0.734261461852499   0.122820269053572
0.130456392832603   0.487265041261455   0.887782755978113
0.423790938746793   0.699551332276460   0.666803274843074
0.536496289421757   0.998762987090703   0.177767944488121
0.372553412433821   0.541411619558499   0.093188696918794
0.504984245947030   0.699924600838624   0.052264292943218
0.545119875935031   0.891790672832726   0.386736145251841
0.984704844227037   0.880485974721221   0.408499195526382
0.535974379076855   0.706628377939456   0.656792295666279
0.997871675597079   0.725810618675062   0.740201424939702
0.907827239109095   0.962482586442521   0.429966710860292
0.815256022112741   0.552677187819806   0.952027513823548
0.696825144168463   0.642870521007963   0.977375349749175
0.852312335356443   0.147459136406606   0.110129285261984
0.773603233002437   0.969427780352146   0.202248414565051
0.454591723697276   0.657087797574582   0.255926336365917
0.795292057920496   0.131896221963747   0.081669208972600
0.769030777180548   0.871969206392782   0.349082975889202
0.739584983486243   0.123433425229056   0.862607483413609
0.226593430972752   0.084096393194677   0.669557203562437
0.045956635726412   0.214923882247515   0.753099706116022
0.014568309760457   0.197891044607680   0.031838816188950
0.797032555049167   0.770412164501986   0.788172850929211
0.515286754818799   0.025021667327172   0.234754373662605
0.548407507522920   0.142738017376372   0.997941192945112
0.912378960898785   0.375907187324190   0.343474080162229
0.892671454989267   0.953414166708559   0.226529638006636
0.941482905241504   0.126229114081239   0.581386629136496
0.381765747622813   0.064637826211558   0.753699985666309
0.973800094429166   0.210925299477809   0.462949092523093
0.867125080325291   0.986878485838637   0.793936700335442
0.889532040000937   0.392618370063250   0.399778852762639
0.695604689817216   0.737495560410500   0.160512215731275
0.948979947026576   0.214792262999179   0.191812672970010
0.711756355398079   0.943693505044289   0.736090730174375
0.664836879603713   0.041044506775434   0.309861023956950
0.787527872349676   0.934248169174848   0.908864660873270
0.069444356658150   0.727508654626312   0.312642798045297
0.879312007765113   0.760747675193234   0.277117041816167
0.007221841929501   0.934848639526441   0.270121538883087
0.829718708817971   0.416522114469879   0.866017673625300
0.758113737804133   0.018303878598957   0.821579024783601
0.100633771942200   0.944847532520322   0.810766803494365
0.118958650545842   0.781958234676832   0.865965025561674
0.031478510590649   0.884200633452891   0.233781713501012
0.808354956771222   0.532547419276967   0.536617767575582
0.874119027756850   0.536221312520038   0.972976576137556
0.710874271948079   0.101886004014910   0.388850951789053
0.881426455404561   0.317685887294807   0.810895200904294
0.641627473683417   0.614467701163956   0.883252183039815
0.080084366551673   0.655688309931121   0.221731087921328
0.745494763577385   0.202018838540512   0.950438532940218
0.546579099948368   0.887497758657226   0.972248166794791
0.901810939043093   0.329504105876085   0.242775072784444
0.290230605614970   0.045133270754848   0.026698980417559
0.540628761111451   0.105781480444693   0.666359179558731
0.906039903880768   0.110739856952653   0.101457354948718
0.993692292960186   0.506805835978864   0.532639443658948
0.944692295617429   0.873825280926363   0.155221619211058
0.596260862888736   0.301000234916649   0.616271384871839
0.772016736149167   0.377634268972133   0.673032116374272
0.925123119284593   0.507738984875884   0.789842026330064
0.588496145104722   0.633157452850537   0.916119352668421
0.925455460008299   0.582810341623541   0.584967005903474
0.976454617345603   0.528858680155281   0.824882376665781
0.770923497854334   0.383661232347950   0.387436734173013
0.044796603911550   0.527316120693524   0.571221788068925
0.436989277135384   0.770320988519801   0.467240946159199
0.057798471419763   0.344729630999612   0.720664865675692
0.976275852903188   0.250246459964174   0.516896774528934
0.855610100360174   0.658361620021006   0.639017756915067
0.075274369190560   0.515231709668926   0.868823170866706
0.854538973470073   0.615518408765119   0.052723462347475
0.763100487504138   0.670358745454628   0.100841377140190
0.442255577203001   0.705956241880855   0.065379998330051
0.767694317366299   0.402222488164001   0.113343276955738
0.968088025227338   0.938538461417109   0.435936672423459
0.272971710436427   0.504045784424836   0.357872587121044
0.434126836443325   0.351924985517482   0.569240566184303
0.832136447683294   0.889062343486924   0.371990815601881
0.659514390730746   0.363661309676679   0.692851211628216
0.709007441681498   0.298374186656258   0.623621030967321
0.059342731716822   0.327889725761940   0.276281243486966
0.862920064703061   0.282281546563920   0.050004229550252
0.857130415505794   0.615359362569019   0.317652673384769
0.998656653031801   0.806271714340238   0.090984924815499
0.101166614438447   0.492408440995034   0.553471357567749
0.653863238798404   0.666715184234026   0.614755731170087
0.596575885699421   0.649677821276388   0.589031439136888
0.761870422288998   0.626177529865319   0.603717831259535
0.885230382208862   0.624287773769559   0.876806081497285
0.785662541185139   0.987066690167452   0.947015061645535
0.058193846226624   0.858987343881311   0.912633630833099
0.589803294106896   0.032201915942973   0.860978949578198
0.628084887655613   0.839509853114449   0.304150600065720
0.809587945399187   0.585612623571739   0.575436200472130
0.838924026453301   0.904027000277270   0.136735053387383
0.889037571868348   0.832217181650492   0.063844137696392
0.791412804516546   0.671465483216031   0.644981861284768
0.490280638464571   0.784345155821900   0.205645724212748
0.112740132329974   0.686700246790838   0.572660154758002
0.072867457452804   0.679676946646373   0.018051089953123
0.123293313165489   0.853925566639313   0.014890039432142
0.489337867992295   0.749378460869294   0.149537175531254
0.103667783931346   0.804749045973094   0.151002287636232
0.841930591949285   0.227166839859842   0.511704333739504
0.735747462120339   0.024290423183689   0.502260295328845
0.805821946726947   0.685237837974520   0.395162195001362
0.871845394743916   0.759244857025342   0.531580055031727
0.079843312547557   0.369954102609314   0.378106327946409
0.264754701517698   0.514116200318584   0.013514132388186
0.661412540562077   0.808818143850199   0.257742474570376
0.039657886139884   0.820734374674986   0.139423163182231
0.586692676329353   0.904841966173235   0.020289492208167
0.113695253465619   0.281991255316618   0.886104572301705
0.714880526165674   0.488895405904292   0.146137684120948
0.900150648515718   0.091749343941805   0.545002340248907
0.504271965514779   0.880941998613575   0.592911520233666
0.973372213071931   0.953087008621424   0.773530769906207
0.109712079431031   0.842969194879182   0.952623003475051
0.177593529252722   0.965754418934761   0.546802094822298
0.748987424161168   0.173511552901654   0.101860014433456
0.801657947854612   0.981497835320154   0.787420278905742
0.071654547690865   0.744362316773969   0.031296081557335
0.779889459469758   0.931203664272888   0.148545802106002
0.270425456719897   0.314739709616027   0.993571031721307
0.050643072726616   0.009713313842336   0.346863573566001
0.562500910794240   0.832746379855975   0.292339325637565
0.602684817731560   0.976030418997092   0.761278145313732
0.802718966788741   0.117830386622130   0.601269163333996
0.933317659268536   0.167111055525220   0.633048200406788
0.955187141244120   0.038482741460222   0.848863258938751
0.404962041021936   0.074893716702468   0.570812496660880
0.685347396216363   0.857198298483062   0.984624852487310
0.977231483227043   0.375834493757621   0.337843870292845
0.827817871654571   0.392117467613201   0.415606611541586
0.915504363520613   0.646592291753024   0.401985263392565
0.309984903464327   0.565588669668686   0.109716640924791
0.674693722739359   0.037518267533362   0.932393705099373
0.645967158929161   0.760214112068824   0.473503439450889
0.843788246789188   0.002845326975293   0.977523714142483
0.214361237728937   0.961523405434038   0.105441288399278
0.986463983869213   0.331630467768637   0.172602216456192
0.104911436000991   0.163496472736606   0.223316797521510
0.820185127785920   0.741251887044984   0.734157443564708
0.707720708512454   0.430771969669678   0.116554242304351
0.835470037679732   0.866366005286654   0.081882165332449
0.170424748251050   0.819787824929898   0.446486402723431
0.672062391799898   0.231736731435672   0.147590784738265
0.874396188052685   0.118478343186033   0.887570889138802
0.991577110620414   0.179393001199845   0.660658818990836
0.168882114015888   0.292930967372538   0.917739095950950
0.969228408752239   0.286347375107995   0.076941255463692
0.950809961318276   0.623523812494776   0.890519988090066
0.307263922452147   0.449393031213816   0.272354425043519
0.688082253162221   0.912619720111960   0.687063489838177
0.803445410976514   0.264630632008437   0.028041564915845
0.661427184119669   0.528810316875505   0.151956071242162
0.653658668490189   0.021890414145518   0.873702422128339
0.577562906026686   0.947254993070497   0.705665320312359
0.647006007841401   0.077950825102645   0.639978118013636
0.362419845650170   0.506799394586369   0.429641494876399
0.542714657918889   0.077397882877521   0.336351391355173
0.321921539564960   0.734999793338538   0.100877305009783
0.597709195194067   0.450053081936446   0.095494594109339
0.114093212015307   0.548200231660609   0.358368084913893
0.668617642927856   0.579346467798322   0.548326471038597
0.962328883872130   0.119220404806778   0.135248114130947
0.012076681400358   0.677021912038021   0.698980544826528
0.651376217492999   0.409124399366762   0.090348489240402
0.191438451935398   0.456099000657328   0.179600086669740
0.868048283820292   0.538307579110945   0.794087400711585
0.886627665001057   0.049014423368246   0.318800011085348
0.760771418163335   0.787055397070119   0.532855664951699
0.203505202000519   0.312089921548815   0.359910277648597
0.089691674425326   0.486986888338923   0.162438462187625
0.223019577375525   0.530807366492604   0.387339216641808
0.951205470176194   0.350842044040751   0.661892308645552
0.388858344518335   0.400102674403257   0.582819915629893
0.228446523801588   0.716250432831060   0.907089118875362
0.944170888163865   0.840840043009520   0.365483832450013
0.214342641999284   0.449717269334787   0.548057651577000
0.985007409741267   0.685830170587134   0.490808200714239
0.881659033338545   0.449147289666721   0.902898869152861
0.668155479374340   0.974402691942089   0.774501327683248
0.275152440589892   0.240364757699624   0.303562876309774
0.069009938103317   0.263846860581681   0.121993551574150
0.758491014535375   0.749807468555070   0.477284556521461
0.848647840866257   0.770876926268260   0.972592100578232
0.382617400431953   0.574727731724648   0.527456686992534
0.019633688282646   0.461390737090523   0.488580231003895
0.102445059154668   0.716428980070025   0.782069735169321
0.053891363832323   0.149821249860585   0.017244218303484
0.847961594743660   0.940144632157150   0.406343572792002
0.099779441872318   0.362805494756883   0.956246244393081
0.099448741156014   0.503762588615024   0.224606077703751
0.820341863786056   0.459774008333523   0.726227126567086
0.180575428660079   0.754019911516979   0.663558812407784
0.932923514810571   0.278269453086517   0.561561950203192
0.101632197682942   0.127040952923928   0.642529011269572
0.564551638241535   0.009381334456167   0.804385705777097
0.953786147724607   0.755122136659231   0.005934821259981
