Generated using phonoLAMMPS
1.0
       38.1346063440         0.0000000000         0.0000000000
       -0.1646610272        38.1226051384         0.0000000000
       -0.0009252211        -0.0939191089        38.0936660303
C 
8000
Direct
0.706806822473523   0.914836274111818   0.970206652481353
0.188861110508938   0.127104741155971   0.260592531107509
0.066078407519867   0.165532300713246   0.065886887284716
0.945931812463184   0.080988712021474   0.174241634678072
0.933108536596853   0.880263397340009   0.276522157033177
0.074112971377528   0.929262295014736   0.336864810800646
0.285870681617757   0.913891223551140   0.444694965470788
0.852815654835977   0.057832969951809   0.230912300039680
0.861325253901024   0.855982005404837   0.309348097151551
0.991516446310302   0.995322385187253   0.366460843881401
0.106265805862904   0.881666990492434   0.262155831682272
0.227608864661072   0.973655559192310   0.652362704609040
0.846218521742547   0.033806972954639   0.629381193737819
0.998077806039714   0.206364391333111   0.630294048908343
0.115898164069555   0.114085791173856   0.656998874303485
0.142754020413316   0.918438601994272   0.809221558657037
0.059286755692114   0.895851966448005   0.710743320909688
0.952290575778228   0.892454872736948   0.626116643145574
0.904277989701922   0.978292701869084   0.877824375669223
0.177734580081145   0.888758641058704   0.033358881473608
0.065992894273311   0.910076755266852   0.077853024375261
0.056302243806542   0.861371685447927   0.143314197579660
0.285295294286619   0.011280451149686   0.132604782012371
0.844141975820661   0.906982939747265   0.260482446402176
0.239659939286272   0.890018358526241   0.301110693596052
0.010998109069983   0.031535284855408   0.441268054553468
0.066771522298689   0.930147483942727   0.296121323451188
0.990504019968265   0.977121586474617   0.169407627107009
0.926437896110016   0.976119062508332   0.245674052283550
0.111822870471423   0.003825207940279   0.259930318392672
0.144561290965940   0.164749364474859   0.491919154882464
0.071086461836848   0.957618558463408   0.597190264699258
0.138716639197267   0.206671903175690   0.491754111696676
0.092574893122986   0.037565073930976   0.667465238965864
0.994335358969667   0.061967997431257   0.663705267429229
0.129929293895684   0.097661373258463   0.600227585914496
0.916122183370693   0.985779878205750   0.687401647800759
0.082763196943786   0.048715180805646   0.730402182291114
0.935400041927753   0.965701134809008   0.078610669490778
0.820688540615192   0.067277282389161   0.089795797739162
0.929006703744964   0.039021499268954   0.007801485206586
0.858829694199582   0.137440660852688   0.979857078347627
0.940278269211945   0.078175775326969   0.002104089153201
0.936581554960516   0.113837387030954   0.187335101177286
0.961390261550559   0.254426982376495   0.156566814421485
0.012842801978611   0.265706292091052   0.523389294801432
0.739460430879411   0.058291486417884   0.273126629285936
0.052215149916624   0.005402436214431   0.232135396550342
0.095776643380923   0.124448916581328   0.275291865888115
0.232017277487738   0.104761307020990   0.352594181649947
0.929114101383314   0.042476479072950   0.322824712912073
0.919576682874506   0.112512626955126   0.484273232860458
0.973755281568288   0.010241036757419   0.505758424108499
0.990510275458663   0.055677349854049   0.627033564608901
0.961341089797455   0.327256049386749   0.855692210722710
0.124214184079726   0.028471085529362   0.902361643866423
0.957994131180891   0.943229416302672   0.669081014143581
0.939376453391165   0.145258559700220   0.933436607852782
0.869570149262025   0.041252493443825   0.983281353656185
0.177214894488111   0.181301910575132   0.116135234043400
0.136735292526638   0.136602636509714   0.094197364389813
0.086735898321948   0.889691173423744   0.226492774497925
0.962206611337946   0.046885257838254   0.126640270751647
0.786858495695673   0.995089136227158   0.430688902111709
0.063646107085879   0.008554781983929   0.190451621910827
0.985409203874996   0.310648483630540   0.348867005591673
0.857688539567322   0.173953289992833   0.172385546583433
0.892805300797441   0.049428010499302   0.434080854461404
0.976548028966083   0.175382461778383   0.613047326067926
0.094124572914433   0.181138644508708   0.573549520873666
0.039452834716219   0.246466437594950   0.468141369901635
0.052456083981127   0.225653838960406   0.715072379180657
0.940440405600658   0.130176483733187   0.511298373973974
0.944651665875674   0.043561795640803   0.701216558646604
0.013518638149940   0.147114797793975   0.718184479231771
0.793229744084958   0.013471728932044   0.650182218752574
0.945364415172719   0.112699305159857   0.721061036187797
0.162818591573465   0.138073536559334   0.816404618953265
0.933284162296743   0.057243907702881   0.891565954113882
0.838717563512473   0.187305256536425   0.862974704872245
0.015294701863362   0.010605915524563   0.930396813785499
0.039907003148233   0.224841301057819   0.042709615522588
0.845137703776830   0.430220853484885   0.947592249884481
0.299103078303642   0.294552170649304   0.172050123891643
0.175530576990092   0.223029393431399   0.066855191830954
0.946601138695504   0.057591580467446   0.088087201356020
0.032814001645209   0.141206381829749   0.210876548442737
0.890592353738547   0.094636818379040   0.250996297715080
0.958161048438287   0.126679444971569   0.331087146875495
0.922397650167121   0.217817491385196   0.374537372923139
0.920735677232206   0.148838618714973   0.668141141358128
0.008750083182022   0.342584351480301   0.544966393717200
0.177272897097611   0.154916600015897   0.663581698329940
0.040450050510233   0.291700921318836   0.619753984329611
0.982387049803764   0.179904019206903   0.506626048662505
0.086425115320888   0.121815085864203   0.635365784452156
0.887831169127899   0.124922989840165   0.758615208549736
0.068388638957282   0.209891206287280   0.813020163912958
0.116060591714128   0.091765840190790   0.934327548618972
0.770952425092349   0.261897654562597   0.979878244596088
0.077340365102256   0.261127504612194   0.004220111445092
0.123028151360568   0.186560718395097   0.948488787381629
0.920890978508378   0.335258923124062   0.140369148922207
0.061786033616054   0.119694870404616   0.294890803921702
0.996242331933452   0.271309286582536   0.164161510342058
0.050846497906232   0.354465251933761   0.227717607255237
0.896810239636081   0.321609300502754   0.067266097150162
0.004914307001909   0.312225274009357   0.219020767215307
0.982817286647920   0.215649157723502   0.492771480305125
0.747648042299874   0.078261443924642   0.639379302076802
0.135086435300284   0.357537314963873   0.767342039927308
0.110777577402324   0.280177254976245   0.429293470651851
0.070125477513914   0.272137390408510   0.603604299510338
0.988793653596190   0.279392466966375   0.888635952577374
0.145684732414204   0.258237740175845   0.754067743890854
0.019262612055516   0.366818594619967   0.838947909990598
0.662855348897487   0.184266396933179   0.779920629754259
0.863762247246531   0.182712280362236   0.696678652007151
0.902945663250534   0.262709786576226   0.916380709387058
0.905649910722794   0.334929506685641   0.765000151910307
0.251016750320160   0.227231750510208   0.963775856353589
0.947530491295767   0.376755407507215   0.026860712203077
0.043947659801382   0.409388742067047   0.066152266573545
0.939525544398571   0.275354502147959   0.131136875249196
0.967088873659219   0.314700805172196   0.222799519301954
0.096921208341476   0.207754033788706   0.314966745139638
0.083262005757947   0.339950815571594   0.240485762454926
0.074539364703480   0.181175689353643   0.332682627340716
0.078841383721877   0.305237000742442   0.427112793162477
0.166355030656330   0.373881672434371   0.570184995655797
0.936336204496462   0.225849574807442   0.656320016039242
0.864788076752548   0.436196597314744   0.575752291274741
0.979808312337986   0.211570496435718   0.359987812385722
0.802509453008258   0.348317020125357   0.726895964226049
0.893321686992267   0.186616532253493   0.968311374144462
0.928568905657361   0.448073342204599   0.903096280432453
0.106800474664111   0.448605047027320   0.901353003743168
0.845262923325261   0.243322453600959   0.840678013886284
0.974396994782224   0.441677176700618   0.821966976743441
0.128539199564521   0.394417545529089   0.022369759327501
0.153311506083019   0.351912210280097   0.063916022628627
0.886086038503272   0.260629934271185   0.083842165452377
0.039589071995800   0.514124507135976   0.896074063148686
0.975018235956000   0.450002667745676   0.078256850827348
0.077784212156872   0.305145997547335   0.162617322918532
0.015282175412547   0.395346372841569   0.089481947137582
0.187908206727901   0.347615148599083   0.300971234716044
0.036243080732265   0.280228113451038   0.072639294096794
0.067418097216584   0.281045707033363   0.233439342984915
0.945968984386063   0.279022479332326   0.472649334555480
0.033063489533933   0.368021304165542   0.540791557935485
0.886040160864533   0.405362489003878   0.674255824565954
0.191122553560298   0.251436278222358   0.570207093817716
0.665398800590245   0.306169632436659   0.847382430305456
0.925746868676768   0.248690160502012   0.685062085629738
0.855821107265453   0.145648304256656   0.684514291149065
0.102036111986742   0.399358229296628   0.050222838581045
0.866613560118271   0.437346261267246   0.978126050413809
0.039210225184428   0.351694670672553   0.897370730157861
0.876972228251545   0.503855561345298   0.005971223111450
0.977258487924614   0.267205174313157   0.079932096521717
0.854463890666661   0.457098340218071   0.168849914967067
0.926621635104732   0.462500209310821   0.994600109368933
0.012269317167809   0.519945865264710   0.082756479712204
0.642715769697794   0.408704974641016   0.952191384550613
0.901204056185129   0.602035516672471   0.345681318503865
0.904771993951554   0.377127920391428   0.180551071522738
0.986648581032403   0.535866426680470   0.325242558438591
0.252711260345885   0.324235382589009   0.280085305822585
0.871813202416854   0.321111252513596   0.335996427590332
0.018272551769423   0.586118705713420   0.428872064636813
0.925945120106825   0.344846475046186   0.700888267849125
0.030792111649754   0.433216462596867   0.729986089495336
0.930939720353582   0.223849999985372   0.782509976233056
0.043997101702529   0.280232862407893   0.819104453616545
0.955350375956819   0.334734564466681   0.897050965712236
0.959594186577284   0.577863102202493   0.673269476862635
0.029023220082945   0.250308873359906   0.736058109442589
0.985692570228449   0.384144934952863   0.837683321805210
0.942322729384647   0.505968447663250   0.091815636416248
0.165686103901073   0.308160760816785   0.968613361356479
0.160923920452298   0.627697609792166   0.913505520112472
0.948606690698677   0.467509474075244   0.931706866222045
0.781820610327419   0.448248405358605   0.142521171254077
0.085110089500437   0.865345947339964   0.292996376119910
0.087910742590245   0.620114205952804   0.012969823345619
0.158046575097112   0.357741254715333   0.360922240696499
0.903403307152479   0.497769666233388   0.500986819825115
0.042869051540319   0.343243499796595   0.310917654672018
0.043015952627969   0.564378885692488   0.590705218082755
0.997769321345896   0.315280325097589   0.477950037298015
0.934296712750426   0.372961348155876   0.499394725749639
0.015321868372007   0.402816843180505   0.749814989643701
0.758417127135491   0.309267661086736   0.483189483137679
0.115849795670732   0.539052402647624   0.791292591162632
0.936237209309969   0.528054436031319   0.815303267879135
0.956844359450738   0.853882867574848   0.945233574299712
0.086640121984003   0.253211925347019   0.777640857050552
0.915859451174920   0.319113537439622   0.950015211747132
0.830251330899385   0.349736303552988   0.933972904358972
0.085608713699381   0.718682602262584   0.997254626787120
0.756091212205901   0.414230004748901   0.022156380573313
0.906387861749675   0.726994441846972   0.201088410706048
0.911818675408330   0.515152311299782   0.026301887279713
0.041224117581916   0.687141295262501   0.260872083093698
0.983751330465468   0.487086844192663   0.186450121507092
0.027801038400156   0.321128252301649   0.456990720876095
0.127905399523963   0.416111844379666   0.208659738437293
0.922830792246029   0.553576919315281   0.477010581904787
0.046144943994108   0.483915766123354   0.488323118735902
0.804154323099801   0.440196199128862   0.545591663020004
0.857091440896433   0.456966701329292   0.685125923014096
0.087135178048512   0.577471425735570   0.747600172620501
0.165377464900598   0.488023970134580   0.664580533673583
0.875951502831173   0.522721532645374   0.631386808002910
0.844800427611937   0.354178579855032   0.583252427905664
0.043460581503061   0.536421062684335   0.618948170576333
0.923091363713280   0.737789387913524   0.764483517465506
0.832567194883318   0.582490675275068   0.953846468100457
0.145055396995062   0.478615844242275   0.970401488021574
0.099427000699074   0.469959476716725   0.017478465671180
0.945387821512083   0.548155865098422   0.091770455939299
0.919383437059027   0.558312424983601   0.063935034975704
0.958605995234349   0.812013927781860   0.215429383285728
0.909232746597695   0.300245673008205   0.148727311923551
0.040430061470647   0.319914298005880   0.059047206383625
0.814248452842260   0.477256350099685   0.419137118157652
0.176662077923684   0.571006375177088   0.312488829259216
0.926791367558037   0.545168298624208   0.366931531055110
0.061514424269373   0.487249594283748   0.215932486609644
0.846886021137817   0.493218284173464   0.554683654841545
0.887008293168242   0.465644495137840   0.491215510345373
0.928172962011178   0.323241466627441   0.405258280673765
0.939550362905443   0.345433237745856   0.972673456278217
0.094304969014564   0.577814912441845   0.707649922130315
0.040458685721111   0.501346733761912   0.800192522183456
0.958924450598924   0.469407718742416   0.843452535506648
0.000246050397865   0.330653044030199   0.001171597287709
0.966630983906318   0.459938010317085   0.761532517687470
0.050948451922228   0.581528566490690   0.889935158066303
0.958438493326866   0.774711171270485   0.031787765951348
0.164468165008343   0.562553550538783   0.128599776301483
0.002474766832850   0.586903290683590   0.070472401576280
0.984175817679649   0.534787292280506   0.259781815751958
0.126341466076702   0.480566362906005   0.296288968119331
0.898120711618547   0.632927553100545   0.372652471639475
0.999847074226913   0.806887304396382   0.165676579276460
0.059317239713478   0.653839132216898   0.264772119647855
0.906559630621129   0.706633333415288   0.407438357013332
0.985320763876345   0.612135587751747   0.354810681367586
0.873402034262967   0.663626241909695   0.361403341674952
0.085429452827517   0.759811631825554   0.641533127333073
0.069139217866331   0.424313393177065   0.651062853343461
0.994546108573742   0.646261718915508   0.686995724674649
0.972620419599365   0.487112706404260   0.572776560351132
0.167531726548046   0.570200954012535   0.750963464037455
0.892328570030497   0.738867275902801   0.916757089544027
0.973782734577502   0.567375632812797   0.856976985991151
0.948897541697330   0.794686980256293   0.911283741301982
0.741049999726312   0.605099299483402   0.058200762253665
0.167197145767185   0.616741486075425   0.211267401871970
0.041292129124677   0.788630354915414   0.100662375392012
0.882108533878778   0.651040506427232   0.224047649895690
0.775498351651335   0.656731460196407   0.058022686717574
0.079167036480560   0.788572523952476   0.974642484408519
0.804316271924002   0.470189698530000   0.318612660969570
0.018322879935438   0.446648895505378   0.365447237053187
0.211194368109737   0.602004099580339   0.398517196741446
0.011321106911131   0.420677341371989   0.430385001195719
0.060435573125186   0.613066655489118   0.548836454421852
0.955624274814494   0.747628109811565   0.382957431516210
0.048831129948151   0.703406427162775   0.642282228245999
0.002069193087924   0.660723178399346   0.720061515690880
0.000637243635925   0.541308125419768   0.708368343402193
0.113457874958022   0.611500377014740   0.695863873508928
0.078646821680133   0.669105503720823   0.689743706449801
0.879378630659800   0.532437301572255   0.758450645758771
0.946377291094626   0.675444387319449   0.783361038978611
0.955110622286977   0.725941920136334   0.990632000868172
0.962168490489427   0.628175618371512   0.829616652670358
0.874544186172658   0.650728679324746   0.897966293734807
0.999573793216362   0.882349780466583   0.893834871994646
0.949614459075146   0.621337327076749   0.064344497797885
0.069948931885189   0.646658333614516   0.140297453801086
0.881069778413160   0.563462086841823   0.287623545900912
0.984686113056568   0.611698384370785   0.000658770780424
0.123423462533296   0.716878701279969   0.230824815942000
0.042591833486739   0.762323132657895   0.396373801040569
0.923249487546582   0.821797819544411   0.443236510410154
0.920573143233808   0.675829649466906   0.507580065531638
0.135987670216237   0.601372124129410   0.273847673041036
0.128043941517814   0.693087174792242   0.454440971531342
0.741451797804960   0.891876728828863   0.689450379470163
0.984488845910942   0.683827323372442   0.788113650603231
0.939057449664963   0.567860593037518   0.831983639348098
0.120313345158540   0.563356200307130   0.861907417203800
0.859101770083032   0.823380350004088   0.975396412895663
0.999483431093526   0.859900296989168   0.725476224263059
0.984491974511444   0.614515460593315   0.054095015385522
0.022122462791820   0.764180809961321   0.795844140490073
0.900053396071179   0.937409363215525   0.769933911760317
0.790508773551182   0.800929883654697   0.154723551818611
0.997766892947939   0.863978809461654   0.195247817684021
0.760967447340894   0.648031443049210   0.267311103423348
0.976175369946016   0.689807460048166   0.063174800190819
0.789872501762755   0.730973070893093   0.239121183368244
0.894983950993774   0.566858988441810   0.357181684461070
0.955372102960995   0.862034090184505   0.300835860504596
0.884935344673519   0.904759426002059   0.626977229784148
0.102054675269565   0.530200722830746   0.240635807084273
0.952086603914692   0.685419143883598   0.359941410970889
0.924416730767275   0.790336337359004   0.503914658272359
0.012722845763269   0.772184076857234   0.523056029423669
0.863311352851306   0.615910104297514   0.645470422312262
0.949588365873725   0.696880440430611   0.716987841975495
0.163010394090873   0.822739944141230   0.918390550076561
0.001296335495327   0.773940439747840   0.877606124162703
0.993592274592572   0.576273479090396   0.734283958854241
0.983480555472231   0.524765732296998   0.770697288012340
0.996861415830113   0.624786902311841   0.849223053886926
0.987053833342496   0.702072343621301   0.004778947236404
0.255209039194580   0.852094069048389   0.086822960734975
0.049172180601493   0.933709112221536   0.102233714310991
0.023480851513618   0.700065532466684   0.104455476058277
0.817036478749007   0.739162244836210   0.169982374099923
0.166316009769412   0.889513535653548   0.327206948002474
0.927017261137835   0.647938815200128   0.223575435958977
0.089032270322900   0.906406457170075   0.394362361660094
0.883896519879024   0.668667932857931   0.520400732348309
0.077486691940275   0.763999292045359   0.411205313963232
0.990426470252506   0.680037951005668   0.376567513575354
0.025413865504705   0.860094301737341   0.521187301432423
0.973551518200442   0.872138166509804   0.754020654697639
0.088457592208876   0.795696245048736   0.543638676926703
0.019877605919158   0.899377352991846   0.529777157282467
0.986046674356465   0.701932656212458   0.659962464101070
0.054048981730219   0.920023262527187   0.899315980056914
0.906080674979524   0.906667728782325   0.095022367684980
0.893783319170126   0.888687282960216   0.825718862946420
0.922131936221491   0.915769541404324   0.955589610909216
0.920734046624362   0.028635485763054   0.086430192814238
0.891305671939512   0.842347915819849   0.992150426528595
0.063837017614340   0.818062370861995   0.919387374587223
0.174561527268642   0.049503459664076   0.136448119114228
0.055431428267380   0.970598667946455   0.098443927843992
0.003859655290390   0.083984373821295   0.217312229897103
0.868821201978672   0.666448717372897   0.258738585626288
0.157102762962812   0.935619558530868   0.518993314643818
0.233324900161758   0.903080393697844   0.398491399801891
0.851506916000832   0.732921552968009   0.486721624147498
0.300037434716030   0.931754170682251   0.413374183715339
0.984017563782291   0.978832857441964   0.528529511546239
0.931599726418700   0.620474639761147   0.470099115316336
0.119242153214152   0.884579838696781   0.596957367713367
0.044764745291054   0.732956053317283   0.498132967431031
0.161191223993928   0.789787626051685   0.721601939759105
0.973733277190860   0.588932065186315   0.584239725898199
0.002264581545379   0.798572033243996   0.814195309407341
0.703296488735827   0.762477184178221   0.867538250944753
0.919626749068137   0.914069296265736   0.846359719601555
0.875627787277798   0.894107640041749   0.038357609867157
0.980708918832909   0.024209244042970   0.050192057873327
0.853256090160203   0.903897589729049   0.874497210993102
0.153698110199578   0.891476478555291   0.957139427615045
0.095728652004433   0.920656672628162   0.026941254726801
0.053520137678558   0.888782821260537   0.208371320147721
0.024376198329318   0.970433127744508   0.429536041161936
0.239359291441086   0.759261016577961   0.451205643645021
0.908396115012998   0.870203273339176   0.370166200039239
0.927034453489672   0.970081487474768   0.430639723332263
0.025428444264564   0.033891521599328   0.531206226880460
0.891624658795248   0.885216240483577   0.538416501674740
0.136758431570603   0.008963127334746   0.575218630377315
0.090203452010610   0.688120502975447   0.465482723188046
0.122018393959961   0.050287152208104   0.645506520176902
0.964130320253623   0.903033802229164   0.901788464588202
0.972645708942711   0.908522713762522   0.804390894686454
0.055118280892941   0.778271957646140   0.737730930849416
0.053173704074756   0.911083826725142   0.859182707013989
0.238720654066769   0.843417261992034   0.904450082924420
0.957862751108576   0.939008261044639   0.742612002150144
0.177488910448084   0.005706959038360   0.269704858330725
0.142956897795244   0.931327140054215   0.113322145906523
0.983425425739842   0.075048371061170   0.250899380553128
0.107010754482428   0.858668903940699   0.329827123753493
0.892318036101123   0.912781746215751   0.180562706790387
0.995078552812325   0.989919669561981   0.993171491289573
0.901411513213174   0.784919607455056   0.168869366232257
0.174568379142108   0.971118876317623   0.319088039211864
0.973558166471956   0.801660232946644   0.290994198121621
0.018352907702577   0.950703195471796   0.218215707393142
0.984003437825968   0.944430560389785   0.505648264062557
0.180117513382211   0.563298059246713   0.685286398511391
0.097004224162600   0.790060164416466   0.667639252146814
0.909766149866221   0.812108167306456   0.636199518857627
0.856291726904717   0.888930684756942   0.776767276125746
0.045194009979919   0.905222667029138   0.783213324132905
0.111022297415293   0.657789887371096   0.889234802789949
0.785695478274881   0.082293676772208   0.952214475003480
0.253498364824868   0.983123979887965   0.872858445116634
0.169016514904034   0.155336183496767   0.989586126208371
0.042374020046669   0.035309464823513   0.075183050581741
0.031232035380472   0.838191025293123   0.287941273262473
0.121525371013604   0.197622650145459   0.020725685350736
0.052973452928355   0.976914954331613   0.166094610189718
0.146184483238983   0.842020140918147   0.150602480880594
0.855852449618441   0.001986878156134   0.271603565059094
0.147106783332904   0.013925457700385   0.535691158833822
0.031926046978355   0.114400428477134   0.432265946441131
0.165463427938137   0.931531457554731   0.439529621189052
0.941121280745568   0.039825103278699   0.593177975625310
0.245719582650131   0.068547514854172   0.632531150476153
0.052907710627275   0.034069270662884   0.658919505936623
0.045223557047161   0.206785430269354   0.512617049891384
0.043943219222859   0.013064067846617   0.623563082143526
0.052055878436363   0.048747642518469   0.828196818203468
0.091434790045935   0.720084736990368   0.743727184920062
0.114484637323654   0.014319270719726   0.013889596411622
0.974386225091428   0.870301259693832   0.812045340435206
0.122905057772550   0.825989972951613   0.925085300846863
0.026170251428100   0.951944171903662   0.038857686441169
0.965764977662432   0.113878443116094   0.119001349368534
0.097803415896740   0.989323276703394   0.957908705110591
0.029230289568223   0.059192531644364   0.302968600890764
0.145224401306661   0.891271500439781   0.109178872064765
0.056858575728599   0.335250373521977   0.347194651454129
0.797950708458511   0.964067132973825   0.221746538211394
0.083276683013379   0.980315137899389   0.422360409922282
0.878137260649420   0.767536578481408   0.107206199496569
0.120233483986557   0.152878962587220   0.524214350598766
0.059301778260685   0.163470180686119   0.566428502387699
0.862955603279350   0.077541209228803   0.442281574753106
0.005235506370242   0.990698714867077   0.628939293502052
0.092868971547693   0.145361490085623   0.713180093467262
0.186547848201168   0.116375695714077   0.796548926949288
0.110539684415668   0.023613705169715   0.864748579824218
0.118277966010685   0.967320634485807   0.679830669996454
0.999799749357766   0.325862903837357   0.800072670237561
0.119536325698378   0.128832346566884   0.933342088202268
0.179445354290048   0.019050518966277   0.049110519541804
0.026796890760686   0.078146211117035   0.032311203889407
0.108720914804223   0.071335359108634   0.788745427549583
0.073044831897669   0.210878748170898   0.098331731501519
0.130826448716483   0.199376765951687   0.914611767013636
0.061784573802708   0.082288167693668   0.301923377257829
0.961514828779781   0.135699247551042   0.369762366499360
0.020600113363943   0.954522327967080   0.179333099223535
0.141193333716533   0.046995149806126   0.332244948279144
0.927408852308308   0.945866706763236   0.592095433452362
0.081042164192365   0.130757738978830   0.364502200679651
0.947394420958504   0.250836444301477   0.448227106480608
0.090954582198418   0.102778480420924   0.602047618146228
0.066246469510579   0.097864064327373   0.573472770581434
0.837691889811277   0.047034344679983   0.832484263257197
0.824776898025223   0.955235270172295   0.704379756431353
0.069824968549082   0.116050261704729   0.729007695870255
0.042210630142896   0.100058544245292   0.677450347768400
0.096570000475601   0.865633713659074   0.789785605724309
0.970769539277999   0.003955644808666   0.650753182439364
0.148190770248463   0.978569628650699   0.811921603328983
0.893961856374631   0.161575361386391   0.185268604349772
0.096231063461789   0.281386945352991   0.911122452021105
0.983025008174959   0.189940297267453   0.003186919051147
0.019595917153952   0.089532362256663   0.097763527853627
0.056353051628304   0.149793351104963   0.122190325979590
0.305779284012760   0.289189082105695   0.391855160071146
0.077706642157059   0.269930137465406   0.347544242380594
0.013694703635859   0.173120239256232   0.313607986443145
0.177159556242209   0.288788065937930   0.361651711049337
0.032006261644053   0.027241861184583   0.405746792333032
0.086510384739858   0.264544606996434   0.305937677164757
0.915401717712485   0.243288718138831   0.621669082234391
0.851938715017702   0.275520870715940   0.776005677072063
0.238388383128473   0.064783163707609   0.533543069439251
0.994580593000694   0.117956826066742   0.426816161171452
0.978406431846301   0.285809017170005   0.706551705435530
0.912089817443893   0.179462408299873   0.859334162639064
0.954200630376922   0.181558293795787   0.933871338917701
0.182495852923841   0.207231204862250   0.030941363823122
0.981904011384725   0.160277118480964   0.807425149775163
0.061845141703676   0.300876966853621   0.916843266600270
0.925903496516709   0.111530528814251   0.840362113600120
0.041359063094368   0.075390950238253   0.068598254573909
0.127410208271304   0.098360263362177   0.104315208907414
0.145650085699205   0.016150456204133   0.252038567576122
0.207149408566657   0.316020891999419   0.301533750804229
0.232075996764175   0.241971115195549   0.300972505268475
0.186193006314531   0.003840594800222   0.306330590253986
0.935407807349853   0.192541549307668   0.225151699581182
0.961182354092208   0.306505359163086   0.417965849948273
0.872236919243735   0.098067767752381   0.286433901933226
0.022930245433292   0.066361928975681   0.513612992365648
0.072393141978001   0.167697011718325   0.460234995131602
0.122580556472605   0.224119498588868   0.702307435538499
0.971227050786691   0.937502738057422   0.704900205158556
0.056119022356742   0.243372754814297   0.799860902748615
0.015320318546305   0.230563594426816   0.598308377090072
0.958679358443930   0.228477377816281   0.896136776986680
0.812446423267304   0.095291221424199   0.878575387661014
0.150528565429648   0.214986828582337   0.004252127240029
0.059709162615787   0.149308653390629   0.924433355193214
0.268544070102278   0.301855615382784   0.376497759196821
0.921636161942357   0.189924340276655   0.184702993258866
0.980419131563810   0.357677842902345   0.975478502658237
0.916747881301318   0.198237145697780   0.064782441732888
0.185202522159040   0.127953683353769   0.149187600518144
0.126714007360266   0.244471795952580   0.223137919654121
0.982348254343905   0.241569289078881   0.229053185982669
0.159493563412389   0.237682694498348   0.403815379379984
0.944414527595411   0.890340308315940   0.361735893023250
0.922706007624070   0.257259859331550   0.388014597708794
0.044564311046388   0.163073048796842   0.602280927274127
0.197490608563315   0.381470477000678   0.632717530542444
0.974241419755490   0.266939145585473   0.628987474740333
0.088324432670589   0.437104803950925   0.688834741689821
0.046035300396931   0.111712609585715   0.470044964581714
0.836478050159811   0.091547790026938   0.787925283329934
0.072217495052068   0.176838520133893   0.699640968627196
0.213212558755952   0.379483540028225   0.954351612446099
0.039630947153281   0.315610731520251   0.948996388828668
0.077383751071697   0.161996581571492   0.983917267773265
0.135497916593224   0.271325725213606   0.167556809179852
0.063433154227139   0.373865159178710   0.920682057014501
0.094105348544290   0.131264231265638   0.182170993059062
0.950660768184200   0.180286718583732   0.302700745337248
0.162516173331800   0.214512747605297   0.269876220152262
0.088401047359579   0.255074999478575   0.211949368264476
0.961892431029122   0.368336380094436   0.360622847091512
0.009369438490241   0.414918205024810   0.388425692298313
0.019073271167064   0.233746015467097   0.310355695106799
0.879258010252088   0.398859407669514   0.415680097247792
0.143304424444525   0.257262117504747   0.612771387805863
0.007845047214787   0.270375141504320   0.608363510657299
0.860151577074552   0.270175687912013   0.685545987598777
0.128269387182964   0.323302290879787   0.780233931183177
0.814841375635411   0.359272416775459   0.806539614107024
0.021759211782992   0.267865082298446   0.871405870298658
0.096902706372490   0.025054785835261   0.704517451238563
0.216674626068881   0.203336718365505   0.871939644075743
0.899739924404722   0.514488988156239   0.822445447363347
0.073194924574802   0.078828142994373   0.990154722047448
0.062525129619350   0.341244348657922   0.970146125358598
0.042336891184607   0.409239486758413   0.171704788528291
0.175084896359042   0.144500449442760   0.093412262216233
0.187677653757994   0.208687500044200   0.955541875939351
0.961168982354073   0.468312608901766   0.253600899485912
0.134141198072446   0.375924301320088   0.310781282919405
0.981182569411779   0.414800987966387   0.313200110236438
0.055487700475050   0.375787030388500   0.511570820841958
0.794006997969543   0.293059523952498   0.159658815593184
0.109844165407138   0.185388739626871   0.540407788098568
0.927782691598696   0.556468451196879   0.719990188872457
0.004443852952701   0.287762818584470   0.810763723172085
0.978196151460283   0.233688891640307   0.650666322854955
0.045166876892033   0.446596947010590   0.880003737979324
0.116000598020432   0.474130690837131   0.638047054349329
0.046085192645073   0.476294153387824   0.906524139013880
0.174381448086367   0.500450035209692   0.831584591380703
0.918319552207567   0.493060960537054   0.059117976941592
0.080179607650883   0.466777493745501   0.922107146948266
0.171582771440723   0.255245403345730   0.855108040115914
0.891972875643630   0.496004212842808   0.951576886067285
0.254505668832623   0.422155445185386   0.153502774853669
0.929598949207821   0.593733475755525   0.974925707346197
0.024985713859825   0.560336564532216   0.362632212636406
0.012796379127129   0.284104485325050   0.351100137995688
0.972470137760648   0.395009718141969   0.387992507422201
0.000641276129883   0.395779646443186   0.231201971818480
0.190637297567244   0.460152827420696   0.511629035244275
0.212622021154937   0.345325479619907   0.543695573524639
0.000902860293364   0.538992883082995   0.547097973805486
0.895664953511454   0.436829258485924   0.512919412493892
0.127057383561993   0.465615814909331   0.602198622252670
0.140170012745328   0.360252341576820   0.648176593987049
0.162834407953793   0.380636479853280   0.776909231483776
0.165164938764323   0.328779214838055   0.832891047418839
0.175606894460816   0.607876374149817   0.744701323244540
0.090855134739837   0.666807705656901   0.958252980192690
0.057764835138485   0.513009566633056   0.702368684566044
0.912090148792730   0.247427426274235   0.973410878084185
0.140797197598527   0.472374213335402   0.887227461203577
0.905547949479636   0.328646942340344   0.029221026642975
0.119513685779266   0.621117523976948   0.994324927138069
0.760662427794362   0.551102043372584   0.039359300803641
0.000381815586968   0.584230861861056   0.202698435058948
0.112931577139849   0.524299981438604   0.204161503222449
0.035560476780299   0.456271789087990   0.220727724480809
0.909642182536835   0.345739915701486   0.237408415950477
0.816481450606896   0.572503335149067   0.449966857649406
0.166598129569028   0.521418877712898   0.353981071007300
0.881305698825962   0.242544062510527   0.492789212911892
0.891624404363806   0.335573595566952   0.474561345332864
0.123647998437546   0.394406789408711   0.643336561004838
0.022280457744382   0.518209206917230   0.863337347837325
0.017458177690472   0.589369602032093   0.503260938045480
0.134583974665769   0.386574328149761   0.907986347979426
0.119934872750034   0.499969403723428   0.795057154013735
0.999723325709392   0.510266663726399   0.734468601098818
0.054966421856764   0.450735019124676   0.119267061521099
0.061836618567885   0.489626596040148   0.126011481966106
0.000002732046778   0.372968128293814   0.060925664863916
0.907954014087346   0.563889375010188   0.183958147121521
0.158866565035144   0.264287016533229   0.103258800212908
0.042184274167678   0.507989983019912   0.057658521189663
0.211112067874253   0.575480381859064   0.039841333170528
0.990036191722284   0.717107448137767   0.277326813113681
0.233278390949448   0.296724274909847   0.402015817743005
0.066175004164392   0.421603242858854   0.144376929635110
0.955765824732908   0.523464962690248   0.419040138780633
0.175830717500665   0.424768213116478   0.459689880886534
0.068213505518247   0.541422819664894   0.563781616159427
0.150651469170927   0.368808614683029   0.424856982447603
0.247527232235501   0.447935299750904   0.540977874999176
0.056972052409618   0.447548331556799   0.497852086089984
0.011040115262937   0.616265825136162   0.674400691169121
0.109896666013111   0.303572556456267   0.647248481686913
0.175287263089628   0.427059932031638   0.737054046666636
0.047261100626350   0.462135699794958   0.747982007752579
0.193090591542650   0.499876011349230   0.899233391523757
0.974920755654034   0.574131661557026   0.928561099156605
0.979069505931005   0.489275880189953   0.086382678878494
0.999952183332492   0.637541040142416   0.027249330877589
0.973405425171259   0.671610625930733   0.026379073864949
0.045185152726341   0.552558798133422   0.266803819614417
0.846753223646789   0.443286992442632   0.273299823433088
0.092802635485431   0.789042563675386   0.141234223183471
0.133255896255266   0.528079226638002   0.376849177198684
0.814141016307034   0.619401312521784   0.288589402008611
0.134761650848417   0.385883567862025   0.485981900121525
0.203672153045070   0.626355822631927   0.320870829031725
0.039202206366697   0.524088746143646   0.541012657684543
0.090316630929292   0.730261519243175   0.557018124302406
0.055346721249516   0.462365000349439   0.786256801227176
0.880223959280788   0.642177052244295   0.578400841821694
0.935306717324435   0.449470395680312   0.865651483209066
0.791338592694659   0.342998089959466   0.622553252846199
0.053884967157729   0.600499866621988   0.610627608839170
0.036625073110101   0.541359840967200   0.685660838713304
0.160651974506173   0.664582923601421   0.929096104109497
0.998194939030087   0.499533128211024   0.799394300243467
0.114277824184305   0.591258548906262   0.928263648131782
0.019236166297648   0.348342401636353   0.035264714321050
0.146094393437058   0.572148964902939   0.938452998237683
0.124575457813101   0.566117476067901   0.378405443795678
0.921757916604861   0.537038171155601   0.240955684934578
0.074706265640393   0.593200087359037   0.233863999671597
0.217103542697730   0.490326135195441   0.390038209716593
0.940301806683042   0.571121423755687   0.295499225279247
0.952495708990096   0.580213963504987   0.464839658275876
0.809904116919362   0.379991657134163   0.328525272155368
0.926732583374375   0.604790069428279   0.316680053592232
0.952423483415802   0.557252479575378   0.595151954709922
0.053671866612402   0.424890715444740   0.556432790772620
0.018176664723206   0.461635051462498   0.636417717861981
0.199459087159573   0.520272756876133   0.755888503277594
0.981477311176153   0.628825473821318   0.887300150453222
0.068351936286640   0.664125851051833   0.593164506194471
0.157559552186113   0.551242325563153   0.715343382239060
0.055877068495418   0.702664876844826   0.872235113143778
0.097208972307033   0.692691674538664   0.929387982029336
0.163581576305232   0.685173262596515   0.032148317755133
0.922495400622701   0.658676881048654   0.166387332606908
0.868110019550108   0.566273570160126   0.970871812930333
0.202215917558744   0.556876716526745   0.923574296367688
0.200648558252617   0.798921180144061   0.181502864925115
0.214895139754507   0.639698968499687   0.455999679479082
0.876329067338354   0.651801600742575   0.295053413632069
0.182098239974711   0.595862213458883   0.063534254699322
0.967727594638342   0.825741588228933   0.401754391079788
0.109820297893389   0.569326785152137   0.447012600111932
0.104379606574833   0.824797961477544   0.389731171796150
0.056318148424218   0.514472790661124   0.508269865247399
0.071108402414119   0.838161776689356   0.726761099285617
0.128813286501915   0.738922586774540   0.561887821008742
0.122372685514387   0.637473638443728   0.722535651415308
0.182388532696623   0.495542205427441   0.696263281116163
0.089208282653419   0.654007758647483   0.722056897283703
0.083617245097993   0.899072603154762   0.911768029161946
0.879124079567392   0.844362482372905   0.068857224660751
0.887114804690437   0.653636547850544   0.156604102247731
0.860648693180098   0.852685586069270   0.765471539987940
0.198914092942182   0.703970475085736   0.832243317689167
0.872447614144184   0.877585639729331   0.178949936049154
0.035087387830889   0.689117438807514   0.043013756110968
0.177725467135685   0.656513248033904   0.326020160152651
0.933222118384699   0.636114807573302   0.260260474067109
0.775324416406117   0.414497459782125   0.631558272203673
0.057334429897458   0.648928709748446   0.332532591899248
0.151991509203492   0.704287351323571   0.208417634146447
0.953267553042182   0.851055835672653   0.511172589283254
0.242229714712502   0.694493689327361   0.552669099457483
0.291130030448388   0.728753752069783   0.503841378373339
0.142492783199689   0.626608539898111   0.754909663384097
0.974442609281621   0.677582762189607   0.482518329566382
0.026571287735806   0.602316351280436   0.733037494416761
0.148337632447272   0.768157163765067   0.570697902446770
0.919854608834532   0.646448440766778   0.726569390249417
0.248935172904194   0.657001948915362   0.720160939043754
0.981705513131757   0.756289291556753   0.699851533816528
0.181794547561766   0.794527055621400   0.850429845062221
0.011938801754976   0.691721855034097   0.071044595126322
0.017533882966282   0.917133577739831   0.158756226696315
0.028465086358585   0.699640462102870   0.934509245492003
0.091004408448381   0.699504614636946   0.173356801226411
0.138165804079975   0.810985441702761   0.092824209336729
0.884588294262015   0.891801928401025   0.396290792490079
0.010381819848220   0.648675925447696   0.205858731573970
0.014997141858622   0.772988010998723   0.206588629819466
0.883233855337897   0.585110509364060   0.423450683039260
0.153954645016784   0.901641962230818   0.464506135637496
0.005728080777269   0.668041925179040   0.561300358516101
0.075552191927229   0.559113192301722   0.246497843303690
0.946879790818843   0.696508582803575   0.535827887601168
0.891508607961008   0.830710658460122   0.762678836867285
0.067451314488545   0.694210333020470   0.761146582136181
0.040648058524360   0.731738583972327   0.809550923123823
0.202529092450383   0.753117997611195   0.687025742788398
0.153233378781109   0.731027734748710   0.977875302691276
0.046227614475640   0.589111378693883   0.982765632749083
0.337966204137641   0.693476813960008   0.010427603546586
0.972175054323835   0.867526961867244   0.038275641909609
0.033024983652717   0.896532079816413   0.020457740412281
0.990072722294265   0.876106078304362   0.312454865607648
0.126474066342146   0.860259168524503   0.016725013326185
0.032674019435381   0.785281280023804   0.268072825857123
0.164548066708758   0.818129550683962   0.125177005179999
0.058382498932865   0.846238520482971   0.464105439102070
0.130415542476326   0.722559747577741   0.326001238371811
0.123313462479863   0.857892167369621   0.407473499338540
0.947389056718400   0.793798426456239   0.538972013973902
0.890199837422330   0.728650925026509   0.477894211744278
0.024237864185579   0.851211854318722   0.481967001689898
0.184022338061026   0.706289656649804   0.557326346146706
0.182359128151604   0.865256768208346   0.589272176695859
0.964519209699276   0.668716602555799   0.559661280251742
0.751358141523943   0.895762876770767   0.619651841364508
0.049630900560298   0.785062383072171   0.776481375577573
0.841424860005354   0.887486494655434   0.910773136731014
0.193797929855228   0.684803103092554   0.923912053305803
0.903184421041199   0.725847313513337   0.035005909616032
0.964029324656380   0.659127891857138   0.115566013166030
0.959025495854028   0.918294094931484   0.200394597199651
0.141016169565630   0.775202179105973   0.077762412461006
0.989745339580929   0.807947320254745   0.131179510158599
0.983209655413958   0.772702266712451   0.070376555983548
0.181657551377960   0.982484616828274   0.181032402198169
0.114057319876745   0.885320888630898   0.201743375496787
0.817921807815610   0.721572341363089   0.604523927460353
0.005184041315146   0.082464463116909   0.329809404272269
0.945094895119513   0.799386190492401   0.622912567173917
0.998837071025764   0.793971420645435   0.361054963548534
0.153639459149669   0.795285217781296   0.600043277058677
0.032123756347946   0.066658466963198   0.667149698319542
0.235338924533238   0.946160194429513   0.556758795100745
0.763528062253587   0.982891402729211   0.922675280768276
0.926802024708761   0.959103926325307   0.794224635033420
0.016003897521248   0.907709141796094   0.985875976602724
0.077936022750413   0.798739292407328   0.836670555011662
0.204458225630064   0.996772642828629   0.628834493927319
0.016692159461436   0.760263283153730   0.088010256805772
0.155337284749686   0.001919799062983   0.904927902517460
0.039769272903490   0.989132524207987   0.127860560758994
0.923186911698525   0.754229103718276   0.088865887239820
0.902640849723488   0.832868214099878   0.130280819285088
0.224640007957728   0.977456448830785   0.133837926125165
0.138243592901645   0.860190091601479   0.251270549345041
0.177213673035322   0.870423412175086   0.248434486260063
0.019480778745481   0.879734050920037   0.222208773848836
0.889658150637162   0.005510562703550   0.561574270194533
0.045523584908574   0.028470208000472   0.560402440211971
0.174062244685291   0.947141720401389   0.649057659095703
0.900355012752720   0.749009024149420   0.415236826705477
0.821717485519046   0.914335567518248   0.447355229251108
0.018923985351646   0.909081139431192   0.758308060374742
0.069519814758006   0.817672162647439   0.658783819337284
0.891281231982735   0.872712415643561   0.573269077925709
0.937976106688040   0.891795355078873   0.874979404016619
0.959791986981549   0.729963309540747   0.878587074643297
0.861434205101703   0.047563946787831   0.725744877849507
0.090962327546382   0.891331029553068   0.850369942715248
0.119755119709455   0.981558381111272   0.034669019226176
0.202622121919337   0.935918609711045   0.973276905680585
0.937619932269244   0.887014424437881   0.041191350256284
0.960902338032617   0.006247968213790   0.392229532020243
0.066281390500479   0.713011472859880   0.144541820564615
0.021150117552590   0.029795627279899   0.237933833745237
0.003716473444974   0.889540802280757   0.254397216122275
0.869141237113821   0.976589147394482   0.174944681215485
0.971303327331287   0.822140638500775   0.489187241395397
0.052667013990861   0.022816702420691   0.353638927513166
0.896644348441566   0.860180074275347   0.480559494731724
0.055239185254082   0.816021936370820   0.438688835742607
0.181767767105791   0.023043373580404   0.652340336060963
0.843458883026234   0.081212393227585   0.728642553802045
0.939996404907436   0.974172317412131   0.656655436630944
0.026947725465982   0.882446434715762   0.652165327963956
0.922283532079763   0.852092834529561   0.773709129926131
0.978865024871432   0.952501125631214   0.947204539759962
0.168917958790755   0.853987474559312   0.969701340128778
0.008474679644289   0.951671293981278   0.849629675291851
0.096450096849319   0.255576216193902   0.941183575544610
0.058589769389645   0.056187640679832   0.891880686226839
0.205325692775928   0.116636137860033   0.941764136627453
0.235498984819725   0.913101110804227   0.098304793689884
0.108202849792261   0.041901639104359   0.043130437188512
0.081804388059682   0.171072234003065   0.102403729714467
0.262628455306777   0.998131120580671   0.369978874933949
0.973952553747804   0.071723758038507   0.384261916097990
0.271693152090052   0.006345777139577   0.408982385355293
0.042881193836277   0.075245496724768   0.483685169218010
0.166069575349728   0.908013034365737   0.701716300519304
0.001941409816597   0.944635468925478   0.284041042187789
0.164638993876915   0.931495148107706   0.557534246851083
0.148139105136614   0.956439923620685   0.750337685463635
0.990190773354907   0.931591726802103   0.604068242780748
0.332051331934127   0.008267453461796   0.894923310160902
0.160651674889124   0.035707069538023   0.774050281129316
0.284572999718856   0.091953613434164   0.930852060072013
0.002961406274033   0.048628807283664   0.865595397769605
0.171530875592987   0.844335958251094   0.887474780534631
0.989054254013455   0.085667097267681   0.040744237605418
0.084675740425418   0.011553806665259   0.988321965915642
0.130042062896490   0.135471436076063   0.188042510907255
0.115418551855418   0.028834815269555   0.125180348255456
0.275339778628901   0.933544809433404   0.017100343597328
0.097469326622908   0.069416109889390   0.294019905857609
0.053876211457051   0.890475346001009   0.300068872103512
0.203295387346144   0.774693121640670   0.216891748445219
0.041263892398058   0.023408760949744   0.316823943655101
0.196584219235421   0.034999225570324   0.325949712745518
0.982928484990383   0.238346472787133   0.393164805615902
0.207773164550621   0.207254839110541   0.441736883150479
0.966911180251032   0.072471025999276   0.472940902712537
0.977030885714294   0.995147922223252   0.882203783517954
0.982436185724142   0.035095273563510   0.829182231368222
0.220655080099134   0.060840179400213   0.754804391289865
0.091897229018859   0.014167064363702   0.924470235340137
0.963830580592302   0.051706780174344   0.914680458223296
0.985645640360177   0.131825136650976   0.975255972225140
0.039689575919217   0.134833619965631   0.788558837474626
0.991429361148572   0.121376952387076   0.821264912521564
0.094547135314330   0.237616374949402   0.149261388638137
0.067386396858265   0.111232296199503   0.125897453560529
0.257489395175400   0.368815289491580   0.048256955855543
0.137314515431989   0.013294395817765   0.096995674479349
0.190587910786138   0.175132431528047   0.444213478601412
0.011607825808167   0.052632015297113   0.267979190868115
0.042045775307242   0.184000270295211   0.397025379179051
0.039268124501664   0.956780017683144   0.282245208204639
0.054973273960891   0.058660211882733   0.419825266680274
0.954358702249898   0.263830892651231   0.410448356101075
0.181473622565167   0.026880219612976   0.526083732241986
0.136927882695894   0.273214991396277   0.650777414814354
0.043107958305851   0.976947677486678   0.745834905398740
0.089163938889815   0.125637115570870   0.515858468029028
0.253035946813450   0.942347961210719   0.591263363365572
0.072417373793579   0.186888691876889   0.781292285607976
0.958356093851340   0.063365112732433   0.811602592289449
0.055392587939674   0.039829742879623   0.987103600637722
0.017466272420956   0.081715190033058   0.945089710487927
0.336786739228006   0.072011608762929   0.909098236238390
0.990207058779465   0.934720638848394   0.047475211195517
0.136088402128149   0.050945465509523   0.150386171429216
0.231570558325960   0.185992324114926   0.328857049096709
0.115408493284164   0.973419327728567   0.180523061616862
0.173285553840430   0.255686547735022   0.270542052628974
0.022119038083623   0.104597659576983   0.365561224507074
0.145647546855120   0.158132268546898   0.214675732010023
0.194911112337907   0.110819882809625   0.443629462876007
0.852425654400052   0.224416041146667   0.301433049023598
0.134296875562396   0.069135101650891   0.575717466587641
0.177824873811076   0.245709834944723   0.368849285569519
0.210886482423745   0.324670722718128   0.757468453601938
0.007667478104595   0.088205681693976   0.733144777343974
0.032718532800028   0.113225575982050   0.713179623572871
0.126027174945387   0.279147991449787   0.815988930424169
0.011029719948149   0.020548806567549   0.711038377835715
0.999105666874891   0.254845369396778   0.710426979605325
0.894226099196063   0.178968916353436   0.824526990261763
0.038689738297873   0.213789237751149   0.953679125319772
0.085362459349177   0.954428526562514   0.168664834591910
0.005192875595505   0.209385533806797   0.129006515836284
0.091135678715915   0.167999594625725   0.859584702978038
0.266642036533358   0.196711379033949   0.330083510208717
0.261389937003200   0.044435848857702   0.207331396345993
0.008076248950303   0.259997524939069   0.255782028756429
0.380742601078265   0.000474002066875   0.207691807968993
0.283511900634651   0.030717817373029   0.238750693954366
0.168858466899942   0.163762316017242   0.319763469084629
0.114020618240752   0.278210710300105   0.363362200135585
0.041317062568606   0.941917027607285   0.450617740134181
0.274944106477785   0.269256710265308   0.464840934078524
0.382327338473168   0.255980684693638   0.875363454740126
0.122521827008064   0.128890694718560   0.690902219257807
0.836567868677993   0.247240888402092   0.659964871325408
0.976422148839480   0.107505366667718   0.751309553069408
0.972939820729137   0.264086596417108   0.824224254893872
0.082857304168407   0.105455598659411   0.838696813128657
0.337772368564434   0.093737010837632   0.153451530638989
0.045972911761233   0.373777606738928   0.806821020469737
0.124758081514841   0.173951874488770   0.885661237570689
0.098819530353092   0.217698308502731   0.039236044617264
0.015693191927307   0.287629937423413   0.135563790208388
0.145126443754798   0.254311437402777   0.996129662863566
0.200715896375178   0.362744674880781   0.145353876300479
0.172757259839604   0.446255829884592   0.090209473860212
0.321146065029151   0.447656343497436   0.474714053134612
0.271128314251461   0.227119009416244   0.304341637551462
0.301107138377243   0.093532789501568   0.368327298528834
0.083248161086936   0.107801863781698   0.392475147655991
0.709721401707696   0.278417694692788   0.355400926475056
0.177109283401174   0.234547052221531   0.748300947914188
0.204992114846314   0.107241867410297   0.588569847338041
0.066604379690872   0.430142791708305   0.464112169879827
0.156753692155723   0.303859397956096   0.804848414316782
0.015376506295061   0.181062464028420   0.659615516658692
0.995835659516521   0.348290903816083   0.689263348377006
0.039859029592540   0.339380286905880   0.786942831287376
0.012502806883135   0.335868977651747   0.924504227867896
0.091062136244496   0.205005112707363   0.843783272905091
0.084927739693879   0.519417315892800   0.844254558603498
0.982909368028606   0.252358428410904   0.041312888309259
0.028296708495072   0.210729134082755   0.882841529960648
0.974701312767253   0.057584446440600   0.063391612612953
0.088554984453403   0.282297638135219   0.038728967666869
0.865938966591549   0.245705362161518   0.354198122839314
0.101781691903100   0.295609210033888   0.291289916574948
0.206621814702669   0.447230845141433   0.261327171086180
0.051628704757086   0.298834051258565   0.360076223409154
0.229430792582924   0.408572037618243   0.493176109252829
0.184401993232973   0.066324499434264   0.385443850122513
0.952330178348926   0.458832685516293   0.653573008179279
0.985194436507334   0.330598034332017   0.514792175276640
0.082114983782406   0.926804416881074   0.718330125492112
0.224620634898444   0.337206258188175   0.793312798404927
0.956241687114377   0.376304769470167   0.815565001680027
0.959674472660798   0.286103660838148   0.857644325280045
0.974645658670946   0.187803726195891   0.834247984290152
0.119032131476352   0.336452940981851   0.942011883851164
0.239810306363109   0.284085336321219   0.933924983006416
0.141798106385041   0.449186924011169   0.115774495069391
0.018487582833261   0.296254012412929   0.979654055094527
0.064105839453175   0.344004615812185   0.082022013253194
0.030516698498280   0.220601872445155   0.190682239515155
0.163259550704026   0.472109656019694   0.305361696895950
0.915886388083612   0.442600409719559   0.172744971953233
0.981678899181249   0.422673275590522   0.209529116301153
0.948661424400033   0.423147966750454   0.400654903832573
0.114608705736260   0.351429467314413   0.490293370166686
0.892946825942252   0.300017749818459   0.311993067050743
0.076592862764644   0.341037742025324   0.496449306951911
0.158934823787654   0.268918009851640   0.511330492174386
0.308327259416483   0.252712326321047   0.482038005619996
0.080886389039495   0.403041815984869   0.536569241819413
0.063418561767773   0.447994851163129   0.587660121296645
0.054961435500794   0.520030854320514   0.768283684660883
0.043766212710386   0.284108883529785   0.741414435605519
0.060903184052053   0.321021796382398   0.882654076225050
0.230262429261264   0.373244720377643   0.809543402188459
0.068287885022735   0.223509863000523   0.016309372232797
0.233416414361769   0.459563376263150   0.095488867548392
0.982806765774905   0.550596526169871   0.202584521633116
0.014964737590987   0.472331918529270   0.969009666085669
0.176955321622861   0.388687296079453   0.123906741510403
0.184624851713184   0.313686901812527   0.210094570935602
0.099113028060100   0.402107353123779   0.141348725946123
0.064794112152708   0.155956336660985   0.189889486463349
0.087256336434987   0.604981623762591   0.080116376501345
0.194696181689735   0.308879368688853   0.390751236390854
0.065178652936765   0.325342250301080   0.461330431836665
0.047383239607803   0.279876660185102   0.529323630441908
0.292380767817312   0.342410309916758   0.618933047327247
0.898383793201113   0.523542267681777   0.568179838159555
0.103865115212207   0.345601706451485   0.569463348125782
0.922608415466343   0.436088184779857   0.590675045087615
0.047061053318358   0.341959921343396   0.747962319440107
0.998221565011001   0.148670094354289   0.637745222018703
0.174766913341658   0.373337876543012   0.967038036473012
0.117787607619086   0.416762862302394   0.924954856588858
0.064173151441027   0.307969951534728   0.797787135421071
0.123318753906750   0.460060280591719   0.051573283821970
0.969414554874153   0.313982955909047   0.017269630506991
0.917680573688008   0.404737101211850   0.279717244633913
0.052052692133472   0.397626048584844   0.274615498851677
0.144674175198574   0.378572586931861   0.100871355540934
0.168128986579152   0.660440019672830   0.157244758360497
0.029034842859092   0.511068583082482   0.122840725706944
0.978580250001019   0.370094703816799   0.418100830393471
0.850626332713933   0.585897301880068   0.525811965277059
0.167718933897894   0.526831572357597   0.439249348873137
0.986425989947960   0.428065979954691   0.568653468079701
0.194361010930771   0.416702092217223   0.648554087189949
0.078569107852988   0.423818789261480   0.614384590377417
0.203451825248554   0.227525097245616   0.512958033087636
0.032250520131800   0.438647271974692   0.528218858851626
0.084809072264042   0.211561530913560   0.599625530444651
0.115536686045729   0.484705013158460   0.713240638965775
0.096388223161377   0.374836820842778   0.891884658015742
0.040520202951311   0.279856351689443   0.007710794302821
0.075626461166017   0.541426805841196   0.941128290763189
0.127448264045230   0.323585846095868   0.066471447195077
0.097346995481926   0.641160018620338   0.199427151851370
0.211864283018035   0.278363022768137   0.056051448771080
0.032444747949927   0.459582495017270   0.262818571781372
0.061745194491887   0.433259198395741   0.274194924995979
0.950697647964320   0.350742832830422   0.221765531657691
0.013470371077907   0.554893239890982   0.454924230348841
0.242354911070261   0.461720583859092   0.338614826143012
0.086458042496594   0.447164340161995   0.344410976081020
0.141277681033863   0.484616302497780   0.482547633650665
0.153519400625613   0.424053302408004   0.642405001937465
0.175561829759558   0.351114401203183   0.635133533242914
0.915299648556179   0.682092636886173   0.438825115616428
0.266482233347396   0.591495807853169   0.695789435937134
0.262822430709233   0.436398028342835   0.573609761859613
0.995828739519531   0.368974988882375   0.939523470162532
0.166129054513826   0.675977534844872   0.669613926885134
0.366960381642910   0.558904459140146   0.025956441871820
0.104368770117121   0.410400908682527   0.800649527292551
0.160849686446615   0.508654006736489   0.045493946122737
0.226689740240280   0.610648456111066   0.804471758523438
0.103018728492273   0.430992818872162   0.073849203113252
0.143780342108483   0.692686880029865   0.376378272140984
0.017288402514027   0.520469916154147   0.375507182443983
0.195427367671340   0.525506095242577   0.215398836212651
0.163175525267709   0.399738985579346   0.160771389792955
0.200814672052606   0.378187640105281   0.321416720308859
0.097642694535901   0.372985427876770   0.320836618619973
0.113565929174788   0.546717794814772   0.476782780254163
0.013070377562717   0.488120892862662   0.466076168302570
0.123746941892730   0.665137637062089   0.509606628161199
0.169557253398730   0.628872182992826   0.817298158576701
0.024872483712035   0.698584880187890   0.544326321428526
0.966290216244223   0.386474214194526   0.607173178911230
0.191168132712223   0.391091812239195   0.750919931866025
0.214338861570245   0.478883253956607   0.703671475952951
0.094904004150389   0.645092561874878   0.815410356548332
0.014152896130956   0.478467333982428   0.929676037791449
0.019161991792406   0.562046133890384   0.978188921758302
0.091567469293897   0.509575941869530   0.961832165768884
0.084256662264863   0.578239774506276   0.945376290939158
0.034489818024721   0.416117251345012   0.970826548187406
0.186492436135845   0.616125373728133   0.098864208737600
0.098762526980968   0.659741940965409   0.165054895084102
0.115154668532315   0.650532410491895   0.231921013403456
0.054212547131660   0.419963303076741   0.208722974934355
0.090952835972937   0.569005186675708   0.361586196220756
0.990126695826318   0.567508146316266   0.485615498001317
0.370818715803453   0.486073637304756   0.247365455519687
0.101639760691442   0.575125675177754   0.323964101805898
0.131466880197659   0.823650322775622   0.586676427577847
0.950351096525608   0.641440552431527   0.406275150511633
0.937241116976147   0.641766862061613   0.761930922503324
0.984719330841125   0.519540205615709   0.647323137142698
0.130179774604572   0.677482832547225   0.573927008826350
0.984708736419248   0.612875758169622   0.618419704768291
0.009481588944580   0.581360328012730   0.800941670348332
0.190539746281271   0.652051045605099   0.678672768838689
0.302521490754446   0.406654969391853   0.629185331780241
0.055838252738757   0.604930988082867   0.949156095169222
0.959792321675249   0.615168646628496   0.162510154971064
0.112896032121258   0.549881447577192   0.085199902456709
0.813380581648891   0.476068149601574   0.895373552990940
0.935147908577273   0.811891196236099   0.036022375974749
0.165845223918564   0.944803643432537   0.137837039255385
0.863388755804860   0.593940953345527   0.135964236308479
0.018531642447045   0.745963794692023   0.337222030291917
0.026128900193792   0.788229852660366   0.329665939476949
0.095365349079605   0.659541184189696   0.338456547861389
0.290919838721981   0.715517997872578   0.602449309597711
0.079114951378260   0.855757530245903   0.664168564922990
0.080222493243258   0.841408165068085   0.358938000063427
0.319114298192033   0.702257893361815   0.496458862346231
0.011257029403819   0.674936114447968   0.471069042967054
0.070548556287395   0.601846571896267   0.859251277468666
0.173949532675308   0.758504959886697   0.495801991989356
0.078937844862215   0.722268678742786   0.517862063585815
0.099046367031554   0.610390108422645   0.803045138151517
0.238555469895233   0.645811643413569   0.963971833815933
0.029684453563329   0.529573713937546   0.996809799555566
0.151604302467611   0.507637264769752   0.910507982413969
0.132899116179012   0.571779671299885   0.106829539240541
0.120948063491329   0.756671293644582   0.140417081562729
0.123302093530803   0.694362061422167   0.119255717115453
0.183627972968934   0.785271108634485   0.144414712031765
0.013672178405527   0.768076220224657   0.243137526396985
0.905287386487672   0.788094733662431   0.087896309516042
0.408727361413620   0.498720939490235   0.242674261979589
0.191364965314364   0.829995329335053   0.434379195397952
0.278578491499414   0.658533857593976   0.455078032820762
0.986061182120457   0.803087987778367   0.523137943303984
0.003951959144944   0.641389326675466   0.371295482265995
0.228590303688077   0.407354935263457   0.758794978593253
0.043851747173708   0.774990059755023   0.494537637438610
0.968366385372721   0.537170038931189   0.679764609145340
0.115642365788374   0.735049021997921   0.639456908154349
0.940632477873431   0.764777418650406   0.746224605355373
0.982385182142746   0.696810220233536   0.884342742785754
0.038155797256752   0.702413218134575   0.784716335157218
0.102366215267023   0.774761288973417   0.889227943381884
0.186917849126046   0.480341489921224   0.040770743061711
0.957693450008194   0.753639376468454   0.185772267871806
0.023458229287218   0.611672300994298   0.090268157369387
0.012589596043915   0.804294159715841   0.295562493015097
0.004210941529831   0.894489119562431   0.341884692579625
0.104131465297865   0.539374217608962   0.311865392282026
0.232375433775213   0.677200204468904   0.274388193346527
0.005289021064680   0.690237453629801   0.253568168847726
0.078274623897525   0.588468390004979   0.439170144104617
0.357147322520650   0.633989726842162   0.468268052379403
0.098751975814548   0.643039931421003   0.375032239969672
0.031911953085057   0.923179994129076   0.559587803469598
0.304816830177206   0.829393270940387   0.563625157077877
0.873984149434330   0.641658438565757   0.672219827297056
0.164370161783061   0.720130409612786   0.829435614699517
0.789690385094672   0.743734886209981   0.586474842884111
0.177864896868354   0.605830380824114   0.503308533884603
0.023389540369322   0.711282583016416   0.014369324537171
0.114729593684972   0.739617303184911   0.981512749921737
0.220550618377503   0.710335062423434   0.037028681064144
0.041618183906469   0.847936826629965   0.867437147522548
0.029477912329410   0.859078191298718   0.107630598397613
0.181542824303483   0.789844116316255   0.295762678526094
0.147969637969034   0.652782469385980   0.044262788691927
0.103721684769039   0.675349049028997   0.090507957602653
0.828737669417649   0.829422953567065   0.306467468652506
0.872953045823858   0.936866240229566   0.262749977700720
0.955377031021130   0.684666655955166   0.321083502183045
0.101951741420217   0.886207292002892   0.426235558086876
0.110000708888149   0.696501478663235   0.352069453996166
0.190110247843384   0.819083776043599   0.503304065950226
0.945948156973417   0.760911742471210   0.561356512208379
0.325897720200543   0.876948887710826   0.618191265216343
0.181888787607795   0.673153638515780   0.759152843861173
0.128372357808394   0.094105700316432   0.706446485843465
0.353178495995360   0.839514926268605   0.695102867729727
0.157935529283885   0.886702891888829   0.765587785034990
0.255313394884276   0.583622323643517   0.885039212901780
0.073675413302979   0.992801013177315   0.800942505132781
0.944460057595138   0.656710620027090   0.844726471702797
0.259637905701454   0.696479755436618   0.048252197584185
0.140560364705112   0.754538764858196   0.007260442662043
0.123767973536197   0.945114843699221   0.086052741350559
0.321781206512156   0.828211492112805   0.118657268281942
0.961472832468166   0.847456410814625   0.203987470878208
0.199871620827239   0.992516178833109   0.243645615851663
0.954473919490277   0.975170972117316   0.308068430343919
0.196396642376466   0.729627625618387   0.484803040098857
0.114504055668937   0.946845203846772   0.464314812492220
0.173552651671901   0.942785465094240   0.292685017271156
0.916017629340514   0.934873742927083   0.505963657702814
0.079313051370522   0.833768377657971   0.495486369964675
0.131436553372746   0.627936677644583   0.382420725493121
0.258491156370767   0.794772216321602   0.832549187436404
0.287664348170555   0.808743863956047   0.679709214109370
0.203107993806992   0.931727884342288   0.737843789506721
0.105006943117988   0.730809090486610   0.832442823297107
0.056766864697423   0.767696265437620   0.849389378125579
0.058685890022149   0.833193395850157   0.835706756988894
0.008181661118811   0.864003019833741   0.824294059149463
0.019664107013949   0.908148923256379   0.917935755308679
0.098814367332933   0.080216213033419   0.027653213506994
0.004987074404521   0.097413251489183   0.979667640030132
0.872510574496999   0.771001082718478   0.145326525296794
0.119847020283627   0.900992167970640   0.167672505841772
0.042267740550141   0.621488583797731   0.151929445577555
0.009836653948787   0.995305354076702   0.455974360309243
0.116815841788519   0.842667495745481   0.493423583465274
0.263521723075087   0.797861361900956   0.315633903296057
0.025475762263086   0.662627362216908   0.597046589895273
0.030396358074068   0.985938809667625   0.488334398826395
0.037104071722160   0.784479194200915   0.456668087187066
0.076376173729072   0.841153640338799   0.766797004435489
0.050464876953154   0.743670244949436   0.655951723841036
0.134152475555568   0.906502652773562   0.678559340532876
0.992984915271590   0.783289280008612   0.723861541130407
0.076388046080485   0.922569358538892   0.653204327465041
0.066203014904129   0.964846027320489   0.716892650297248
0.304033936049774   0.930882010443853   0.873065295777679
0.081742301243322   0.950960545226664   0.947124274447677
0.093288371620679   0.913770126876155   0.944369417513809
0.013909646020090   0.820238168602346   0.037812550749363
0.085867375168968   0.918798427690019   0.160174652267564
0.086119261565095   0.680106189537247   0.995313062540161
0.183872986083904   0.878944912995671   0.109032726771330
0.061189598181514   0.133640894452846   0.044964433946514
0.014265023040707   0.789444753904754   0.584486291823162
0.040710169921317   0.904515440300994   0.433650538828696
0.063780993801227   0.853519020284503   0.525530842426046
0.121878877313874   0.955570301905782   0.368896191005152
0.939866361287066   0.079764322163613   0.598049945675459
0.140527813766167   0.962327716252469   0.438390450179218
0.055830344769287   0.874045372650899   0.369091178801655
0.037841969379501   0.843933209985362   0.603289661901281
0.126939908452389   0.035280235820647   0.795375619030737
0.136645544957011   0.822592692448262   0.772094249910354
0.939250678737623   0.083265016192917   0.692795373882060
0.021811472205104   0.895588082163393   0.722796710563359
0.081276030277649   0.989217232347859   0.076321474748255
0.235964197204578   0.907078079288514   0.930213749231028
0.110922799460854   0.887498115852224   0.965261838300167
0.277755926993420   0.954854556172339   0.234326217720813
0.266194561886909   0.928768360533878   0.979567148258168
0.189341330013527   0.697676692492306   0.057676890385199
0.046288552609057   0.151448864300884   0.318655093220609
0.157660906666485   0.925582068631673   0.173004469686849
0.089566071036508   0.059650465702252   0.237752684732315
0.249209916555080   0.106209774323328   0.236261700379304
0.099980384337034   0.940812731073214   0.280060747934162
0.935587179614223   0.769860058593520   0.409250322287168
0.263840677180033   0.185069660872569   0.702428135394384
0.904870106871302   0.104099953788915   0.785123326702417
0.010770646542255   0.258820662869005   0.379668979312625
0.335992138987392   0.092103291644744   0.644205316980534
0.471065420509714   0.976100784096241   0.695850590460780
0.173255070157409   0.970445379574701   0.617511330657685
0.099973038783262   0.763197122393295   0.953509257184874
0.167916580527491   0.988575505823472   0.871638998294082
0.070507403990818   0.977276294545920   0.836856194797404
0.201866862084165   0.177825695650416   0.935406434016017
0.261326570398660   0.097563477690710   0.018857035088947
0.147994809320079   0.014504097498389   0.988547260587811
0.278933281776404   0.214712819004754   0.989021384028323
0.150081817556885   0.960620309611662   0.187009347284497
0.923440282411445   0.989110799840464   0.154829625358417
0.101917609006782   0.062735757668296   0.203556420740189
0.247920070343274   0.963765242165744   0.360857056631568
0.291762853585440   0.171640750648094   0.344485195768822
0.134375171655392   0.821447133255335   0.468811977450398
0.125214210889096   0.857029679156648   0.528839668095377
0.944720882157293   0.168905034054811   0.515195360414763
0.279428712801905   0.148416699109423   0.376469778167136
0.078620329334421   0.964798079959552   0.457444082334828
0.024706270987530   0.944936385188949   0.488076324426515
0.036545085920661   0.036918609249863   0.594700304821820
0.231147663446726   0.069628163771029   0.671556136908741
0.144466738929041   0.946947807799042   0.838405137342159
0.334839533249089   0.009786444777958   0.635137712415374
0.862449417231599   0.005559045821936   0.782580016748397
0.118843253336051   0.981142090225010   0.074996349464701
0.017323930834777   0.051516764236456   0.205255152228740
0.095357689694045   0.153540271910618   0.043967292060255
0.257648350809039   0.985161530252887   0.056649977145374
0.971694740526865   0.107146786290718   0.271304486467107
0.145563935189703   0.094527432323595   0.246538084639318
0.335032496026576   0.021201505030865   0.387676874897086
0.059113563099768   0.214952739342993   0.258197247337041
0.037430279756159   0.054661997756371   0.455105431076398
0.201120399601313   0.994225036572256   0.524848335261224
0.144827957891966   0.135650502189158   0.548377879497976
0.081269763862870   0.910317248011033   0.516286804330056
0.193258729103067   0.056211135557639   0.673950870981525
0.234333592118550   0.358683418244791   0.712076852315135
0.347688246253213   0.141487432909957   0.608433230909424
0.031340624109425   0.098918799038510   0.594584288159194
0.095896660298838   0.939614717501704   0.622830201774968
0.967829567521785   0.190659090533177   0.897238330194150
0.151245085647586   0.971085903234820   0.928643228295804
0.170406411577063   0.119522500857174   0.760203393838909
0.231425762442741   0.936533179817027   0.906651630025014
0.006632182050885   0.163061886038340   0.961953915668101
0.127962977299375   0.037682742269654   0.189475648635626
0.009067859179800   0.188830794669429   0.093653924701348
0.228661664873205   0.103994541308880   0.034054463515487
0.399093435673380   0.983550810911404   0.264776766089598
0.139546381258678   0.284569912686788   0.130154723256520
0.105196914309549   0.089050458860308   0.521957151201586
0.135816092915372   0.150475682135948   0.455856571698496
0.114215081702364   0.050887033369782   0.461919947164020
0.247998437014830   0.057350954170914   0.385629405904788
0.102399198683866   0.156564118170221   0.347217794409163
0.352121181638870   0.983714225322396   0.388936622382714
0.190515608054736   0.119827597851645   0.668867372327287
0.215101101292542   0.141637146264633   0.603038515162283
0.209498140884874   0.255482842143316   0.738531822524576
0.342622167521595   0.085269714193868   0.572062651640472
0.309655394566573   0.089655151583484   0.837923755477116
0.181460795033972   0.199954356303557   0.616172488658088
0.025467070696039   0.110095998495559   0.812581474184679
0.007544428951503   0.146517427760808   0.147276146263726
0.202543529894481   0.209121276462144   0.095334897332049
0.046543410748920   0.091592949124518   0.892670660076457
0.012651591243485   0.255288435901371   0.196906023537712
0.015475941817462   0.151410939994136   0.108603341214503
0.195653039321811   0.114106986028086   0.112784948725665
0.991025715097449   0.021462481408329   0.120930864368260
0.172964512430760   0.203375771724895   0.307720553613193
0.226949253521325   0.944183624904802   0.386510379134650
0.067656839594143   0.992337070536265   0.484968445549595
0.066499693380098   0.375492685098538   0.420891625060370
0.361492665829357   0.182799977397084   0.518660453532737
0.016199122851319   0.234656080593791   0.499467407123960
0.331783291600618   0.247068219684369   0.542151345674444
0.153923341476164   0.087130916395996   0.736719203598767
0.205812264729683   0.322997067408430   0.577329388106330
0.184685938033625   0.218701245571173   0.790927097329906
0.227561598932616   0.332732555713415   0.677773020834054
0.130418379700632   0.256825628626722   0.848011448262954
0.229984657571277   0.183755242105107   0.907863776421301
0.135793958404485   0.141427994891348   0.903015219712344
0.140346581604908   0.228472938799714   0.090878211806823
0.230160787447943   0.197243932218208   0.383699274004605
0.039664270333186   0.101051442615715   0.001168085024020
0.208524603994727   0.485049799308022   0.003402624701359
0.064376922235134   0.219233773724359   0.215547069517251
0.125746988377115   0.080062137490102   0.318320567790847
0.291894791191404   0.113993277441435   0.606131648805715
0.122852537869093   0.258746715861561   0.396694347768476
0.155438781327301   0.171820863909276   0.427969662647657
0.137195125039832   0.083963395809223   0.469451797728673
0.867554038178484   0.093941936406603   0.368184791898055
0.267936047504886   0.279944939048551   0.598209166370973
0.220609043384344   0.120865973954886   0.535979954876483
0.097908488987921   0.157299185736660   0.628087479975515
0.150241750128095   0.303172268060453   0.703518857404887
0.184575126396541   0.149167230903111   0.740392281424584
0.327926311887877   0.265730904970944   0.762185290250243
0.859493672687408   0.303873423127713   0.876172303118633
0.060415630519420   0.149013111008890   0.881751353972677
0.156785080929649   0.226969461544111   0.908320382513930
0.145586279894105   0.234938937789074   0.183324854437619
0.268545172375026   0.300487451819018   0.116687379903640
0.398088582538698   0.298116803942686   0.234934105393834
0.123748053494495   0.134576106060573   0.057225227896577
0.288081854317958   0.215948295415989   0.183568143439854
0.230184106611021   0.264198662765716   0.334783827050304
0.989777516260972   0.351994496182745   0.276123668213856
0.355695794762275   0.478316422900602   0.285702470624466
0.175028157944007   0.418047242504658   0.362177150107475
0.944269687546260   0.259836925171513   0.601155923973948
0.039758481007513   0.512393982831463   0.407181064895734
0.986040128812788   0.218750343889448   0.573479503984299
0.159296493210184   0.269520404411297   0.552228984295380
0.171862737598677   0.340585061315033   0.593314919651539
0.150272558859197   0.430854932685483   0.600365264971057
0.012364335849559   0.160805817482638   0.778568756716914
0.090827054619097   0.209592735678043   0.719577335460358
0.101999467213605   0.400974107575081   0.956313096015062
0.982058855529832   0.310087543191882   0.914731500829656
0.075070380563179   0.336031559312090   0.006181379938930
0.057208228411037   0.649189508934581   0.905468653832485
0.945431111349199   0.185781805248544   0.154269919711209
0.127778435591892   0.394803479348806   0.173400819830414
0.121260552581645   0.416156345168454   0.107927160035734
0.092794044458947   0.265666437114292   0.872708244293341
0.993365647061620   0.342729890556248   0.366453506703620
0.189446084676756   0.580540162731966   0.472647061211667
0.137918074127562   0.303999423024911   0.351134786800531
0.231699562588688   0.314930907895875   0.438860079434270
0.027803769627849   0.280083461838581   0.224918248434923
0.040471964645267   0.391415607251824   0.235980095295890
0.218163824284156   0.259233332875966   0.498151957464687
0.952668621994478   0.498302294399922   0.453522285995217
0.158048725173818   0.447297766818457   0.489156511877291
0.281219703550411   0.217109278555831   0.536903286854351
0.110301751198302   0.258499075776031   0.464437801442569
0.136312918499562   0.323864919999469   0.589152345750831
0.223437672553666   0.180569174562333   0.836545437098458
0.241349568360121   0.350777140821133   0.951033630398914
0.819022488199472   0.062514841506706   0.952114421624607
0.216046050548393   0.419031946243893   0.952765928885164
0.038089093588032   0.382775931870844   0.869880561604195
0.240148926564219   0.474240862828457   0.937917268754893
0.010421787555390   0.391908338697327   0.160576977157686
0.986979145091691   0.449195135605193   0.310342433059518
0.096577994759651   0.433858290619608   0.254555218767524
0.955304592059486   0.434207795248447   0.236867944472000
0.970783677825324   0.363795032359173   0.500026783582583
0.957320461558549   0.304787765649891   0.531094699153078
0.173147679100642   0.371740242740289   0.496293976666942
0.016344294548325   0.130478505221905   0.530799474220118
0.340583084110537   0.481656785992696   0.531482519532147
0.086899093603889   0.540287027556107   0.764627281523175
0.181157688193489   0.502337821089570   0.631723407268252
0.031864730417207   0.402919729414927   0.783914453816217
0.339737022428004   0.324009471995761   0.759794921732611
0.169724121259009   0.287224141785960   0.671179105724907
0.160157870657819   0.558272848335799   0.867273524520365
0.969835715243369   0.646298358075428   0.948062727049523
0.121087189013169   0.313988346398103   0.905570216648648
0.172951150354859   0.345774510655488   0.995988332281318
0.258906720209813   0.240988858222483   0.171128910376197
0.002061618441759   0.569953841223166   0.135991878699190
0.280368295408605   0.572085886865870   0.014512171749505
0.277215720157817   0.313458073776430   0.306339938264747
0.086200440282554   0.344225328505948   0.428568560112182
0.963582347194610   0.335557738873020   0.647421817589914
0.103296086244200   0.439676607707435   0.457559752483154
0.187829161259718   0.442193498465009   0.591230447132227
0.303639202022392   0.533648084139725   0.550244727911658
0.143124668738195   0.606054428462051   0.515245184970858
0.254182013038847   0.431211259400590   0.468123834177993
0.288940605832955   0.486737073255265   0.422313950755065
0.116016651729336   0.321430511911700   0.682825740093127
0.284428879909761   0.317414697978829   0.680527071859664
0.084073658173993   0.340040310608593   0.733815442645121
0.224134277296575   0.440158504869562   0.133245295844266
0.082033234899567   0.469406057680680   0.959734260570250
0.085237564010781   0.381186733084121   0.824041137837234
0.317554645078764   0.386159012375051   0.782129965551267
0.152027126494459   0.358471173867029   0.936177055567029
0.960834946007737   0.371643548756560   0.913640072665012
0.190409462543695   0.692224248272819   0.163088047893800
0.198769154631428   0.476918782392781   0.086875017683194
0.015542588735834   0.451345866575280   0.121226153353863
0.213015093019877   0.667139828455173   0.401383198136879
0.959165018251875   0.564935486413865   0.428797480058954
0.089419825795129   0.602359266490458   0.197866739683302
0.042053113884742   0.255872205340332   0.401205042534984
0.916047107374884   0.287013333306408   0.800697280638174
0.124059677828394   0.628939023376532   0.490403335954612
0.204202755926986   0.442822319725097   0.434775647133208
0.104384289873086   0.468144077428129   0.538366603615611
0.247247696084506   0.429294709684332   0.607608035981349
0.121395533783423   0.620399388284489   0.901495006353148
0.095378540600663   0.474365583452835   0.576311145336807
0.179753286243353   0.497652873525851   0.787570221677709
0.249251952973550   0.302124088105715   0.683300921452296
0.032416946153161   0.432493424413945   0.658879163271814
0.054699059495844   0.364076293451395   0.024334510053789
0.178064163771355   0.329454302945257   0.149289132883050
0.195034250588293   0.551678103982572   0.012793154053810
0.201580430195518   0.353899744856639   0.022596378681835
0.052370215614750   0.687037925099289   0.121058789834822
0.160390616381756   0.304748607436254   0.902150039134192
0.186773814450235   0.597876570120283   0.135274965289536
0.965614594690365   0.474990937673447   0.512583241121207
0.266111091552859   0.622757966946379   0.363214377660439
0.090923456330794   0.357401113417572   0.356412270459890
0.325914455031874   0.693053925842936   0.652571720984457
0.086499463145267   0.652991631225525   0.657759817080086
0.311937909088656   0.794660427328873   0.472389385828253
0.076276836047558   0.589615728484637   0.645288281795923
0.239987564523337   0.521306001366307   0.845926322091668
0.123085279537490   0.414930843909711   0.985562184278548
0.976646451421498   0.397181270184604   0.749751913540758
0.264032857917041   0.548645471847074   0.792860846629367
0.183840432154236   0.434582620171145   0.962893812079529
0.088902271583897   0.557779387835597   0.534902400409361
0.058081563767319   0.528063720305771   0.024443344472526
0.071364642731606   0.652860179109114   0.016925402939354
0.121334542557201   0.653662155793910   0.977327833724036
0.920667063799079   0.588905559380955   0.012491644165240
0.097526519384902   0.504401187612698   0.128052819492878
0.213080048455726   0.391614672661941   0.209661617594045
0.973847872894748   0.725500243291214   0.122085941171973
0.173559695111979   0.725303435243467   0.273233717955132
0.273132601201052   0.694629267277171   0.371217044029108
0.376119244089641   0.644161343413436   0.414326124123783
0.094973370630895   0.436462053725308   0.518343206566000
0.145177761866569   0.593796074471056   0.393535247777830
0.052025444062268   0.673594721195549   0.522070322246782
0.218149553557614   0.434205701076290   0.521877725923966
0.151420702142093   0.913151378438765   0.643505166462629
0.202986413492271   0.489490617144761   0.936169618635131
0.160709816937280   0.738918735452146   0.683843594346618
0.310689758905673   0.475608597794074   0.831855998705789
0.299815463502438   0.591488635038967   0.755225196155095
0.280339347024292   0.378989859686700   0.759042255922573
0.075357514697286   0.584539581665374   0.820939002697340
0.371684517815791   0.500247085164234   0.946230222928117
0.321485304026228   0.631832854997618   0.026553111196897
0.968183362944060   0.718359471348689   0.162670555915282
0.209025736866436   0.460189389453894   0.162365073634035
0.168926273888959   0.503759829237681   0.243276952725650
0.200979381891499   0.617581928290718   0.196058001980157
0.155217024574059   0.645748448782847   0.233227635348438
0.008036031978274   0.522854183816151   0.187607131178068
0.944154407094941   0.766331240402474   0.449787946016312
0.045378555395012   0.678428765610733   0.412916459326562
0.007437510325162   0.726683107013220   0.519464568840926
0.064119936875024   0.703336349071117   0.441111671600059
0.164845033964361   0.546062017245993   0.529014437307527
0.148785138616401   0.708783420703808   0.563200362047985
0.074888539860450   0.665334998815733   0.875772199857690
0.972350345825689   0.834988410827119   0.665048698118187
0.898564663256319   0.700485401556456   0.824734919842331
0.026667547447698   0.798180031630730   0.716577020397242
0.251750630367117   0.833153169565144   0.840003744311400
0.258965759135520   0.618498390736383   0.905470992804007
0.997573044105678   0.715043776463559   0.195622030551553
0.148817257406301   0.764446091058235   0.043665011886148
0.209305775642401   0.706379035605541   0.999103947352485
0.224376004776853   0.678586013747662   0.948276187733342
0.071362960876697   0.658513851027134   0.103276329898801
0.001123138368583   0.634882863264236   0.923215801073768
0.119205262496754   0.548604146575915   0.175835965608355
0.105585748620688   0.498540416774557   0.425446479399199
0.227793697638100   0.936418322187183   0.184836092551435
0.279959779921592   0.469181210360837   0.362118224300802
0.073015433417098   0.766904345520710   0.568170246013719
0.145937162579167   0.627459382261628   0.454917756831700
0.378634425212300   0.611584981226017   0.603361217104128
0.138605526387423   0.568083932749584   0.776919143892829
0.184389561839259   0.693799648326475   0.486361496036198
0.940521088228473   0.652110391478385   0.009069091347764
0.239871788255586   0.618489677386976   0.641157629212503
0.240115826312835   0.755781301081726   0.784545477356479
0.016491966920956   0.671218675647536   0.803620627525067
0.291814637748449   0.638421008813670   0.914134855708078
0.280694389117124   0.793253992770003   0.087454416105558
0.135304112617567   0.660041834946731   0.139128752947653
0.040518797570913   0.650443783751034   0.039226656967366
0.152013988076034   0.777001946175270   0.315346750571210
0.099119394668071   0.816350077701788   0.108324781256752
0.267161168759482   0.762795674458010   0.169237110832864
0.173104930634801   0.847451672951557   0.330853882374438
0.093220058923346   0.744105355532926   0.324644800271081
0.930976470134919   0.716748903180220   0.374281865879206
0.921860513549105   0.642060616055661   0.433980276060865
0.389337721098275   0.843879218917861   0.282429716568691
0.983495205547320   0.765635921686254   0.661903876091745
0.210974622923760   0.677022623415624   0.366661722420996
0.994753417150341   0.748937648115758   0.773901426986596
0.864635263334592   0.581880563916328   0.900051937052434
0.095679650707933   0.085055727571770   0.725860453493933
0.223454782837601   0.763205142924173   0.656023082160759
0.248040463029095   0.545411570341257   0.618809470352632
0.065065497313218   0.642775269215550   0.845117484213594
0.214006995904228   0.617179041120712   0.742523914015037
0.315536012945008   0.711462346997441   0.085190601960408
0.028716352881650   0.597394496040520   0.921076503166993
0.137529234533963   0.839526406539457   0.986952504652488
0.273071711748687   0.778753132483548   0.235663117140246
0.044452894862579   0.897141252625937   0.339730940826387
0.089154078266217   0.856362261554058   0.118792147660469
0.143890415264658   0.747373077062520   0.249739464099698
0.285951332685059   0.930973353751131   0.514662670807418
0.113642018110780   0.645307311489689   0.305602652964413
0.195521535697414   0.737796481621633   0.327369389705908
0.250840122883243   0.647713940222400   0.512395041854844
0.146651358108227   0.819775655227970   0.699875745190651
0.237740642217392   0.621077329554598   0.707378890195720
0.148144224467665   0.680701304385484   0.636881514126325
0.988091320114162   0.594968981441083   0.652731374822844
0.032643658858660   0.805277712558601   0.675573516067740
0.174699353045806   0.880092294874141   0.730263986088212
0.363610567532582   0.724041759288774   0.806613201143718
0.265878007512247   0.865660270364025   0.827275428805764
0.013875809021756   0.820636613611963   0.103352586670666
0.117906916311731   0.949823591401732   0.015153744130083
0.162887897836686   0.902811527421150   0.918827651614301
0.295375127807509   0.976189826121195   0.120299068783638
0.228965349573399   0.854750665386729   0.190354322270591
0.256096053137873   0.767584819381198   0.074012408985720
0.259710734404580   0.800236691784403   0.163208726486308
0.169621968019179   0.903639467233640   0.500512594005378
0.192123747239152   0.911469148230620   0.192931279288115
0.228611000400869   0.918961760788425   0.321813571060581
0.002048660866514   0.900631203971164   0.432730514487324
0.271064482680572   0.038530991963218   0.620163275469708
0.106473226183585   0.758895360512621   0.261891008916409
0.214797745065081   0.892954999890112   0.733040038146733
0.125435344464352   0.915182860627790   0.615704576223883
0.060295329741006   0.813852292780794   0.620218817511745
0.070806336638721   0.745084395081135   0.720641297116549
0.224019265287079   0.673465347743334   0.616035725764334
0.192687387394019   0.781462303885317   0.814486449671740
0.031881274776844   0.043453982708927   0.017180683698949
0.441797276271117   0.855887629802788   0.084064402923385
0.135831278478091   0.750404595510490   0.103610317443866
0.129076279336835   0.886285181609739   0.074568621926295
0.222705167672824   0.712820393427534   0.220554618537297
0.256736431826355   0.963114456004667   0.266991559486823
0.164750120254854   0.834876494448962   0.064243978462283
0.105752018172749   0.915964954258832   0.066776313100889
0.030280320201678   0.824732742819891   0.410431909797390
0.290673648645421   0.744468561636102   0.321012556005330
0.989931125532883   0.979062039858732   0.294976728967546
0.118097309769852   0.973954149639900   0.405230310144514
0.179044423645847   0.853856694646007   0.373568437563370
0.149364061596005   0.748855534861524   0.647552579486027
0.125915295673778   0.998653677093011   0.506736087953465
0.224185269488796   0.878957457923966   0.696981718138691
0.100241221314388   0.619239260335847   0.659735901501578
0.100787994963592   0.940810554050780   0.524317816618468
0.138043076516112   0.087727532225960   0.641777286033698
0.129841273654549   0.700580207857833   0.825123160238733
0.050331646398075   0.836981619101206   0.991686081616611
0.210668897042996   0.769306468323821   0.961623501157983
0.188685030782929   0.983641883336845   0.064578083349691
0.073851936061785   0.096847768111523   0.059409020339494
0.237403789014410   0.121348063931528   0.102496346948975
0.071033180191775   0.854075999089468   0.050898816313919
0.274262098378634   0.011427532041990   0.305210921173932
0.025112202960490   0.987581998172771   0.311705024414173
0.103102618236732   0.007398642490492   0.187513472300575
0.225984037281035   0.054725322122507   0.274544090654896
0.106447953961926   0.977262940915114   0.286354004136107
0.072131029577476   0.777548590736390   0.607626086226223
0.930262407574692   0.984706649890329   0.396771129562007
0.928072096855445   0.058908420962158   0.523822172539870
0.277568341921924   0.126627700454743   0.710538832846140
0.037558203121230   0.008115139388958   0.684499984308668
0.916959156287600   0.022894096708873   0.682856317354950
0.097158448516996   0.873888305435530   0.887464799872762
0.188452649611027   0.007635106971799   0.774131549232983
0.277248367279636   0.989811533244380   0.693522799275509
0.247553567498141   0.814705157971540   0.928704952467957
0.054850796642006   0.924199205718515   0.038571371388390
0.159759448935293   0.939491577160411   0.910060028678395
0.109871177129930   0.844631345396937   0.957926125329467
0.303618404725529   0.034077623044507   0.953271154609165
0.333322908512138   0.811656438991249   0.992323423792622
0.231336570771515   0.153557762040254   0.273405470917811
0.204509005183695   0.058646351120914   0.160121798073945
0.113252246354251   0.042647320738187   0.395149497767607
0.198886104453827   0.906918721238027   0.346071238969598
0.172134676572754   0.082025823378514   0.449917235226652
0.438031702154288   0.810881079089100   0.319076625240847
0.900861982980829   0.031002655807409   0.588250849424049
0.527777905529855   0.975133945454042   0.612618244236133
0.238091583736151   0.001050185603175   0.736337462970589
0.157264472531710   0.041184932349094   0.591003196754353
0.266332088281871   0.913904007050247   0.611389906171669
0.211011789128887   0.934310036719791   0.871945099050852
0.120749586543568   0.160675997864109   0.743080962002572
0.103289529593104   0.806836228832493   0.867098975817316
0.179635456048180   0.016866953451370   0.011048106466446
0.318540740028950   0.838663580105550   0.080109451728082
0.163876153692739   0.007545336807644   0.838369695754601
0.421138800075294   0.978815060166798   0.977997378103926
0.078410147238878   0.266978070808549   0.072712295996842
0.187309266452865   0.917793002712319   0.053989451641754
0.381574724892308   0.099362958015422   0.279411976036484
0.209340795315201   0.065873641097061   0.307223512976964
0.053657064362440   0.983417738431524   0.366444366076416
0.357381056240187   0.960000373697208   0.356830250708557
0.055574941415335   0.953100509421053   0.563437818847045
0.102299803265119   0.225728107021563   0.381719152166502
0.054933637601129   0.048392938887337   0.759347075626478
0.274008831123549   0.096908020130909   0.638048070266252
0.302623350872874   0.032174206485583   0.410948420862100
0.110171461371271   0.213196223943114   0.517703829931033
0.172147576224336   0.004764218535744   0.685923906069227
0.257582202201342   0.056098666677833   0.701138451173366
0.255054045133625   0.142485450794142   0.798551748099117
0.938612842361692   0.957006940196843   0.946592199115681
0.977237162472983   0.185870431263927   0.067529260585050
0.998864642161902   0.231548238313652   0.953879043069718
0.907864631255891   0.079046425366773   0.940489777788863
0.213808298559210   0.225985150809971   0.016030299775146
0.042255731314422   0.052236545997601   0.141205309715308
0.127720866427755   0.090120862410775   0.145337541826409
0.132623604390267   0.147685455815800   0.324329490634291
0.335065548962112   0.299601129754735   0.367241225585182
0.214006944035394   0.175365013737291   0.359181578615111
0.191511434991656   0.017638265070900   0.438358935753722
0.216439652939535   0.369497840079017   0.360084941393916
0.003562417864887   0.180684318337604   0.409840906033613
0.160275033998903   0.050124523594661   0.738929080168090
0.028315447497083   0.131348679899841   0.618646939395515
0.179571131523053   0.958403667456828   0.579438820155640
0.642564082592666   0.020410191565457   0.854365898365170
0.053323193039871   0.967575257215438   0.779878273631362
0.334606371779694   0.208000886247177   0.795192008453733
0.334707538359677   0.193857333154512   0.760540489249725
0.135807278433931   0.134847132421411   0.998436361303409
0.099409658972970   0.232243582028152   0.076505981274731
0.375450743823090   0.115503343486790   0.006720633524649
0.210226154075909   0.064060761730483   0.242210286945369
0.168614843955118   0.098183369640034   0.046716924766035
0.144140533194087   0.039914715543089   0.066398733269413
0.222900641324086   0.191377553060118   0.265986421258080
0.231371517870355   0.244734332781846   0.231292361123549
0.045129944542083   0.132787614148095   0.353466316140063
0.101837011368021   0.200401306790588   0.409809872002940
0.095351629784516   0.269888649639334   0.173400511642696
0.081961997273182   0.129556609368934   0.474153477001482
0.065764993356063   0.237613410690839   0.371721492721043
0.320647299513631   0.031324956818718   0.351313488424958
0.429270967236351   0.169519542568298   0.760994811498107
0.121625197836692   0.163495750787915   0.599459681350605
0.103184450591310   0.928817188628658   0.683860064276277
0.077723335189874   0.254900268409700   0.667333655410844
0.214455766244812   0.003516907058835   0.804711887682777
0.150223621251088   0.154929194513829   0.688375641744279
0.270006268532592   0.195397598968618   0.508193710854758
0.244288904208150   0.100003134443463   0.840661053061367
0.154436791823623   0.076947259805973   0.080074248500361
0.378984238965943   0.025886267362463   0.180934235484652
0.361142321366131   0.357878377545803   0.136116865881999
0.285423359693543   0.162503817131382   0.049412883456866
0.125530731983605   0.216861698501039   0.153907248132448
0.087564577071649   0.362033869570552   0.139520663245499
0.213310671502212   0.206819683208199   0.302387428157680
0.214934773910190   0.153284213983063   0.199775571191988
0.938087514992675   0.189623192941395   0.395960204722812
0.285698298171354   0.074016201434437   0.286904565480959
0.348457009050996   0.046255571263488   0.566435514052048
0.243846908004468   0.168922981697204   0.504877448253529
0.069994703392658   0.183656569301615   0.626953590683641
0.201453335683498   0.143616812126234   0.465392723974075
0.301461448496394   0.303103623603889   0.459362947270061
0.228081986648185   0.272724630021525   0.694814746339906
0.099088457177503   0.011984065339562   0.581870851767570
0.192937529590438   0.284207232174702   0.798409296595613
0.205928230961877   0.147664383987843   0.841943292475162
0.129577961919479   0.130051751918388   0.768587743083372
0.214153422870203   0.238390179449550   0.119437994662447
0.140831969559433   0.356647975205928   0.019647036764713
0.065529370454169   0.224494613168554   0.132111810556564
0.419708656354415   0.167486822320746   0.018954430466883
0.300157733144959   0.200371693895806   0.049486173331298
0.233262869690726   0.259218207033302   0.029608153730935
0.241866408676571   0.268803782432236   0.197980555717614
0.945654545759059   0.253935132150582   0.225805738496213
0.015093356392069   0.327184156004475   0.288809031697004
0.474462362378905   0.292797205770830   0.360265995115407
0.166139940340868   0.229793045688532   0.505775287804409
0.081886752764803   0.333061648809456   0.694415918881612
0.183784087794676   0.241520467126173   0.609175616795243
0.191824057428169   0.283111410773833   0.490165671771994
0.274461559519973   0.971265091163828   0.599663431758713
0.188167789387077   0.191205920284871   0.655164107338698
0.269521647448525   0.237439572875299   0.655608338670662
0.303374414511799   0.100209494874561   0.719367389796592
0.301185222137665   0.353637994812057   0.923981702680003
0.133930278336799   0.287042766837924   0.733322098161420
0.115406536778237   0.328102719853574   0.007348172496114
0.299068981504866   0.450044195647459   0.253171753601475
0.108039706220737   0.268552455221776   0.977737229868466
0.196389425962275   0.432399929897805   0.226651313190294
0.971562782051497   0.401753011334984   0.175923882586399
0.403295978693742   0.352167958058848   0.190278716263080
0.116721823752281   0.360190176590458   0.234480258027548
0.289653911647993   0.333165887265930   0.483192039993192
0.199111306022589   0.224800383118404   0.219441398298366
0.148603629021813   0.512526041200834   0.541037840348749
0.175261987573887   0.303447720129241   0.426503350637792
0.069314085356434   0.311326642040067   0.522831233522082
0.309187217396647   0.334802552482063   0.549911601664636
0.302190219527015   0.432375833182472   0.567771142919050
0.297071895578415   0.214498711333924   0.876023695736097
0.282668091504995   0.110887200658234   0.789103479200195
0.273464721750218   0.433154302672314   0.635286529806578
0.312631610598089   0.255618230478618   0.824819545459552
0.161375534237747   0.211869933253225   0.714295066228513
0.238810512240136   0.338685292958746   0.029924577463699
0.419282144212521   0.454320574924265   0.953527829826305
0.122883577784778   0.300199564397895   0.036452179973844
0.252684177049549   0.237212886332849   0.130642949566511
0.512968812174929   0.163425479175816   0.005200668736961
0.091568547375233   0.435470555936798   0.211234471988062
0.247650777412165   0.461760099460123   0.300809289158084
0.121246489457699   0.497453307497678   0.517588136156732
0.240349041835879   0.350707888815710   0.443185255170019
0.111141777997878   0.478497577378460   0.457144478721174
0.315858704128262   0.362640740769731   0.492147636436145
0.084512049519008   0.305804114207792   0.257322454662230
0.195870715646953   0.309319978692901   0.460344115634646
0.306193220420033   0.468917885928864   0.545950746338189
0.171938309452789   0.339280113633828   0.701977522424071
0.087929081921904   0.315267776001238   0.554039938902509
0.106434468517628   0.346826412504210   0.836346046995286
0.249113957446642   0.390841653380180   0.599093455112655
0.162483768572169   0.548265554210574   0.907580311973658
0.337947992723568   0.295525555758995   0.901433920082319
0.021864093777926   0.419549956169981   0.870337419707223
0.190268214060573   0.342820483813575   0.059585720581331
0.218658742120397   0.351304638439418   0.870031833471686
0.095478605567875   0.338710675684969   0.169980800347480
0.216972613171196   0.525883408749575   0.990907406233244
0.150962246581834   0.274130657479084   0.030533843843615
0.144269393453361   0.475004007542340   0.229360339407879
0.135374037814065   0.523000596526017   0.295740971505317
0.113830524835230   0.469680253092925   0.258891191048811
0.277924567423227   0.380438573874249   0.105559255620122
0.396018522817103   0.457919020878774   0.454114384429168
0.292276496987684   0.214569625889668   0.573593948207035
0.253589511041473   0.378574820246711   0.502871973119179
0.363159097071003   0.325039744193140   0.729802730928732
0.027481540836338   0.314457202578808   0.731649476262826
0.124940884318757   0.250964848331409   0.786114853744471
0.206764043583011   0.286082498882087   0.761590934223128
0.290545339059279   0.456843108062409   0.795241987891220
0.219233602816736   0.307816532142563   0.818803658203709
0.992051161599170   0.418022275211014   0.848168576747129
0.422529368355456   0.429703371877818   0.919923258951405
0.162673715038202   0.446282879341487   0.047510982759192
0.115582839611491   0.456000292875038   0.983107797244083
0.377926987894964   0.535813556231863   0.782515218574390
0.131035923544784   0.482157740302611   0.134500296346501
0.232640428932712   0.406705168579670   0.045044608692562
0.947083029425601   0.305101790631848   0.343731873681701
0.091520762395059   0.471138087035035   0.195039730596953
0.959795625551182   0.530787371371953   0.229736754478789
0.406215196648357   0.286041767534099   0.364760240953122
0.261766933406716   0.175431134294523   0.401134999394535
0.105393110111356   0.395042989878771   0.608461009805768
0.193707839442062   0.532198618870001   0.501103587268723
0.129797791497134   0.283944887404874   0.490408439165205
0.091800750760989   0.690557071954358   0.575608949859513
0.364947010818594   0.418306384802471   0.543691643737469
0.325232310348049   0.415808771122270   0.752172751690771
0.279629494752617   0.554619764307737   0.895942025449925
0.144597534950914   0.358832552210426   0.835645691718931
0.279725888699015   0.425809468791925   0.919699345086217
0.069211257802630   0.378820961244711   0.057048280632046
0.441746213034597   0.311984945572858   0.941695361414326
0.293760570031107   0.387487489501237   0.043243152252391
0.263039195454960   0.658474821775058   0.040305153585868
0.118633783805259   0.605731212570644   0.103759894541420
0.832572577994661   0.615468353082693   0.126957121852048
0.179526040564060   0.556235995041349   0.194196931167398
0.048836078229085   0.617579938701952   0.246591399801959
0.270540582706512   0.297958684377913   0.197291821795835
0.243378872374414   0.504505638495091   0.245718328410680
0.117843239445127   0.418532690496139   0.428788111047325
0.034822612873173   0.516626665473080   0.215987694475391
0.206775211964073   0.482681855327160   0.482100806086564
0.176662630222151   0.507321560140266   0.472881567388964
0.091279135617854   0.357343396200168   0.606972242619252
0.277092619551917   0.516051389566463   0.782964792001804
0.136202421520908   0.519757537161101   0.578864701088638
0.259836178641020   0.482002393000852   0.793828913078279
0.101492345279816   0.810308654349900   0.768139421832632
0.133578946611881   0.508531528032346   0.949558025505563
0.246756550529972   0.629062559695095   0.059391221579998
0.378334563463468   0.570320052864547   0.061453711967180
0.159445029166944   0.537903736970463   0.023031170334253
0.230561617514879   0.609236014068386   0.024117567216273
0.248259049346877   0.608078805265200   0.124508061162383
0.140586518805802   0.533306682412766   0.258333704143164
0.396609255049800   0.436188298390544   0.149478265900447
0.984712615590903   0.586563817693704   0.168669726481282
0.169925692221484   0.564332264805647   0.445439682452804
0.311336941936723   0.435152495681734   0.311346308611154
0.221923619141611   0.725964863392711   0.349250880432923
0.157271602820363   0.491955389194691   0.598465516074680
0.137761504018536   0.660536580215438   0.398351597032692
0.183695453038379   0.621215570570653   0.469233611849860
0.422913141664831   0.623720589305635   0.455136801120936
0.079531415032271   0.678920559485605   0.628960499127138
0.154930944940025   0.553323753083200   0.592505115733600
0.280439498115985   0.560330216843901   0.637377255333931
0.095112798041478   0.534198221946778   0.878896551289378
0.318805170327777   0.419760571547821   0.919200818638674
0.987698015940804   0.458323501600286   0.693678612580410
0.317350117698863   0.494929174116827   0.908826513900305
0.113340744899555   0.513976902402087   0.092285804606040
0.192495265344409   0.503683148135077   0.114407721129635
0.399402020452929   0.625660159481945   0.163613251217211
0.271042210817005   0.507676315430371   0.124952327670798
0.061130557654533   0.556435126760306   0.156981074366628
0.033960522373280   0.798312544310601   0.381723210583980
0.125967071389872   0.354035329386035   0.191261048338188
0.098216531140474   0.661477729416909   0.267340551888589
0.095333196925459   0.529961060526470   0.506931440640026
0.026866140664711   0.651427424054684   0.501446022149881
0.252199072487378   0.634302125340005   0.473551796922128
0.127656989658603   0.728860015234917   0.430760709324956
0.022359859254329   0.602916619008067   0.541246594213333
0.133921346263306   0.653346758113904   0.545331814046893
0.114305704006640   0.698691699396570   0.636109842531981
0.184431244249481   0.772053785455487   0.556869726928536
0.384897381058691   0.422803443332447   0.709949467149960
0.173368904613703   0.604925377109135   0.944677720736468
0.116190992139234   0.598347830625515   0.770959000812365
0.227474786527752   0.790948266545226   0.091776322268883
0.375970875216786   0.833944774799712   0.914289519215531
0.463542827549542   0.906888654219932   0.211014239312285
0.951332148886400   0.446010442340017   0.968376744592085
0.024807482845390   0.539452029052432   0.151072501014276
0.375148547933623   0.424186625156010   0.209993642870634
0.114319965881702   0.604674508763879   0.304003468471338
0.092018163927528   0.718671969626745   0.206591846364702
0.086914981510280   0.731402562021136   0.284578606621302
0.315075451620816   0.559295070825662   0.494492989596141
0.438817428510936   0.513350376435283   0.471663317615810
0.487465394182218   0.773835660385327   0.288081128533839
0.228176370679350   0.870073383372179   0.482215347438308
0.320731630438194   0.566294176491325   0.441503151380139
0.219491992107425   0.705926945529531   0.630301987235932
0.191921133113474   0.616901509718265   0.598607300800669
0.199371608184146   0.559670725567254   0.812246615366159
0.169474659442537   0.515725563363137   0.726271923473943
0.284227752973344   0.555903947846117   0.976692599510014
0.212083058304356   0.526708681427237   0.948798237776627
0.179554028624829   0.621640401141336   0.880202673938756
0.283687174259001   0.640350524053654   0.011283951448991
0.065367194890788   0.742931785800091   0.213326287460393
0.091674587535924   0.535689172651424   0.153117997762686
0.199607924862137   0.699339843107470   0.254912941754573
0.154080186995283   0.608291858451625   0.003798254252686
0.154129742344921   0.761175632181959   0.165634734262154
0.138608315005867   0.829409184820953   0.274810434146014
0.258458927453476   0.831960208551773   0.377252530343739
0.204172887622914   0.677691779080204   0.459545452676457
0.267864763815772   0.595574658973515   0.461712797240625
0.082318542149474   0.593266847590389   0.525810699974845
0.240836076970635   0.691857252118987   0.345844791874872
0.249996282766301   0.546065422483991   0.577913075693194
0.140971054122004   0.616405117949666   0.553559520452223
0.010627253337553   0.835297011154631   0.664468927192951
0.077041849695062   0.622959369254274   0.584325724447076
0.429203118926916   0.695092190212302   0.871021916704159
0.027949059138149   0.832448101536632   0.735670023927579
0.011946805112402   0.831866330503486   0.980093899870471
0.130346418743500   0.684999039049719   0.908671162614469
0.155786874966362   0.650710223637514   0.785224818640655
0.161097895483351   0.616070081321574   0.039498328378350
0.014196145385589   0.646678740645097   0.169121930529753
0.197520709216705   0.873982518711174   0.178175228517027
0.880768464031853   0.659040250576870   0.118038205260251
0.117452370099580   0.795653216127952   0.446371202143552
0.299922432248204   0.804399659787147   0.229905327910259
0.370301415407785   0.818239289070510   0.432419200265412
0.116400730818116   0.821802881333691   0.552409912011671
0.183842752586576   0.789017098170416   0.384938501018420
0.172537950342438   0.814362137525292   0.465888242047473
0.117854012801240   0.547944933633478   0.696837345055890
0.374873265623471   0.823075489840076   0.624994199326016
0.040437308153304   0.825370699607425   0.774583306750527
0.373127845508121   0.905282074672657   0.710995583319727
0.087089583599635   0.786582770623037   0.797744718920682
0.154928038497908   0.738700549995635   0.866601950931737
0.170829544422996   0.696076483687302   0.993318983001070
0.958187028052058   0.683606255433893   0.941732168058215
0.161114910997466   0.780114670665206   0.915569296277713
0.035300638559604   0.835610136029481   0.901062270370560
0.294655557560924   0.705972003209065   0.926610336530060
0.054989309231275   0.631596408500380   0.076994854148904
0.257808876186587   0.919815742961698   0.162447974555083
0.259015227420537   0.620373977388773   0.264378340272877
0.262136025627705   0.854978851932250   0.247519106260347
0.131001796034671   0.888045598709625   0.349777642545659
0.052873739734325   0.901936173396049   0.395996074203027
0.021416435826551   0.761961144553613   0.430183432252633
0.295312629035696   0.834069952357251   0.363417540044281
0.225108235884954   0.793143687301733   0.602727279693621
0.943532433300522   0.800917322052737   0.471182250763767
0.300834196084366   0.693784581999066   0.684334332097748
0.087129413220909   0.001097218336890   0.519113825491903
0.197297835125058   0.786357036849990   0.706196155513157
0.180883623535995   0.907452829629088   0.796958218089385
0.332726774943652   0.745894962882320   0.740203410130488
0.135706539447069   0.858584594649115   0.779812336160339
0.065757964888691   0.711801609092123   0.912950317576093
0.130621969461852   0.654095079175293   0.075990141450222
0.261315300272649   0.967384254739682   0.966366287002125
0.206352388356181   0.880801152796367   0.141518096360482
0.163490431831193   0.777998857374585   0.233250060336344
0.191790681708999   0.008523820584551   0.209459519429119
0.111175713827921   0.700741221631133   0.268252081379407
0.308019459308968   0.916329224346343   0.125716658412209
0.289650237146706   0.743728739796180   0.229061770086907
0.195683367217006   0.836766705156365   0.252201004816872
0.373363779613044   0.790544112585924   0.459947385637906
0.981577515862871   0.894510606330494   0.372806318738238
0.117684775585190   0.906576598288305   0.456988836048314
0.206400952104393   0.939593864634405   0.443901059208893
0.079031393596649   0.894217168302348   0.774016236099390
0.044222987380704   0.728346090979459   0.694752444643921
0.173059031566167   0.971181414755651   0.778542229997244
0.087135959041985   0.800760687054468   0.730754196192568
0.169947141115515   0.944663705430432   0.718087421101502
0.074898906661144   0.824855749543199   0.961149834486320
0.174703390013650   0.646318926659163   0.851652400013035
0.259662085363046   0.757907724949089   0.033573887296190
0.236506517026044   0.957206977996071   0.849051474181397
0.281788274656443   0.827828809360203   0.072722383238109
0.430450002189899   0.924629399417449   0.076044091889078
0.293986818031325   0.761319146060376   0.194313913082356
0.249987728051517   0.889362152610900   0.266157433940210
0.237550253011084   0.853610840776770   0.356809441474829
0.332018351243004   0.930277638211163   0.292094664534244
0.238630684420168   0.020973440413679   0.391142960306009
0.171049841972066   0.912009481835012   0.402639664237094
0.162928659092849   0.874802774481319   0.528936508341655
0.978481262928644   0.877514573493689   0.450406621046992
0.288943722717917   0.861032623285768   0.335925342281876
0.080069049492363   0.967011143229658   0.538741033317091
0.132387643302178   0.730353034563220   0.745758228609542
0.247405711527981   0.884226743723674   0.755659893093605
0.098850725382933   0.915970899593876   0.752123016388359
0.332668952234429   0.057945331677379   0.848876550087856
0.295878579961214   0.872320323799468   0.992964685255370
0.218508863201646   0.810827242085657   0.015644159176646
0.099054840665513   0.885995947571763   0.005168953438175
0.921374253711344   0.924694600177768   0.148611037212777
0.123777857286191   0.871892158374266   0.137041089084145
0.205650408056334   0.867456940917349   0.021729690372714
0.214378026567879   0.088153978735569   0.183682883249788
0.402933964940160   0.079404506158596   0.057292329078121
0.153264885210515   0.912253627321227   0.299619755444948
0.053499993279749   0.896601757161122   0.166767496332512
0.246018357707641   0.952891965942413   0.326121675716864
0.290664744515677   0.802120292003791   0.341495633149424
0.303133624221399   0.120861133489125   0.427585281160500
0.138329064430301   0.009358509385336   0.403629159445301
0.268535630775535   0.960593781028335   0.536855738267177
0.225099223039796   0.099458946151108   0.423678972960033
0.415197479306799   0.783611919177751   0.863344824145848
0.247981383949562   0.883313353446177   0.550639667584517
0.285820032630481   0.826195324826627   0.777066950617325
0.119519828231896   0.092786226666968   0.758288513818120
0.203998171907870   0.891216984502243   0.824728787589273
0.137840236442056   0.980950656039787   0.964766611613794
0.229080654834051   0.969591422911302   0.813755178494588
0.338920401974539   0.914954649051105   0.022631233872694
0.167690055241606   0.778491905548214   0.015431563098506
0.174394065612810   0.037888343741804   0.357187352069954
0.229039852096730   0.031882643061622   0.162110484065463
0.281934853882354   0.019505864016464   0.344254850388227
0.391214776981866   0.934310423249185   0.357214230554140
0.400743865229756   0.189138770919751   0.137222342576379
0.140288984385774   0.087585423912265   0.507390159944860
0.137545549697030   0.764984701405289   0.444148257784964
0.158905134068873   0.094925708381941   0.379475897344768
0.132744438695476   0.923060609581736   0.767682303843879
0.253667073697662   0.128179213749032   0.657017974591691
0.485730738845438   0.106064923883491   0.757608894272461
0.195369187096257   0.860445355274790   0.626958911778224
0.240686261481436   0.117888517601571   0.719676194414941
0.181487100874835   0.888124531573192   0.646570560586343
0.290510937149126   0.149571204135580   0.012838764654759
0.433775939350272   0.854033369303186   0.798594810376155
0.395342874233312   0.865728871864818   0.799565071415631
0.238475892101543   0.948588326257917   0.782990827826216
0.891458391675307   0.047549039588847   0.014661243828719
0.508232508505761   0.027156980260074   0.188978424241814
0.188507455303540   0.952777564076825   0.045890129046901
0.258547207550191   0.890055745957855   0.074206989365411
0.192073745313309   0.937058055349380   0.260040114598600
0.234633427349912   0.903266109630194   0.234118834687798
0.204670703019257   0.001293208118578   0.404053487205909
0.404868351408173   0.014604810724691   0.559605654206239
0.429194707193781   0.988574418790978   0.396039931887889
0.354827580788825   0.968043893729565   0.458605472261563
0.181992640944694   0.054019061596635   0.426034123024315
0.319343120445372   0.273149666358207   0.630532752633859
0.075169360521010   0.286874515108839   0.763806903668884
0.173643354533085   0.087831818698149   0.659595725966995
0.463899070524241   0.974977112332318   0.738207306632875
0.326533506037005   0.208254036288251   0.627403886015845
0.247935868738697   0.079821372946962   0.736033415048533
0.448118302678898   0.011390350636430   0.824907003568660
0.195277663670713   0.250012962568932   0.819512902096867
0.142236507664913   0.072310662980985   0.844046361261880
0.508238657825517   0.140442635498907   0.758971401623650
0.271018842485774   0.084679475599847   0.052809611141124
0.220985294388707   0.828849713916330   0.081574056630000
0.356117266943183   0.162552335625199   0.191362498799714
0.268339449309914   0.190682973696808   0.210232646908542
0.290907839235660   0.054077835048084   0.180626844487139
0.975168007290112   0.211285864939864   0.155346346431793
0.985020746979935   0.073436938622951   0.512228919749532
0.237213077173181   0.075374454858172   0.215734905468621
0.107140785732711   0.917714157339751   0.361061242807659
0.093979229474054   0.056366336483183   0.428407480839971
0.482969053163397   0.152461548668038   0.692962480402995
0.149344030902757   0.028148651202887   0.629754856907666
0.225342305113569   0.037927676320287   0.856290472911019
0.274771255473583   0.082898577433713   0.818828297470491
0.147925760138628   0.085744923418912   0.878313147214214
0.276238849304354   0.046234938046474   0.802600318795288
0.292926978520477   0.027466056057344   0.992221656218010
0.525156322014743   0.040505371262843   0.883521847785122
0.273398667525068   0.053509263245397   0.931421464444455
0.358007752806267   0.208215448740308   0.999060331177589
0.216852659656946   0.218014083416291   0.980152471287520
0.266895460397771   0.284971999169856   0.336065793452833
0.133899097979091   0.107531471190446   0.028726913790066
0.452870674434572   0.299377228412952   0.199879092076453
0.539963634270815   0.994958865180862   0.141462652234985
0.284441208633750   0.067317943939680   0.395232514193421
0.113173702718264   0.021619274057615   0.336805743238122
0.128441443709091   0.956019554776289   0.501698662575519
0.400182181798497   0.919023894934464   0.285067220659793
0.106635959645214   0.097896541143684   0.419876028400043
0.319735243243783   0.036469828157840   0.710182721150583
0.214886541255999   0.191172156773859   0.796432025625155
0.156736919176860   0.171303603554662   0.722557080174602
0.277312477592589   0.152295132801254   0.681128292545060
0.197939331020604   0.258267140207227   0.670959478661622
0.069006330840026   0.046431775675131   0.928078651497580
0.032923697092708   0.983438851767031   0.906925381571838
0.302789765459567   0.115136560358431   0.869204664462147
0.177106714400644   0.218046990422434   0.874864534526333
0.308862872576444   0.098367491705384   0.904073364128477
0.271828446826713   0.277043120800017   0.909737129853424
0.302761330750924   0.294310080818775   0.135064093487551
0.274063335100125   0.104809480336137   0.087828384575504
0.319213794387998   0.070983734575012   0.304612498854015
0.107595116116233   0.163174401117644   0.008174401480611
0.206416018563861   0.184580541831597   0.557682276709788
0.217222380121090   0.262638830392084   0.266050384647639
0.428420438148019   0.193942914818929   0.343614003692596
0.126610451288211   0.081959508845862   0.392200304064102
0.180778667555276   0.146431730485281   0.501256896220278
0.251871197588505   0.272592955823671   0.495982329056272
0.100933807114017   0.192031456263787   0.753748753852187
0.311268426527143   0.312748398224682   0.424374694920186
0.100951236747725   0.315331505477504   0.812026135142667
0.226372163506134   0.111053009973750   0.680561489654973
0.005864629362471   0.088096331046595   0.879835888552731
0.304038434290900   0.180225142577131   0.748521651271889
0.288716991562868   0.191098795868455   0.843359548919398
0.382759430668380   0.123824409907118   0.933894032979210
0.146988207513476   0.321962805198412   0.128590357937819
0.379586150997012   0.414161704978260   0.000378435582664
0.127131628640223   0.490372892057268   0.196091452423047
0.297888691428472   0.257346045250501   0.077514225794160
0.288369868341430   0.120378715973054   0.956666083831706
0.257334121466774   0.171842920453195   0.149649868181907
0.395520108970390   0.358889925369192   0.153555683912052
0.194130136765137   0.240654209655984   0.426271821333341
0.466397918779962   0.154025515470712   0.401885281606209
0.156791275958238   0.131242255642080   0.243749537065149
0.284827742039361   0.377505288009752   0.601596768916166
0.260872535675264   0.243196026418527   0.434713838957589
0.200374203058527   0.174596306369677   0.592504837472117
0.352981856843319   0.327168185312931   0.796034410966909
0.182129330320302   0.290082283166212   0.873919479777038
0.163640392923598   0.387450467699535   0.815160958131481
0.344694165598453   0.021924227316649   0.766247527260377
0.989060701715243   0.225795030653214   0.828848960740242
0.139867546030848   0.198994614073177   0.119809878008847
0.065687370266744   0.232587068826310   0.933810554534330
0.248948403437627   0.283418939852133   0.828062932428444
0.258792142938289   0.210499305761190   0.925955925899690
0.275587154420021   0.149755238552494   0.932313218994226
0.173968880820498   0.242475340389728   0.938497378319103
0.267716226266982   0.382805047773699   0.143779912535682
0.204884911676061   0.298252159170507   0.146976434233098
0.885443930332108   0.174803004688833   0.116167464598449
0.296740543748489   0.229588602787772   0.422090443781669
0.130105257764787   0.224471687120235   0.459446467716674
0.231612620086650   0.332655718523381   0.604513873295451
0.221570782406216   0.146465939813297   0.740344436200170
0.136745657979511   0.303307444448592   0.308694796942005
0.110054126815345   0.367981161834297   0.742575518394579
0.118132595847904   0.092204679856146   0.821265054277414
0.213498864455306   0.284443509785223   0.567551250719823
0.345266957847297   0.279962910244281   0.937873896715071
0.320185012032432   0.312309692406571   0.688869232988163
0.342190481601395   0.161752549727948   0.892834742472597
0.407551285478365   0.304952905212162   0.830696672114201
0.395056175824697   0.333860384461955   0.897358473527070
0.120245135510269   0.349448507378048   0.117633813884852
0.239953110914163   0.548992452654385   0.061590197912005
0.123976961514171   0.342190632764070   0.413870780708261
0.371916847336471   0.427372318245407   0.091438639621333
0.479700768979183   0.138514772649961   0.271614199372938
0.366838750224520   0.242859088035130   0.249458898296672
0.164319976719557   0.269543980469819   0.307329735360412
0.137483035318758   0.310146643812836   0.433891862412325
0.105029169249009   0.414747547611775   0.393426749425460
0.182815443746876   0.367702012045418   0.535666430313357
0.222609897338581   0.410404601800892   0.417024627857139
0.397289980847332   0.195561694212039   0.593300972450984
0.211604075040351   0.255631040658697   0.633667683252115
0.093283576334583   0.500124675787052   0.650989300433175
0.306812279648733   0.383532584158493   0.664853663069733
0.281592441516607   0.310011085798097   0.783556331287681
0.429515614290999   0.474983799312158   0.013671640728560
0.382469622539379   0.233769755802923   0.744931085851086
0.321117804067231   0.243534366022547   0.792058553146358
0.175274591510772   0.264490341293869   0.061442704625443
0.241841909392026   0.265250020864603   0.965057158603710
0.360178797634285   0.390694206926699   0.226056026037255
0.334084930049334   0.380753003806167   0.150896016031323
0.153230930972356   0.452202754547349   0.367806450785164
0.292009414847402   0.199628503296271   0.398985211554875
0.320336145687108   0.471595422354879   0.441220876106569
0.339687589848035   0.334285177301249   0.195064860496481
0.260642334925031   0.533441463828585   0.379552046487192
0.389130156936967   0.388200155951764   0.255738797947436
0.190485676336370   0.348199786817449   0.381040477659842
0.024595187088656   0.368358852810363   0.675837916978694
0.320849621216725   0.243197451582314   0.578843836727634
0.342990892547248   0.342822864512389   0.699078142776228
0.189151393914557   0.326042121031246   0.666041653219171
0.171875251193081   0.335369791738658   0.479766538759044
0.238942301287388   0.485282325404428   0.671895983433087
0.276941229673818   0.429439405618631   0.850002648058208
0.162319425745442   0.404360145884642   0.888042659719133
0.323233671613846   0.511031455676846   0.844187077568779
0.225294533472549   0.525075241206925   0.881677748560224
0.275061297883430   0.264286046658516   0.110355607849773
0.326695473609928   0.505516455617535   0.947148344065951
0.208223887870583   0.288035173187672   0.185888405551925
0.424717565795824   0.283091297592657   0.264882796840138
0.120809388150354   0.581580909892622   0.192991437845661
0.245347098076651   0.423559197182393   0.355688286583461
0.345813520391431   0.513897536885740   0.304978194820083
0.249614818797698   0.569269546180468   0.297782066734591
0.213100881132043   0.407798098708225   0.375034363682310
0.283930362848937   0.554348549942029   0.353120668126309
0.295704322150922   0.499963968800282   0.570500153036304
0.210629039005024   0.515702359033064   0.532507206942620
0.215308305978116   0.560516842553649   0.673916765574107
0.228215398979801   0.578496452821556   0.527907956771721
0.257622752098325   0.674966346654482   0.768188881498669
0.298574362007270   0.396503930332476   0.729679749853708
0.328404511658117   0.516800244014378   0.742000630170837
0.288572980190653   0.724159025099114   0.988014817740649
0.304451571567216   0.392339530502317   0.818725842117496
0.388114005564150   0.502753599461987   0.910371224770432
0.052537607613020   0.472403433988920   0.054181519005241
0.094967762461610   0.512711727644523   0.004460677107445
0.219264938835522   0.399451919030189   0.917579840496248
0.272329259681044   0.419097504816052   0.254521054032658
0.232868170824038   0.398115785097908   0.306402764982399
0.184686506686127   0.363187035745124   0.416277960419635
0.150019813271578   0.342583815395106   0.292286856590377
0.169893712320022   0.533233250968331   0.315886443967578
0.088600087837860   0.801545559212408   0.421398315594819
0.325250571505448   0.419473360803607   0.404220189460162
0.251208762035139   0.669368124836133   0.313943729923172
0.270229335338438   0.526338238795262   0.461760629339498
0.422205542523121   0.637225066339492   0.786435148461978
0.142436501170994   0.485683757782916   0.849856020007352
0.301112820332735   0.596729603328939   0.714055349211182
0.484520632394387   0.677472402818388   0.989255604068812
0.140987333470285   0.494337863643882   0.738213782775124
0.340340718518525   0.831304986636904   0.809093655503896
0.045018263869868   0.587335214058111   0.794287235991755
0.277268119797812   0.953620097276074   0.853239787269276
0.249997894791707   0.513141958281750   0.941432010546704
0.225808867572815   0.423430929457854   0.079183322697289
0.035829848171556   0.573245405901241   0.295959543275053
0.225986827184088   0.632315757895542   0.098226667053356
0.301136290376294   0.680594449282381   0.268377220293478
0.238388340337099   0.318574464619355   0.132430151930963
0.023235538724607   0.524464529912602   0.254087621083808
0.193849128494322   0.470915423936320   0.411866773009467
0.065098247224825   0.372283440932818   0.298953201063445
0.407459988408056   0.510139910803370   0.389957755396508
0.305565121938659   0.683387075692760   0.462613453532743
0.326873918895406   0.619984551396650   0.697161052414226
0.160177898706142   0.560044005042405   0.654590584171287
0.134260031885762   0.283302927646120   0.580231710500611
0.344667767738255   0.633947885263314   0.751746998496340
0.214031024706837   0.598488641905899   0.621525011039048
0.652637150509364   0.565716276656187   0.043337669802819
0.356963226021888   0.582299609815219   0.997655304946787
0.093098564108991   0.455183876629649   0.836804086397062
0.386921217531542   0.540798652650794   0.082526276874992
0.371693745305669   0.813934856256096   0.157700957823846
0.259633448727989   0.414715883937126   0.431807631402980
0.298418044591416   0.625752252331669   0.952148408902149
0.270744220181421   0.437646148266046   0.380873510269648
0.279533203359545   0.546015320750909   0.127782009904959
0.253629198496059   0.482379874616667   0.215285120982498
0.077488982421334   0.510919884324771   0.402463438089822
0.211621888225238   0.633792302019331   0.416030029438340
0.156366943716604   0.667362739928023   0.604482080608472
0.329023222394717   0.740058434043380   0.253649770077640
0.951963477042661   0.604016111736390   0.553097506636435
0.179135746962487   0.543869587071878   0.625588502850964
0.123597751579557   0.577014575192642   0.601379312817470
0.276915835364896   0.458985929108272   0.727909796813579
0.201537358962333   0.557824907879603   0.770200018991686
0.184075674864527   0.475181823052407   0.575928688054055
0.189336089527805   0.587936902935055   0.865389353016817
0.367477341346491   0.412329962520816   0.746175605083293
0.481352313524017   0.405373460293726   0.946669547932612
0.464842495184339   0.498518480376663   0.065931008792965
0.243729025054658   0.744114639291291   0.952793020003125
0.166746667408403   0.923742271935291   0.978554670226536
0.437629116231842   0.607031637386104   0.051035605458756
0.144967415885593   0.634124769944895   0.105770946980927
0.360010064137517   0.831803981923218   0.127837194669753
0.217205183910772   0.514528151220906   0.180530264651607
0.306377579499811   0.514189975422973   0.230255582989131
0.377527152464949   0.759743041462475   0.303790960701843
0.347804200103534   0.418108255126301   0.473098774102369
0.137666963794245   0.659993475568933   0.435103819800813
0.384429571929927   0.614329772614004   0.447267298622501
0.325967573235461   0.652785232703092   0.587858713366886
0.383310668697172   0.572973326328864   0.259269649766555
0.199062640088367   0.354197252998725   0.730359540031409
0.082317564937025   0.511969227252306   0.330975175504806
0.062487891638023   0.659361198009282   0.747547502446977
0.323228754072209   0.801093058576512   0.823251542003216
0.205753071050844   0.472007830246454   0.832994857327731
0.295795667309332   0.739675402942331   0.757245440148907
0.111693730991553   0.758170090298629   0.802950337614411
0.204445784058712   0.834303491030878   0.041918563803491
0.342373546683783   0.614860416939826   0.089359772758348
0.370201106714344   0.528127502039522   0.891306614411787
0.182291968972025   0.699085410254920   0.094836431787018
0.219674160045066   0.779723072924460   0.387123843325296
0.160803141982643   0.633349316197909   0.270691410792494
0.143820062733186   0.702392634334485   0.292518223138112
0.288496595861954   0.799134998600566   0.503150045594314
0.150790056447335   0.660998838381407   0.299328995821256
0.175638214409964   0.677748478065648   0.355563557186290
0.142367139296583   0.590267660615597   0.434462721094782
0.390173668743535   0.878832576985630   0.505704491257868
0.171211160718975   0.773339793720473   0.459415494063494
0.325566939337774   0.862746683155844   0.577391939187607
0.225186383630969   0.815113605887052   0.754133434601694
0.241125491744415   0.892116613915389   0.817176723690483
0.018848004951715   0.888564363044652   0.953406111428388
0.265745535666319   0.577330121859140   0.769026356683510
0.117423554094912   0.744725123726608   0.867875871377235
0.158117789370379   0.663117027947669   0.970116923653540
0.318884767095918   0.543223545198515   0.960759919270804
0.204629641861330   0.774968126586880   0.005005208447209
0.276150026119449   0.706082010171856   0.088247953014711
0.204378424542712   0.740333006739218   0.202440025957756
0.233360660241656   0.666718355921438   0.116539876116645
0.051047947711482   0.714592459686202   0.285436859538572
0.107678398443982   0.087013735757601   0.258160242234962
0.438413485843398   0.788938265683476   0.450501306079331
0.341891410857355   0.758783831334917   0.359092923456605
0.327915221045103   0.881072269209158   0.493507849442653
0.461789862445167   0.924775613750103   0.511678242899913
0.286853928978081   0.640817931181980   0.422516317731083
0.345757592386647   0.742953142439759   0.606610158802246
0.504903320657042   0.838437752248628   0.745177024375158
0.309393963290078   0.859033832533631   0.648387734075105
0.205489802703628   0.670623951661891   0.853758159535791
0.217944545275545   0.629982969866576   0.675596317758691
0.292235860313205   0.515861690093408   0.748985145648774
0.064615161913044   0.642393015093278   0.942585157633284
0.348516121489715   0.920201000783461   0.116140378205682
0.277814116674065   0.758560436776974   0.971481798852442
0.315739996052440   0.631717400343859   0.189166108724434
0.371385764858391   0.700794489442065   0.145375145978209
0.328899826002802   0.678909006222897   0.073643896540926
0.391287126403042   0.846178915884963   0.974624736051103
0.391264717094709   0.633752113827955   0.244686000097392
0.158876492267865   0.747595940668428   0.338658975214899
0.223499536109040   0.739738929664080   0.385730034182386
0.455054711180382   0.903745069701681   0.548392532852672
0.237576945767470   0.731659866597951   0.559831652407440
0.239334429203324   0.735666146728044   0.636322321425285
0.507682809459214   0.746312259063333   0.521651693596357
0.160636601563425   0.967412444700508   0.684407422988968
0.218974129728235   0.907698004913023   0.542908965063900
0.199201897962333   0.939555302350346   0.776550140290266
0.373954206224617   0.891500172883495   0.776799018935667
0.425390849097187   0.701957101969401   0.710095349670050
0.142740635007977   0.756474192256232   0.778276429903550
0.466777171049688   0.910836558746794   0.938137890734234
0.121368372441296   0.783052003138123   0.924317952805938
0.299600733480711   0.669202486936340   0.839650929751906
0.325932063313988   0.759067422343216   0.028866494212590
0.253311039137264   0.818164632573913   0.005654076423852
0.306932622540374   0.791257768968535   0.113829754178843
0.336117526256534   0.955168134653270   0.978774599177279
0.297134019449169   0.848815206364758   0.261428669849699
0.123715933656173   0.913288494404596   0.276568314312935
0.402339031019219   0.915910747286168   0.217418596136487
0.213657279707831   0.878285248217851   0.370660636568005
0.328828921594929   0.763432985377010   0.122586886656843
0.068355265275512   0.879266183710897   0.446206673478996
0.157286052535386   0.701669554205529   0.695722663681663
0.201172087226701   0.838343588246550   0.566532047160651
0.432777721229301   0.267412147283548   0.449486804089177
0.225063122227677   0.729946250740176   0.835550828179226
0.383526481146700   0.811371338012631   0.700095437881644
0.310345293373317   0.801861718890863   0.860247566457229
0.174845901981309   0.746518305103634   0.799411056309935
0.238195819223378   0.710372992750062   0.890827272255916
0.360726734839026   0.966383950241195   0.852938747721366
0.248192133400708   0.026205020397893   0.041513684682964
0.296475639251188   0.897758974734217   0.064177602598170
0.098703744125297   0.835272225604679   0.895001462260982
0.259687884424190   0.975718887775547   0.300382798308212
0.221317117605210   0.972625378493042   0.174113149800924
0.249017014692837   0.044266389236913   0.467898048610567
0.231672462294441   0.825168059513497   0.435290604133787
0.312089336814730   0.787194206043241   0.434919844333752
0.264600077217334   0.040892706157074   0.275986220166828
0.192545661143498   0.097515689733464   0.551119416632179
0.389049383275618   0.110540684305336   0.670582379224970
0.264088044060369   0.866645778480073   0.698553346869630
0.430746285010696   0.889213038859051   0.646743405594087
0.201467869665400   0.737330904399714   0.562326723370796
0.159749986412659   0.794743369446246   0.762267238256967
0.200923475985116   0.022124562576921   0.833053591501498
0.336162055205661   0.056078078504423   0.945254110522175
0.175944273858977   0.721166477381108   0.923724226804823
0.170668144623852   0.950263215142331   0.871633359561390
0.311698016299726   0.997074130432326   0.931668424135668
0.245171756030724   0.975439851258721   0.909366440931314
0.231174562391162   0.909256621377257   0.971167074614810
0.346759293202522   0.827500099434527   0.054717754346406
0.210611264493945   0.103034222089950   0.320909502127636
0.349582827420658   0.028230311115505   0.257534423759496
0.233259193771611   0.826182128681397   0.258697770967002
0.280559855192252   0.041503832602585   0.098106254909343
0.353473716245252   0.956664566226087   0.169096665437146
0.150125394708137   0.877965091900363   0.386162350147641
0.187317116063512   0.934967885508343   0.372657031452643
0.369091646378334   0.033125238054508   0.464433606519458
0.297320975610599   0.152056515089946   0.449061048269638
0.144065322497454   0.857461160227470   0.595669332060380
0.401999825222406   0.040885418207216   0.612340394895206
0.362051159143741   0.025708848221088   0.658529057824116
0.162996986459626   0.050189294536905   0.972246637289804
0.327128255465769   0.946889692042732   0.706768198119470
0.272775610366079   0.122490377257722   0.994713818561337
0.401922370376666   0.792731372538143   0.073077738639955
0.402574620342763   0.955368209258958   0.954107256862350
0.236354714925171   0.953843987449037   0.102613805321095
0.326138841571650   0.004377985839503   0.042425726857439
0.290959654251863   0.923658582687861   0.091011622699751
0.252946926355066   0.209439746604406   0.243345793566485
0.319391910395989   0.045501967008373   0.886352226460523
0.183084497700549   0.981013328144651   0.138815673602900
0.296840974938589   0.991305322424675   0.232240048331477
0.375621190626063   0.888447250609949   0.540954039015544
0.084969520803195   0.966737406373658   0.348135923422321
0.222387025201498   0.966495184022083   0.418497035368545
0.267491085443248   0.825356916208184   0.572432122512318
0.407507625402313   0.004097442050703   0.772883236719239
0.276949839943277   0.892161949829007   0.729144831529392
0.208678823763003   0.978303694835828   0.561590333232402
0.313673666979473   0.895668393459640   0.746668059655271
0.343643906376759   0.004554717528469   0.799601009148662
0.261190757393538   0.021046181037564   0.863034906481567
0.120567726314046   0.914721388611750   0.838423730984457
0.341852518547094   0.104760184462660   0.028428788637424
0.192892259556822   0.804781560328685   0.780090952032898
0.229026020810692   0.043890467212452   0.981480786602716
0.085067422475744   0.776836439098823   0.234249719176470
0.273882474426288   0.969602321471223   0.026191078175737
0.190358171419341   0.200715891925639   0.246866938522534
0.319525762704616   0.191795427174352   0.373473385015865
0.380622613764829   0.949681440470357   0.264823235757248
0.325127048706596   0.085533636237146   0.222820047649091
0.436757854325215   0.029285772297995   0.088213501880526
0.130721967509909   0.017899056847578   0.471157020847611
0.464799467206382   0.159454357769033   0.485713603549810
0.284833504025075   0.036361626470550   0.476325943152001
0.081938660193807   0.028581150906357   0.551283556780702
0.382359517712437   0.964654341368173   0.612842814378403
0.287602150512738   0.084553241976329   0.433161126757273
0.213851679393799   0.158792291533802   0.527676952488936
0.259215063557308   0.730713570119821   0.716455934650432
0.140136142996106   0.066431468923432   0.913212865160566
0.134798888093080   0.034918744864812   0.836499124937308
0.410052111572761   0.853030411409303   0.916312411943648
0.458988844253484   0.181102797912140   0.821337906283776
0.343706703537805   0.064901705233146   0.029674806806487
0.018443976191922   0.018088809715843   0.042937313481433
0.211568567443609   0.043905473629766   0.053450832964736
0.397952986782947   0.100204327783011   0.246153966975547
0.320772207184424   0.160288970179905   0.991331256224136
0.154610674012822   0.109759796581591   0.170217917720032
0.469506717996092   0.043329477118383   0.187404323183850
0.318354968899794   0.138157294594921   0.514465792932917
0.324463129277470   0.904615384404761   0.459792498996245
0.437142498920397   0.135314185472453   0.393138231644282
0.338906385128929   0.166883710266988   0.577960451023217
0.298370278759030   0.250121835325386   0.521936751484756
0.368102939046576   0.923344315080102   0.597858425647059
0.501261886759655   0.025425563805724   0.619449098997999
0.282056819925890   0.893846105412306   0.534765839648948
0.416605698270063   0.163149212846144   0.870156573369291
0.342982985350388   0.950599338329505   0.672991052622984
0.330159124940860   0.322211116379919   0.826880300125106
0.295736858476501   0.978735209968430   0.829568610562818
0.194922919429194   0.053188238212796   0.997231814595736
0.384705052915609   0.152654012005586   0.012953726837619
0.420443934524871   0.080855278713584   0.187219661250961
0.075356805870121   0.074002869496275   0.181706503766119
0.368716636472486   0.120443323081565   0.332313069840296
0.358009732514724   0.986969833313192   0.141101625286593
0.093594666633119   0.226176267721398   0.280442567315590
0.283041734903022   0.154823524534050   0.614922060307030
0.315108590919535   0.100407122225966   0.515261103627768
0.153440686334800   0.001982247508196   0.443690291886220
0.308993571146482   0.053183146022808   0.449521788907885
0.354624658489608   0.207311934618311   0.455302274824490
0.179473179983705   0.161742235885261   0.357985006986544
0.333624677435885   0.243769163508421   0.680226378826053
0.416031574545958   0.108298877861591   0.399274845007093
0.015162934999818   0.066129412747629   0.601188414939743
0.340144800694190   0.111398108146136   0.709827646372817
0.268000764786003   0.236871283638706   0.895349367867900
0.458599621687993   0.173014320714901   0.783301212759780
0.127249276962870   0.131084104637886   0.808024393753987
0.223833851413082   0.973072752078904   0.071065393597107
0.311774419903218   0.037409343705681   0.028977048549803
0.346947056414176   0.219070560488349   0.911711854468801
0.369664891839869   0.130669963100688   0.294717838158975
0.198218434254631   0.135684280044160   0.298412452373529
0.382297634487701   0.268078738531619   0.336219065652872
0.458006361360606   0.229509644426796   0.138236936970346
0.221895677379287   0.134293864358982   0.238159983940211
0.321988737677642   0.048825081863898   0.236776274901599
0.121369461198775   0.220415926086103   0.342882580259161
0.359005632774699   0.998081427301729   0.484066017309355
0.019471311105504   0.972755890493479   0.349765981814459
0.399400633188209   0.020067690508177   0.648875867718771
0.108536913265181   0.382309081016532   0.554845941663587
0.249900898282676   0.278017796078736   0.563384405767863
0.070256779207327   0.153691983218660   0.799352975788143
0.225421023974655   0.074833330999323   0.863272339654652
0.496393942362929   0.220720907666391   0.854446764827262
0.489185491809168   0.190222467461321   0.700516287373716
0.218004185024313   0.969709098028758   0.962517046031635
0.152161721177401   0.188280609999477   0.859415204983414
0.351098578346168   0.240821310260639   0.943762361212596
0.335827045867989   0.213006538569603   0.109507233477658
0.214685477885903   0.053854938983313   0.089402824534953
0.173082561339346   0.479691359350033   0.344101229048780
0.291099577007063   0.476819966614414   0.227524617691193
0.376017745383250   0.353732759703118   0.270096500867522
0.505005028756830   0.290851478053294   0.384200320556145
0.478586442819681   0.220631143577263   0.474424729445177
0.364068841280237   0.233301096737666   0.347966666937664
0.290703804928687   0.256296674429515   0.320128863163238
0.399974776301849   0.395067546087414   0.791609538867019
0.449227947732900   0.108266005381188   0.650821582261999
0.261086288419224   0.169724835159592   0.442559064454192
0.361740744429980   0.327044773163469   0.632453295013315
0.445888720417785   0.359380368780137   0.708679993637971
0.231843587546094   0.251601092480244   0.837108144819551
0.515304414682472   0.079687268192678   0.760157551572149
0.332713468349848   0.139721584973650   0.863405692532685
0.167783401790791   0.268146520963140   0.967689525357812
0.373562752681486   0.215884363815120   0.882791353640036
0.465976226671221   0.279088909578326   0.945723393262927
0.219328830889561   0.124689429800523   0.169155536116545
0.237940177725545   0.354526921961335   0.147439184916794
0.296789622557713   0.184226691244298   0.157656375084063
0.370250315074831   0.188832029698812   0.107366922541579
0.434943209277681   0.981203145505466   0.267773799767301
0.340571111041816   0.214277090768829   0.229962164655724
0.262947626050841   0.350304014482480   0.249788597727281
0.238443444243867   0.097694583653676   0.513251428320091
0.389072331359356   0.393704723237203   0.435108526620048
0.371697522134996   0.429846860742986   0.441689051051606
0.074788722460525   0.250299345396829   0.480374563725231
0.349191938802286   0.225992654739982   0.601307140714165
0.249667096347542   0.254585083330090   0.627812024733385
0.502468021964738   0.358679979270525   0.620613009028730
0.122996825634053   0.450412872712930   0.696645192376382
0.040116888501440   0.039607757549714   0.862406515924959
0.416210558817671   0.241172171338153   0.936272706639233
0.264783582284008   0.132676599643718   0.863373708212798
0.528852367811330   0.185989320770364   0.895210854026890
0.288601023536045   0.297337085258855   0.026256577122413
0.414858432573559   0.433515500864811   0.010923877546178
0.192087738124533   0.266737517918586   0.124017054075139
0.376790708198917   0.328147777812191   0.074340149297983
0.387720444414614   0.250915457056382   0.124534960122415
0.238416187838375   0.193031027496977   0.086100483933239
0.317545101831090   0.251447750244251   0.396564617539937
0.375668490710408   0.335871158526287   0.301462122098348
0.348569179115230   0.451402326998039   0.354140611966030
0.277652578856894   0.341758637881205   0.374252960811389
0.211913008975463   0.377663453858458   0.438515943482913
0.328320304354804   0.256427728742227   0.310637203848737
0.340375248055046   0.377423132718588   0.586792819630964
0.308212678975302   0.277477567338371   0.594821810585962
0.070658642204347   0.113113386457234   0.873595360276694
0.311000253301825   0.298972717981121   0.762280174790815
0.291336295252473   0.185242764433733   0.933689579042070
0.237982733578084   0.235218209824174   0.869694415172545
0.241547371588074   0.333876248728588   0.896069994230775
0.374528591351280   0.301157844092446   0.953540506474429
0.430536599315579   0.189697726558525   0.230657376294817
0.263877507004747   0.361690330681238   0.916701190487258
0.377584341067923   0.308664420498362   0.991230900957805
0.186515275043942   0.377742964031082   0.183260486256356
0.258218085108552   0.508833832880906   0.185182676678820
0.394976317507391   0.229766064809409   0.275141909199897
0.409565770634664   0.338015333978286   0.319689021012402
0.357885991232344   0.469673852812321   0.387596677837618
0.144643380680296   0.398586649230443   0.446385645489581
0.262944929003996   0.350855233300403   0.738768932809336
0.076884867023877   0.387578775866386   0.385462903158769
0.284093839021178   0.350233387928565   0.657060687729321
0.507556772841015   0.496523150475698   0.853868915481324
0.253775564385776   0.362429069286265   0.354277201602634
0.362397189627787   0.361370549195729   0.441214318585961
0.267298234471343   0.500383337301802   0.724922612542328
0.084687500838928   0.442631598011348   0.803735615145227
0.166617199073020   0.442319589456642   0.881582617259469
0.237940951459319   0.281713255810480   0.997580946128244
0.386956567279375   0.239108371099962   0.958944221092924
0.501137246495809   0.475912567537061   0.934984303471081
0.444912798576734   0.579818832863454   0.159817498666511
0.188045128481419   0.483461026045013   0.275058995153307
0.285543642712248   0.450160895099624   0.155480102001444
0.290935004800546   0.381810749277059   0.259537516608037
0.376665624430396   0.457680648691762   0.322782551047192
0.141285382143913   0.508088511971769   0.411613969827112
0.262519223710602   0.394106946316745   0.332687321034410
0.082438047303017   0.496208216117554   0.251882601489916
0.343688988737365   0.319819779142193   0.311857257071313
0.287220370102485   0.434892231108822   0.490959772291906
0.198391242252766   0.394921647340114   0.474082672579617
0.955664317778326   0.417120429192183   0.587618620959063
0.361499830263976   0.518268238717147   0.432156148660139
0.231022976278133   0.469232396549104   0.767598549762624
0.382870246464254   0.504054164659537   0.063826070666606
0.218240428890281   0.565360802903438   0.887543022850766
0.167372821993123   0.412377456347734   0.025306206056231
0.141640685082470   0.422164032734011   0.718082021253668
0.316718927716539   0.548259536875445   0.839422760586117
0.057886243466150   0.454983084041093   0.018628344865405
0.261948986130380   0.459743962266740   0.910177271266610
0.189731215775290   0.539723129167191   0.106547404672777
0.183107598199781   0.471953804762162   0.969203643215466
0.399281094171914   0.679647077055970   0.961025430602582
0.320896119455073   0.315601187682352   0.032183644625457
0.022074323574017   0.318316962903303   0.420267888820831
0.247266980021626   0.603655543418842   0.392990540424552
0.226672766315681   0.539369706778340   0.238021371657639
0.158614475669762   0.439924675794016   0.218965087880105
0.261248931667570   0.355418336109765   0.472458554807629
0.287375751290398   0.494192514718110   0.636281600744876
0.303793881795280   0.616427626489738   0.637237743951756
0.382173934940536   0.347781085501735   0.373719444294920
0.077909013661125   0.394885794128312   0.862557207643510
0.284601264191203   0.361889232139644   0.833770694968994
0.281048405857979   0.501689717702151   0.034885445494875
0.245037402327954   0.485669654864880   0.832550276856361
0.490531887876849   0.564528087884676   0.733952704309457
0.438343380967471   0.583945661663179   0.020086241119229
0.306824664299214   0.292346433775640   0.928346312793080
0.520289864099283   0.388315897784105   0.812084367920742
0.400111914773605   0.502498102440477   0.126034438275937
0.197096666971477   0.417923029505205   0.106440874364122
0.143517689926467   0.337970146482993   0.253698562703651
0.223327743077396   0.453273759500499   0.199028219651252
0.244868536205136   0.324282708338716   0.093491551513241
0.314399755935890   0.434820363713488   0.173428306289689
0.251239203876208   0.503217544566765   0.617344552275291
0.353291627413232   0.532819635594010   0.366947452337129
0.088807205616714   0.732362633131280   0.426096259338476
0.183690836622687   0.487329268772060   0.541033516795330
0.246580326846975   0.362398462035480   0.657641151683156
0.261029943977723   0.518360704903557   0.687707465045828
0.114822703092791   0.607442345944431   0.582737628411586
0.378754294718398   0.460119079096974   0.719449639690774
0.260905589266476   0.828121773231559   0.701494809629105
0.109447197758747   0.489633500648559   0.831873392673581
0.253451027485392   0.715511392780376   0.855924847822876
0.419086103135249   0.583635232366626   0.804986432012317
0.222953421036959   0.553567890242654   0.096070939381079
0.321063410292810   0.590505636167577   0.116294753476241
0.500723422535827   0.618979494464233   0.226006788980404
0.496204246170871   0.664460291586091   0.286504275837325
0.068049428743741   0.609569191413105   0.467431913374702
0.285202580333928   0.612557299704544   0.111773433583769
0.239217039122615   0.568406276928059   0.214333949205773
0.189191696735587   0.579243978432036   0.276063826244375
0.184962128617465   0.583855414980726   0.376981251648961
0.331728377816801   0.546086637389187   0.280813445245500
0.382348540896264   0.564167292993895   0.493208925732057
0.193641077152395   0.656306512887696   0.595830190823492
0.268987325381463   0.740915854359653   0.428437375573628
0.331579724100699   0.620143146159692   0.561641724978170
0.476931478065058   0.605570715634985   0.825395134587218
0.175848032829769   0.537762443500697   0.836072581585270
0.362017881957653   0.448146199481399   0.808352080776550
0.194530741802937   0.598472274058729   0.823825855328234
0.123658445810745   0.669292796288236   0.805453711795414
0.177729074719728   0.627499606703145   0.979442116973538
0.330932947615962   0.584428418818883   0.295604830762237
0.213818581532718   0.580161180695256   0.187706298320369
0.208743032338510   0.697161605070767   0.124596452234992
0.571587948271233   0.681318813530993   0.281059966543621
0.305270677767342   0.550670300821821   0.162974711466780
0.368305142686350   0.794507517524351   0.051670742281259
0.053277824889745   0.583808484579731   0.412889714722900
0.374519344449481   0.632817035413770   0.277734384807822
0.318251781364908   0.645659542043909   0.321584984502567
0.270105925383322   0.546480863045120   0.317692085355448
0.400838040528207   0.538886249582241   0.517411290483894
0.307400048500233   0.590789579101621   0.473422762347297
0.328088140503056   0.621282256779811   0.488326127110048
0.455482176208207   0.615090520984933   0.669947326143422
0.372618551330880   0.727619727497258   0.698059884256054
0.192574911776318   0.828145696174852   0.862162911122192
0.461049685292592   0.708152701098237   0.719938705247898
0.312366915271322   0.674236261224438   0.904879290761413
0.270281549459452   0.677732042602988   0.120767221152744
0.362976327441530   0.775333793986403   0.895029558795434
0.259990172000421   0.645071810265318   0.200747312005029
0.355004905757842   0.516791635664866   0.186755022326844
0.173173197039082   0.726844384185024   0.181821948155129
0.277194748218737   0.681959879031855   0.193996608100725
0.362266969943788   0.598368369625689   0.282245890732804
0.245413967148461   0.630897683723938   0.326265652408307
0.346867852319135   0.518259214460302   0.227412636870114
0.300566609049515   0.528503642942361   0.266815713980258
0.224069863997156   0.645239866109435   0.212628031483170
0.192998273785297   0.726811330289936   0.413593732025374
0.065420879019498   0.651281884297801   0.392775328793477
0.317169740461639   0.655247724570837   0.402318251223439
0.245555031291755   0.555029049578222   0.694796811599799
0.193517540956817   0.782064034237000   0.519246516842638
0.147046691650408   0.689848876580517   0.488592019082534
0.288053243418252   0.794052501015272   0.801801212193792
0.178154374095852   0.602626477451084   0.565043114592310
0.221555744066375   0.658657778736115   0.750995414230934
0.298403575984596   0.686594708039510   0.625593081039891
0.065339126692880   0.729694639546248   0.840497913079117
0.261215623373029   0.853885608332314   0.995845051243582
0.209605719166218   0.770093085785809   0.118824905337271
0.303121160345633   0.990504678282980   0.193474343323578
0.241161970412884   0.610954670424360   0.940827261715712
0.199965903330367   0.749363058160306   0.444731344222020
0.143578690596913   0.787440867077471   0.198939764788512
0.330127632589241   0.904798141595410   0.265580479756212
0.370217986831066   0.630025258381368   0.356869362197560
0.153476276844073   0.581655055128934   0.215118027324593
0.152685919213994   0.786016193545274   0.638376786331281
0.240762247705973   0.849537664595822   0.565004696131907
0.314365534705208   0.875200337113721   0.280179072067009
0.348401204873322   0.727583117365306   0.491249216736324
0.416168393593023   0.520449103393444   0.702943885177678
0.358607771315938   0.717303242589916   0.730746730384479
0.449932790647258   0.777743877347883   0.701396507197488
0.287093784367439   0.871167247234039   0.905790917381240
0.472585612111207   0.680332963920880   0.742694931947383
0.186741146885137   0.830166296842209   0.947805348303351
0.438157503250640   0.616437211269942   0.888780769303483
0.186156216078293   0.840968059915714   0.098337625657252
0.335854743401650   0.667256764102661   0.038957394880808
0.231847231612711   0.819682167549104   0.177116378734286
0.369908439969342   0.798955927166287   0.009552202476668
0.472904247951296   0.103850439513486   0.215963495176765
0.175560419673247   0.679711889984308   0.225130859896197
0.530826767714943   0.829710270826585   0.288772267054848
0.264377838272398   0.763731074685169   0.300614991765071
0.178829476887506   0.823746260339680   0.398335520869281
0.278250930064827   0.626138488258509   0.530442105097672
0.121737666663373   0.792506958049315   0.367691213779712
0.434943722641105   0.816024851619851   0.613858054023997
0.307039107726514   0.830483036290683   0.522486501671135
0.197643561881652   0.723242503659634   0.740347594205490
0.296743357477579   0.908141661272043   0.785956801222164
0.343015438702928   0.061560774300003   0.467093237648670
0.412506253217312   0.845053057564795   0.696132398465068
0.358593790573886   0.924290623201380   0.798076795124372
0.276963738877255   0.977133011564118   0.932672472944453
0.278683207547418   0.780794130854089   0.865037433619263
0.214536634050663   0.992061183597540   0.930666575167662
0.486323677481997   0.794972761447234   0.946654855201291
0.541464550409712   0.857413300877815   0.054391591199228
0.312217143658113   0.955287938355341   0.180145101407189
0.265171920519591   0.680755595064200   0.843416715903491
0.295568305367860   0.849714853188869   0.142725250588259
0.127478721165917   0.800478694037416   0.329267119893979
0.262557059860988   0.860821829581954   0.124201600765773
0.494285629843160   0.106013537529183   0.362851191297934
0.182842169884114   0.896226699795986   0.559577187531513
0.241756678027837   0.147668508441207   0.471864876058463
0.329692123349671   0.937456728680040   0.512689082863947
0.373873431335808   0.616616463848865   0.563893479900675
0.356488739481312   0.658694670851414   0.335817109065448
0.479613027184116   0.759447368047086   0.647742894589704
0.461223739319157   0.008044895654103   0.674384383996178
0.530442763275006   0.811155761480624   0.654789013484811
0.377009474023876   0.712878138212682   0.844266686603981
0.315924511199192   0.725258433769643   0.017152993820029
0.227928061952088   0.837176196860148   0.868294909544560
0.199835278694337   0.076949270909235   0.030912245596508
0.449461499003223   0.975978623451182   0.004527144194072
0.175960851962935   0.881326673212042   0.889718415997072
0.093609633008229   0.782188814465127   0.339660564297180
0.193363184187656   0.905095999582477   0.235406880316197
0.229636376662029   0.012000587678756   0.193107544549502
0.362115705727701   0.827542178371184   0.306460546241841
0.350571197455924   0.044919028102569   0.294953517759695
0.233248316668828   0.774109445378877   0.515682278633273
0.548845474286450   0.837501562296209   0.321585911165808
0.346934147925784   0.791748865021783   0.488723227247062
0.387753372677218   0.953634542796931   0.542878036037561
0.291145504092735   0.000364459939238   0.491639299958773
0.086854321151889   0.884075069296337   0.578842581925853
0.337755420516022   0.916113131237628   0.723689407527021
0.399185051117655   0.091525277069871   0.916144956283305
0.442688736936758   0.762061962150746   0.807818291248816
0.175514091534277   0.751963145685192   0.946838003759229
0.255717085997663   0.911673393819211   0.786301197059246
0.216509736931532   0.805443118579223   0.947347904801164
0.272907569449452   0.991137564361643   0.995221367506210
0.346232619752684   0.022392427554789   0.157581358413372
0.491014801340655   0.989792483231401   0.302210141466643
0.171687217018295   0.012680494695311   0.118514382848031
0.326341192489655   0.849279511174838   0.984383878153738
0.171152486477517   0.069323263228099   0.228763573268807
0.583513867638604   0.989452564425766   0.427425443564529
0.136159978668639   0.835205860586871   0.315742267767902
0.427341438075031   0.888325932464640   0.325170861479893
0.296474829370608   0.865703528035026   0.509798982974048
0.316855555705710   0.897101391171010   0.557972763322213
0.211667359300428   0.906125719201532   0.499849279007554
0.330101203205950   0.966778935644391   0.572647252765034
0.182917250946763   0.032478877036593   0.711476560918087
0.225777315205694   0.939819234455743   0.479708305980969
0.101759684955970   0.987206966201282   0.713261264441920
0.367994550762226   0.888683881541359   0.620531961434163
0.274367678878313   0.926508157921803   0.708309126208495
0.355872601084170   0.845860221042713   0.882749102521472
0.357956510509050   0.888294482463770   0.097095273714481
0.222283250019555   0.122128326180136   0.908335014867759
0.328422440165480   0.921429267825343   0.961911173654279
0.315396190149248   0.084719732926937   0.184729348558963
0.422446426786967   0.948462604268074   0.341821290963249
0.371511967717846   0.965403975680063   0.201498546080984
0.153868896661415   0.306107028557065   0.234630417899152
0.334230673653409   0.257663655990032   0.272481459036886
0.419344630030659   0.072159794652956   0.394481685959214
0.397130436186390   0.895777436162687   0.351503449139010
0.410476129277344   0.878613775887520   0.287668267246414
0.355915839305369   0.980791653526022   0.321828334669827
0.476991235689963   0.982262881685645   0.578118566548124
0.329276848474752   0.991245872123183   0.856801975269036
0.108858201233703   0.976395672406810   0.637422764211932
0.121030138415397   0.983802465424069   0.748069528864287
0.297082795267779   0.065953620760887   0.695680383686907
0.309022627183770   0.895945037496607   0.888121609852145
0.243467701866381   0.780138595482550   0.755306663766995
0.391569547879542   0.940064475883922   0.021813652021285
0.470263906514112   0.933798118732585   0.075112077890432
0.673704490716634   0.142260602055782   0.010450258047712
0.118726381928388   0.166771139351091   0.111379186676998
0.562552222052119   0.912852887822290   0.093644328617849
0.325959797225776   0.129731948339826   0.967288036039671
0.369964533716624   0.028310495314832   0.077083505632258
0.408387952447129   0.767049078318560   0.361008903397784
0.423262314234556   0.077915937795171   0.467364214455990
0.162779620957906   0.965782332403001   0.357260713347332
0.348834985676397   0.963620872139289   0.285180641090281
0.198329952727653   0.043749109863355   0.583914616732015
0.338720525271374   0.014988342908756   0.319919117007705
0.543126871918498   0.947239285079480   0.459956841278109
0.279018942402466   0.107130501905757   0.263842392906096
0.254151858910982   0.986236094102253   0.437368807894408
0.363894071015202   0.855172068282624   0.566067812503216
0.473474102985828   0.983929305965795   0.808370270152166
0.275592485472900   0.914985070109128   0.671367478248420
0.454827678074835   0.067514174081339   0.888441135412912
0.483539839609832   0.924858277496928   0.040661821016857
0.246818480858251   0.165696089541608   0.060372214324836
0.289400412157421   0.972553474842017   0.634269192699428
0.225873843100936   0.133161211685173   0.061572483943508
0.242039171632539   0.177166648527382   0.185844986260154
0.147686471329335   0.866341323753567   0.047874182247238
0.408960919572457   0.048729107148896   0.163304898905027
0.458475253857434   0.077578659814148   0.193188963071876
0.438143785819994   0.043646616834976   0.275715235484183
0.168934413425272   0.129563481849956   0.378545104809027
0.214147062765434   0.008433505329261   0.591597655160692
0.391823723612293   0.015943631123414   0.491948915735596
0.373983200644069   0.023299016099785   0.584180264569426
0.269652666619927   0.116166207328230   0.351531256911545
0.459219137339504   0.085098852427800   0.684121469938628
0.554519929328667   0.069280332024089   0.808719359682941
0.438975608448890   0.105648347470750   0.712108056977848
0.339565616415103   0.158261005365377   0.538563418487513
0.264282454121496   0.980356916159339   0.660085153789069
0.371444556465727   0.067405943395154   0.855911698655254
0.280611430403381   0.042495424162245   0.892104455711069
0.444348033538649   0.273644197139828   0.884225552699705
0.351915719523161   0.153533140342110   0.117599656237778
0.372291233647963   0.969530999143021   0.929151168381818
0.187162802028958   0.017219994726271   0.920953482715345
0.317823802843895   0.160983660114763   0.180144365589325
0.463819238914564   0.072707067733429   0.276658544536439
0.440569542828744   0.149557932196207   0.046389115938445
0.290153802366589   0.076582054578541   0.111165528585033
0.197490697732343   0.287146939109113   0.326921504223150
0.373559821317172   0.201915812901259   0.291894234888173
0.523924979341694   0.193702117005492   0.438653449282324
0.165374177086635   0.113114600059007   0.525384067369123
0.310741102111405   0.094004259799416   0.551398946042437
0.460478342111440   0.048607999623326   0.555286957237846
0.370438395911084   0.194414041718444   0.748239486252868
0.514962694964781   0.116460736637212   0.827056153506995
0.261718155162137   0.163936794337752   0.835680503280490
0.239164606116731   0.243776323024802   0.715435394911120
0.416184347560372   0.940557879712798   0.822867241894417
0.546347945143682   0.168696407808441   0.867782968793452
0.249019027297787   0.369101986887371   0.845036785758435
0.371783645770182   0.055231639602288   0.004731919943243
0.484139793489278   0.169173337573594   0.982559346486328
0.302641921747596   0.190545920653483   0.118849443274870
0.389563174318492   0.179088370671714   0.174146136912194
0.326515226897796   0.079964316417647   0.119578540337304
0.418290106338458   0.227759127765605   0.144063808026113
0.311350240015379   0.229532709833786   0.253286829687786
0.115439258007428   0.116924177220894   0.454092141886292
0.357872703521404   0.278490665663182   0.536424188833554
0.364154099143467   0.045230539675307   0.399161093812956
0.244917557092019   0.208083667988807   0.448796426849584
0.391989181429151   0.170731448800865   0.491568093895334
0.417516771620507   0.062214278254344   0.802036185640371
0.458734808088652   0.187785700257404   0.609947669030295
0.395036809854264   0.183967789447836   0.809438954378242
0.344181066436956   0.293789218510812   0.648002008532483
0.381375095136849   0.329936289731284   0.820964925642094
0.310508868854450   0.022915720734088   0.747339171224834
0.221768941137495   0.122775108467127   0.815052887671769
0.279258253579086   0.298799714555972   0.847581865035470
0.366753782691105   0.066660271753126   0.965584634745912
0.350295336283393   0.300022729431629   0.053827668578000
0.587145275234993   0.263955892805763   0.125796289235811
0.348468201772439   0.241255819665217   0.171166556267219
0.498844527352371   0.265852346634386   0.414989412870524
0.416122948669106   0.161727944388729   0.258045077945012
0.425970574038590   0.381412073262404   0.240538525819796
0.367911005823280   0.357219182341500   0.531007340798086
0.391909492788274   0.335182156580495   0.451774992890189
0.438827322708578   0.950231927865476   0.452798971521412
0.312710243707530   0.130285855475362   0.390437194681388
0.280674560549250   0.099110133252591   0.572296690548487
0.378598835659333   0.428031850860442   0.643625538179973
0.121925927978407   0.224215490698154   0.605999550729463
0.476205390780344   0.249792230356007   0.671051559586498
0.521458632424811   0.232115806422717   0.529976116867873
0.333495803696296   0.148075863530512   0.826902393036807
0.260437946863983   0.521176708184503   0.903004238884201
0.220655601651329   0.315492121682946   0.063854728449218
0.305436651162161   0.193201982654932   0.971030792115880
0.193462004367284   0.146923025146278   0.956271779435063
0.336334535863743   0.346282819318045   0.015715514031226
0.458277186101271   0.227353169787579   0.062452027539374
0.296492900958568   0.162308912185826   0.211743594422867
0.354594004204917   0.172941167367073   0.007016737238873
0.221839077841335   0.084173529631632   0.385167764854383
0.376783795862380   0.164413608385579   0.395709055358705
0.488149674742241   0.468262908845328   0.290127059212656
0.476629453366137   0.409275416362655   0.423429175526716
0.416203353099811   0.474137641644976   0.517647518732256
0.277955509649211   0.322753458619943   0.524983260579147
0.290986033219607   0.050552936649582   0.768173094097175
0.457648452773284   0.234014013585738   0.735610756856822
0.328361854430890   0.312177657883795   0.579281311030757
0.362863271053627   0.382091907550793   0.556896447906223
0.249898634810040   0.146606728536999   0.901687033027456
0.098465828129733   0.337328206681962   0.876822899466601
0.318748377814104   0.193463323562617   0.903936525106582
0.377629969017729   0.018630522987324   0.751054137904266
0.314450013439560   0.221056889359349   0.077519753484770
0.512447460739127   0.569494215740329   0.808979303159952
0.337393468247783   0.446767667410345   0.834796818313724
0.269051176006681   0.414498388710781   0.215897526729465
0.317722399114219   0.154476892747006   0.243285689873704
0.298926694416231   0.324872291103307   0.948435043538798
0.154817399696198   0.159783638328920   0.390495416959029
0.345073223097955   0.302197096058482   0.508892892707689
0.229514592774923   0.257401542446780   0.409116580893101
0.220688748783956   0.240480289513077   0.372568171535687
0.291518145232181   0.527427329323671   0.661447023238933
0.253867434682858   0.070414123241985   0.570353755994980
0.270510367330044   0.282239863567116   0.529240254376253
0.335573560585355   0.284215266224210   0.476377694537610
0.284390089811795   0.403869574028294   0.694044043410536
0.347099397310270   0.189647710651058   0.654321248056674
0.230086350005690   0.367991413432659   0.622336064508552
0.343279891065530   0.281878271391085   0.685075040539344
0.323204124637516   0.185031047950315   0.827001664133398
0.349831867010783   0.479483864945194   0.603022688384164
0.358190753057810   0.344359085231080   0.850329959690280
0.508934219118330   0.393845457718295   0.133161081844032
0.346367208722614   0.286554407191936   0.331717543014867
0.220951738653260   0.319286511400866   0.929734120938349
0.579741926867100   0.359520590948832   0.075368345690760
0.319185176606810   0.385154079901129   0.227182793410232
0.355799564966988   0.176854463535306   0.477842271350869
0.286340580571260   0.540002860525274   0.197892906238109
0.325665561884336   0.450120275880349   0.279538876398244
0.296951086054737   0.594024892036468   0.354316622854419
0.400750204725996   0.421959909445278   0.273067028826421
0.343189399768627   0.413346258982130   0.371091857863087
0.135500401872460   0.398324322583533   0.579594158315934
0.373106478472911   0.569431960240652   0.608967377451892
0.264506098177965   0.317865253757316   0.605380064540309
0.435949789491904   0.552511704063826   0.687687831860632
0.528419697391599   0.330337782715275   0.691819306102959
0.358787360201449   0.262337657556795   0.740530364747828
0.197470803215479   0.446761755372583   0.860946105158620
0.395435787532351   0.348621604868953   0.043989824677601
0.302503358937979   0.135428330034348   0.077000948337891
0.274773094820836   0.567933716085829   0.052912588103144
0.334063343648241   0.518341652742176   0.883718502525415
0.141837772698167   0.542953966163117   0.965486804833795
0.258784374928068   0.525084959141732   0.978346819399217
0.179037773127521   0.215800261694775   0.189777517717768
0.335665880905700   0.416785315888208   0.147676284963632
0.408230021440654   0.325030219183067   0.354786202232413
0.451750640102688   0.607546231327893   0.302889162487603
0.188287179665360   0.593987187475467   0.338606336542674
0.369510625701780   0.505603460988542   0.394787602958401
0.362491301176520   0.690408458013514   0.366190964369363
0.343708252947941   0.377044028051412   0.677639534075495
0.396386197177103   0.344675842153760   0.745239515078944
0.432968400793190   0.591078294072503   0.693309503973514
0.291197534560709   0.327775251787120   0.820602952079638
0.320338909279607   0.288534942704136   0.842870958506882
0.200189928899824   0.394318884078507   0.823911313104795
0.316937842085864   0.415783820819916   0.851096491322515
0.482647753465590   0.583562572175707   0.855653482499524
0.386723028314765   0.530204558396689   0.007265000112614
0.504021337187645   0.523642158691511   0.002190710902795
0.347959445909278   0.243333398924550   0.132472127675664
0.240860832646381   0.418283062998852   0.192600281216416
0.312789615811177   0.487250631823261   0.979850016806221
0.219237096137509   0.552559249043703   0.275375982234320
0.312877918451758   0.553626702176843   0.103664326422639
0.282755582431567   0.326970103009419   0.221454710693634
0.354779892315389   0.549389245362183   0.250031846565359
0.307677790883301   0.710783342553204   0.315622746585656
0.250773116625462   0.559021877243014   0.467950456273258
0.312670777776171   0.579372877958337   0.617465976661075
0.316979545365037   0.634540048294289   0.525026335981727
0.445303824775831   0.365920764111200   0.474775609299832
0.214821856576540   0.561390493388910   0.632766948206748
0.124667017770011   0.425249222504052   0.493701393429576
0.219484916762715   0.484367090063244   0.635044531570108
0.497768073003777   0.567681308203666   0.647766549440862
0.576496542750242   0.544647178310928   0.864823138150995
0.345505954477572   0.503736482319013   0.051768051371885
0.164698685544337   0.443263398970559   0.775254707082006
0.269880262584400   0.334426872437412   0.973066148858346
0.315669606601333   0.556039498100264   0.883299771495766
0.284724955409792   0.613967648008576   0.203353854255938
0.211654156121075   0.479133726136501   0.354135067737238
0.244051587159490   0.462784755331071   0.000368312240907
0.278573898530452   0.606256487472622   0.071055662583040
0.321592746733719   0.840624132192723   0.391978393156570
0.281548372055038   0.515007548999923   0.297942922872593
0.571141389383935   0.507106165771802   0.436467311567625
0.488935823115325   0.499726026054887   0.434751448884626
0.258051213971619   0.505807697923710   0.579252130326566
0.254184947813513   0.685706962108779   0.518817285379670
0.291487882651314   0.444671078145381   0.691469812305502
0.587059845439151   0.620267677793286   0.539755553683004
0.207245722554578   0.672715911098622   0.558864428618301
0.213250303946666   0.415506284569550   0.684400862843252
0.622661276704789   0.413610981377149   0.785935096826495
0.220356440758977   0.726856500019844   0.710139217855346
0.378306558367184   0.594847149762283   0.873021571973342
0.286392245575268   0.650676420281076   0.782404604384706
0.419539787277399   0.276908455030553   0.082253661737563
0.459644413224834   0.549189058611043   0.135450899262251
0.199736207684300   0.392306220958122   0.029719776487238
0.314865220239142   0.669333652105767   0.205419592427145
0.501339478718364   0.451478983879184   0.167281513806819
0.207372842762222   0.515956301414121   0.293692602100861
0.238398504522378   0.429052392357192   0.280176609715396
0.593048983704756   0.624050841260765   0.295371282749480
0.466973656719553   0.492324018185187   0.371795961794136
0.286749529426323   0.503048443186626   0.384827598066821
0.368349753877967   0.487492487379708   0.556458690091400
0.366464317727732   0.546114488697567   0.575887203467123
0.136255240438677   0.321030390793046   0.476072719952314
0.441317370907414   0.613494020745991   0.818568325117288
0.464922707465008   0.467124022031963   0.583977459200317
0.353137365604786   0.563087323219459   0.964078371212380
0.241211619975595   0.553591987469286   0.824438678992447
0.253127684697686   0.396939093788263   0.785868151313875
0.281520303293325   0.486534247505775   0.892775761538648
0.421093849158083   0.550512933291902   0.961658181464125
0.297258399757639   0.467627292107810   0.083403782861772
0.180686136760345   0.625794650249127   0.164011875229610
0.406874283800966   0.593669119227622   0.144373337174361
0.336804743503522   0.524296931787939   0.120551674295335
0.199757205911435   0.752701630498627   0.291647214819469
0.264311680425936   0.606087834745403   0.299592953088903
0.229003628767483   0.734451428695998   0.123935476471200
0.152825513022690   0.764331135332822   0.375454661901633
0.224312994950737   0.528709825995368   0.388693308966971
0.313351684965334   0.491381980424854   0.605467966292725
0.337000107593550   0.503654148189552   0.459599949925379
0.384906835642411   0.587361135037738   0.733196103462034
0.212611172279759   0.444349431466453   0.621316790071455
0.245618770997564   0.862255677227456   0.448743730424976
0.432543586245006   0.629373007679241   0.640260083673756
0.363871462882288   0.601245307822054   0.762117126687357
0.324934701829468   0.682813313746122   0.864874508895896
0.308035176322068   0.629628798567342   0.761725408022418
0.403001674227661   0.692297220553599   0.901331779742324
0.099851805228166   0.552504976386714   0.825508809653214
0.530711964023966   0.806878373639193   0.860992335941412
0.362503753873657   0.665981671384292   0.124322810680207
0.474927707434421   0.665662059274117   0.049033060207812
0.284839972403389   0.627775818687349   0.239086076481998
0.223575646452501   0.748211562757381   0.026384055533026
0.351165247484811   0.759485532820362   0.055777531317410
0.153119867856692   0.499432498002041   0.162356891958904
0.271411560620310   0.698630920013046   0.157299204682317
0.312119858200252   0.800038224960956   0.192395839617285
0.494543135814565   0.811502870158752   0.349222731396305
0.330440940595855   0.675153679691529   0.527648092047960
0.153275499320715   0.727432004783085   0.398367103547595
0.202232692639441   0.609264265116630   0.533076863325461
0.382200581905081   0.656874136293230   0.702281189705419
0.388158747742682   0.732874712782092   0.552669120458349
0.350051269295862   0.752135351164044   0.677432993177233
0.228680006413976   0.767465307555435   0.820352516744997
0.343099706719382   0.608289593341361   0.868401305185157
0.150260899689801   0.715983321782183   0.104028478299987
0.455121779956719   0.801122594015185   0.965226567344651
0.438247584078168   0.769151684812601   0.979326494077163
0.478819041517585   0.973396609289751   0.086976751656420
0.362014405291578   0.918885214241296   0.154939609259590
0.522964916589583   0.866173271357155   0.142933696265125
0.315917313413898   0.818613518655738   0.259334154190940
0.309684594001715   0.655271196427052   0.242379641609077
0.463173809031028   0.883636913412872   0.182458457646778
0.305607124188516   0.606809979854695   0.316056619240151
0.341417339345693   0.616726119657228   0.170206451246849
0.379871382810630   0.778847816358005   0.680122146274719
0.318774284584474   0.912587198997781   0.388890420476113
0.214364600077400   0.936412197467779   0.656463328578278
0.086385073177079   0.685997265021985   0.504890442539760
0.255237382095849   0.977904770095655   0.759598490126526
0.089257133814979   0.878716635301709   0.539479310908375
0.362446704534904   0.691194487230868   0.787491612808780
0.149450608014881   0.716785189489158   0.897319501168809
0.310501421194384   0.789983454318719   0.014352722013290
0.339973421276222   0.741716318124275   0.092644837259634
0.229774768079511   0.709522188494182   0.968445399050228
0.529255543391084   0.897489935930785   0.166541648024997
0.391273716626606   0.609139082152002   0.931117259015899
0.196643115647446   0.898706434136897   0.862302942275816
0.328839885521460   0.876259510534346   0.401626669059122
0.343384837515789   0.696517118176265   0.201550766310940
0.280596105107667   0.899005242495586   0.188369302242856
0.581657284659967   0.957727384983272   0.175636546628991
0.306400663839959   0.749534225450840   0.427598973725547
0.583733095393942   0.766168254163256   0.358780267804337
0.237653333211950   0.824787532705700   0.302312625695829
0.320746226528610   0.725230616313900   0.577555735446939
0.388943239760592   0.894228128653589   0.655212267576113
0.340355171056404   0.902170674534394   0.526809648198146
0.424439505679934   0.709195358227963   0.314767761928257
0.320481629477365   0.828889046038962   0.881690708720047
0.194810754158250   0.802408363760238   0.583402164084783
0.364614128353206   0.628061676939364   0.815017448709320
0.437242747335766   0.880762417844647   0.864552242722033
0.295861899168849   0.693030259337989   0.964399330082295
0.380556478364666   0.829436996042160   0.854656610736911
0.424952284912264   0.825073279865352   0.026789633982413
0.169052133942324   0.815946618982689   0.191955286849624
0.420962586271540   0.692158323772977   0.933520041670821
0.593567554529161   0.870224990373398   0.128931052634666
0.423627234161484   0.885942959856832   0.063264375449795
0.999988533135968   0.894250639272349   0.053209786592546
0.404164351800397   0.765843868695659   0.100425824517837
0.078194788810331   0.721642757529150   0.353203907686331
0.327215766640604   0.783023229479644   0.607574883488255
0.258578717569492   0.714247062919068   0.496214790274181
0.224942709455769   0.836731610796834   0.499608714080232
0.439495331341196   0.882042641705301   0.606453208825438
0.346975758367176   0.824707613856766   0.512367698726483
0.255851902182110   0.763371633454284   0.548803716695874
0.184816795601801   0.843797351480713   0.530929732095431
0.429614660875072   0.776250837276896   0.731405553821951
0.491678895822507   0.789277108687784   0.777825302412005
0.273951436192250   0.784412761062827   0.005366911229740
0.270700786956378   0.765845949065319   0.732870167386726
0.251900551902109   0.875989545205737   0.916684988318647
0.421981315082727   0.858040522517798   0.953611397524869
0.333862105850315   0.687232425038752   0.974018803296255
0.242210458311714   0.893942562267482   0.134475485135124
0.525483903164739   0.026101647245367   0.153004777890475
0.291028824248870   0.944688306942810   0.147857071974116
0.243340273100343   0.808028631135368   0.401112678098409
0.429678403423305   0.927175443261457   0.309448394665499
0.535032533979640   0.784127888035637   0.426234384663453
0.241105890455246   0.939712713420597   0.221124513542486
0.222725051989100   0.074440573353971   0.599153302332353
0.273889826024448   0.603242681892814   0.421777473116401
0.332886462637302   0.105851417543159   0.607213537326689
0.345875868513442   0.966078413106614   0.535359376642264
0.313948479711808   0.972390978843105   0.793527828903527
0.443595488683849   0.854820724692907   0.447329112048337
0.169679773854182   0.849296879901270   0.705165312223652
0.285279322778425   0.018647361822764   0.829292031774323
0.312653154456818   0.743576509462688   0.917397550348734
0.343313714624610   0.787743083662607   0.957689335307923
0.256750280639539   0.620564648736497   0.828438084034714
0.409779747603897   0.953160677539758   0.053118511838438
0.350314570890524   0.952516305781712   0.090836820148726
0.479050340703309   0.945518701237293   0.258188120885422
0.114258477450847   0.179713578316875   0.231768001614164
0.333948469151728   0.219715225734118   0.972822087286729
0.220472733117986   0.960698116545339   0.249549367930056
0.365650014310858   0.081713690392562   0.343372223340117
0.360725284574558   0.856845728250828   0.489750841653322
0.260589667781269   0.888919996453862   0.425756003297230
0.444508621821209   0.956468646799793   0.416656947309175
0.334289454290430   0.812939985143492   0.415264319465013
0.396171120125896   0.979672103451076   0.646003413807064
0.325591018302537   0.973181458344581   0.647038341765131
0.469182927453697   0.033262068623272   0.767573703112284
0.270081412439752   0.799004869701999   0.645231327445605
0.252250817941229   0.843030911554983   0.766093945297556
0.285429983652089   0.878287956426624   0.668886890007718
0.302179812791032   0.837106683651980   0.913251420126603
0.253403470098457   0.025067230758202   0.002747929693003
0.424455349276343   0.977390107576849   0.880974471538299
0.552206761444671   0.879874181718834   0.023650151347560
0.359635017825685   0.940680237621558   0.906764995328227
0.461223068617106   0.987889554063106   0.206166669644060
0.421213087669606   0.860588832096759   0.120343268520116
0.520745002371411   0.956419952226341   0.195174181557801
0.388605271649304   0.166252636145381   0.288933863473400
0.628788808468648   0.024338728875436   0.297058040856429
0.520091318513879   0.070744516487675   0.407178030270505
0.372842349185911   0.816005840252018   0.341923373550861
0.344072158875263   0.881617286362095   0.434949731192084
0.325452829741315   0.028363714017939   0.540462642362223
0.511155777228589   0.001530573996938   0.589177210776929
0.200670279180012   0.056232517282657   0.545412780263102
0.425309810888506   0.020088226027661   0.681096163844215
0.606006417351044   0.990189775560316   0.749120456857622
0.537116011416970   0.173135499509670   0.643291913162368
0.431010066839035   0.168401623626517   0.723983574541324
0.390114892581156   0.989474662433190   0.868812016508860
0.487252397178331   0.877466120546167   0.930246644463505
0.532966054647453   0.036612007671313   0.796801871887492
0.436062126627661   0.979692227331789   0.040759966466997
0.331913839246007   0.400425068066989   0.887676197221433
0.498821175202684   0.093460188663204   0.080955501566771
0.184911140449838   0.074330971823967   0.105267272170927
0.388245014670648   0.057792475829629   0.129191877623054
0.542451426948443   0.139925743614516   0.155109675590167
0.306258433267376   0.020002239585883   0.167314456028736
0.396100141229111   0.196837001879925   0.404741801110356
0.409760900611998   0.025724852511197   0.521993459074892
0.242476623135418   0.037337936716083   0.105096909728131
0.395042102956803   0.797073990778548   0.542425467361543
0.575870786377158   0.990537910545655   0.528039915717232
0.456035066681897   0.985307043926492   0.540926934772041
0.256460703907558   0.016614300887561   0.708596431189624
0.324191617839788   0.236568201827038   0.857268850785450
0.375302922767110   0.156502605067602   0.913013944951785
0.376483125431688   0.010058965413322   0.716006064585777
0.304685690997206   0.037559054305851   0.637223216602260
0.293116976645599   0.962566462188988   0.718244224072244
0.379157277245745   0.952120463885180   0.819346454478122
0.351891470772113   0.210194118002824   0.849671850282274
0.413505894987952   0.101989837726365   0.091086168426008
0.437326600964591   0.174684936749982   0.944607102697294
0.665561087924722   0.284742147046392   0.317817518281652
0.757692399580643   0.252637920301185   0.304109344340487
0.401579662342915   0.138859294009700   0.380260691855651
0.224866776043793   0.984299521532710   0.494988696677339
0.521591597451606   0.265043386281780   0.477858662527279
0.761919142422711   0.139210134005903   0.391991261437601
0.398186042568595   0.099986148562218   0.487195007307461
0.418954164485136   0.345906344087399   0.388820453463805
0.449715924967171   0.142121399296834   0.706544258003200
0.343057272075705   0.269582829480708   0.873670559129903
0.184738257219815   0.219219076437826   0.681672138862806
0.292748562471543   0.980097448082973   0.567361754649945
0.295573353003341   0.904604542722573   0.968686667506582
0.219505321789266   0.087425403363946   0.895991374861413
0.415159620298344   0.088500760693353   0.775018898850978
0.473414549725003   0.931654392623972   0.856575795935360
0.207695080600751   0.075284708782849   0.931929475408393
0.354086111820241   0.947995759556398   0.011922115310161
0.485044916017822   0.172715635920501   0.178441103426308
0.401489197485425   0.024502297766814   0.918509052716774
0.438778852912375   0.255496041477498   0.848432066745493
0.418115265177745   0.053765408572283   0.308657646408925
0.315208510995730   0.155491182413400   0.107266559137412
0.542245701370963   0.079469240782293   0.303577912160032
0.489507660224849   0.216771320695626   0.336824045493396
0.395369593408108   0.262517118531281   0.433157664239386
0.445863112251546   0.253369714305107   0.245942947642475
0.445147796971061   0.135574134192816   0.505745267065552
0.305016840579647   0.072887487064642   0.656184024927336
0.683332354073650   0.974616102702880   0.750346182939298
0.474807185766065   0.001962135986251   0.637502932395209
0.139181660386297   0.132248973366044   0.584916767587478
0.406969511318597   0.244991747736435   0.773129046613004
0.240082906318398   0.167406274748179   0.769970784031915
0.540230634401179   0.090629059036403   0.841640882620703
0.182807957946189   0.165819937719933   0.025865766823709
0.169083328990916   0.149190750755263   0.852032161309532
0.371379908184377   0.080094700348629   0.891167580799328
0.652185923731163   0.362618773593938   0.906469647015175
0.486778192638392   0.335409665231972   0.974959497740615
0.720250527237011   0.266104016644524   0.294918175926255
0.482547343904538   0.997663830956588   0.002000534541343
0.177328963562942   0.175355433542521   0.189503946778397
0.316498228121722   0.221150050255638   0.459396737664479
0.415505728680380   0.131102382019712   0.237288158950366
0.283830050019915   0.208830063170543   0.269398736573089
0.336328018083062   0.228135649060604   0.373123505327483
0.448048995228624   0.048115026085020   0.335580597305387
0.556870261307183   0.308207940785171   0.608788006424840
0.352345214205379   0.027016944200116   0.694540073380058
0.300865433270765   0.157861999047586   0.650808091830293
0.532756242045834   0.945328601487490   0.818171098975074
0.500157439736198   0.090756226328100   0.681524568398059
0.436241958924064   0.100734428758525   0.903502731205337
0.261275277517579   0.199312354152853   0.117300160778587
0.525978867290357   0.221345977651022   0.063437089989655
0.462147098923540   0.032608459862927   0.945771745133249
0.511328344841716   0.308393883840390   0.064297466357052
0.330345592114069   0.297409742465936   0.195541424500207
0.392630716761047   0.224014151167782   0.994488783774893
0.361689025699283   0.273182696116485   0.189328400796693
0.570138685397738   0.190320082794745   0.130162183551882
0.490892609624253   0.126466103466004   0.397728388439927
0.490282669703810   0.245903744179216   0.249068391644249
0.475993450128701   0.106567824909626   0.328327428241002
0.336331321991010   0.340363990403188   0.413177998869437
0.431137621941456   0.261990489233679   0.487742607530118
0.457599318424458   0.284629052187965   0.583492200050271
0.207098473927562   0.220634154581593   0.549156457752335
0.308954281446009   0.239024411488287   0.648165195766682
0.139673505375089   0.357035547065377   0.687872594860192
0.329725257712610   0.416445750918685   0.600201859852866
0.178339696471015   0.322935612770511   0.931410570244887
0.273431328583023   0.462803607104020   0.660015528040844
0.619589512420927   0.460125671353042   0.842053166384296
0.371459288381003   0.284178998925076   0.020135036081587
0.268625211425957   0.182337607496220   0.742410711468541
0.259130061228488   0.314461148592406   0.005145908662193
0.434730465749152   0.130810225999087   0.876688724929660
0.475248141507310   0.430444285830988   0.094673415447371
0.452465714672145   0.315702753124765   0.041691180070113
0.487007614875445   0.346825157973849   0.240691694853077
0.244861958295505   0.136988851123997   0.138748758541536
0.311582000499337   0.463814779702277   0.337665085575349
0.157923187342067   0.233475862796674   0.333635371032309
0.306003406846539   0.295538079504271   0.228762906228781
0.363568742255547   0.198357375339059   0.574928222518139
0.333678517710330   0.340683514245022   0.607228831207817
0.441072426652417   0.108467486818744   0.574232240672262
0.438196991846323   0.413008543636035   0.621985541668629
0.143705948698140   0.414817667407312   0.795398719984037
0.430975520143471   0.339246167340124   0.615293127244740
0.255927036827236   0.220313777813809   0.689531650198938
0.528858689604913   0.414228349734690   0.909808611553238
0.468450923102923   0.374508313904168   0.857006342577601
0.407186734486945   0.367813494500517   0.912085052994475
0.373263605855118   0.002895575458212   0.903333697854887
0.447947808588015   0.329449085300143   0.979353330559616
0.361259130333894   0.110598956286974   0.966456244214363
0.336027441720435   0.539161680175340   0.041065541677079
0.422032506717271   0.373731983633298   0.321237498912982
0.589220882717280   0.303042192803597   0.126859769709645
0.186883220035796   0.138694965894566   0.055524903754803
0.313130547940303   0.523912933090383   0.359090663238334
0.326414323738947   0.382793448914379   0.354810676117369
0.309943262060123   0.331912861726479   0.301846645341355
0.522757659521621   0.339296800455327   0.501933515267116
0.363340792308285   0.439832193255261   0.607706262284824
0.489858296300513   0.481963978369961   0.798738821194007
0.400015190552872   0.332797682161298   0.680610461050861
0.336327080785639   0.338950386685517   0.519670104322698
0.390074969031555   0.246903501522373   0.807271349928350
0.519850610565502   0.481878070673175   0.750797297305301
0.427108759421151   0.477206150834548   0.656547518427515
0.561229350848226   0.214158493569183   0.699514700916544
0.516149648866292   0.469199148332900   0.063725723538110
0.467890084067428   0.406561794302353   0.880314448426320
0.608949509711337   0.461138505271855   0.096081092512565
0.707255012362463   0.342507585975478   0.930296912662908
0.276805618588212   0.422183854540892   0.809829686002449
0.118375532420292   0.399089000160160   0.243363341628136
0.431286203158727   0.522909984264356   0.260244728929859
0.509218458823947   0.230245598483697   0.176275265411810
0.380478810436796   0.547519828229539   0.180476765993894
0.431238154137848   0.457603403471427   0.436114237122406
0.589456784671730   0.332130480534302   0.518788608696278
0.657107466940073   0.364311814724909   0.245152027966326
0.258745241250275   0.493053759156055   0.445147668027331
0.397236854421469   0.320151028400218   0.614524999546641
0.301354758992130   0.400984699563918   0.544033781981387
0.490539724475946   0.409747138852614   0.578568959009337
0.483891667523479   0.209618951324791   0.668361653082921
0.304777451610428   0.450732785378959   0.758106638437723
0.212290804556201   0.411851930886604   0.856919721878050
0.251966133138500   0.325833224831246   0.764850434106947
0.454052383552287   0.232250510075445   0.021182790397704
0.264790528344500   0.304673904360045   0.882215055733121
0.298780897443254   0.411538460270911   0.979291874148512
0.471987394416877   0.262501472209609   0.120212738683579
0.407359736680692   0.420108296989996   0.187560569106605
0.412199473512436   0.200742386753804   0.198557939631846
0.413918092392464   0.311741734843538   0.195194170970198
0.498040486798212   0.676190136011527   0.352504980468908
0.375625439773434   0.566187281581510   0.147639498270566
0.192687546928013   0.544265682502632   0.375870308428995
0.466261800542082   0.449584911553289   0.479672985148395
0.303826571172494   0.581828497993052   0.412777417838778
0.217311867386986   0.644073163600476   0.533643225197349
0.253343745524596   0.648881063954727   0.618114711807237
0.290942342599490   0.394745462994185   0.508214105321371
0.477729348410960   0.459217263205984   0.543280260386034
0.123184750289422   0.387572872542038   0.712545967048954
0.379199214085638   0.375181227292176   0.764280924730171
0.479130649514076   0.532284995270453   0.930385699076831
0.445612990481155   0.484902475901932   0.972885289394872
0.243290870702769   0.445058254685758   0.964647216436748
0.339399780540494   0.466565329842947   0.035556564677252
0.358320711967344   0.438609800357864   0.975718679069526
0.387844315242131   0.294063553589111   0.169124678230641
0.286762414525239   0.413425933970735   0.014540541925249
0.673081532145414   0.360571069365355   0.184888910781070
0.386498376484068   0.722449356273636   0.309857515173555
0.305950468128561   0.370056696488847   0.293494256790804
0.575474755017869   0.447546055327306   0.108028585558731
0.265416709537977   0.590550284716215   0.535027633827331
0.357221524838190   0.556776476497479   0.428266029502741
0.398876386810302   0.554648118670341   0.553988633785316
0.125732360367354   0.339891755176856   0.371221286204168
0.421176330953500   0.661370634411074   0.468444029141384
0.352060953171330   0.545972155267686   0.662244271263732
0.470633307726309   0.544042776986441   0.708349623754695
0.330834820888046   0.444617989619511   0.686327377344157
0.414106974659042   0.668799737492666   0.810088702816219
0.349396858218177   0.472606172358805   0.701916740665809
0.253767107945631   0.511029334553021   0.058979853716702
0.506738285333904   0.362979186442247   0.992200621224965
0.509982841203415   0.447697254141133   0.094249628984100
0.542304901753724   0.255365706879482   0.959843213066360
0.312386715296210   0.433557460150348   0.081059735430659
0.384906577312878   0.534801856449851   0.968289646122818
0.302835122274003   0.396773060566382   0.322966411009487
0.210199708391744   0.326592159088572   0.235395357665695
0.414567376686632   0.503520724588877   0.204462784280326
0.296232911446107   0.649016595210485   0.115674942036166
0.346725622739798   0.629470759127033   0.389777935475933
0.612602467702476   0.287101873868777   0.278810907607370
0.435862876287080   0.647492540610160   0.364583481908859
0.271750951279882   0.596116620355014   0.655384563936216
0.442758804598220   0.722392002677563   0.426502909619593
0.245777419464490   0.347910483367403   0.527119363729085
0.217809203283305   0.549433077718368   0.554786692968589
0.530580418266962   0.559496170425816   0.746708336692371
0.256957821169724   0.585865210802992   0.845959855225470
0.228791303189226   0.497746627371542   0.738743532261139
0.612742467391630   0.564703484058284   0.861986915984453
0.364772658761694   0.675364033738716   0.853646119912285
0.213872898969588   0.683187140190938   0.891498887846279
0.421419984150191   0.618946254960136   0.957041445446643
0.376069188748156   0.737552107971724   0.155512348569654
0.498961910307851   0.501323366084673   0.118360704543734
0.323638069074933   0.515817066438099   0.157793740177668
0.455195870943568   0.551446163106237   0.024919648538026
0.336453193236291   0.582369259244213   0.152565490425029
0.473060388623127   0.704107925111637   0.406024975062716
0.484870310524026   0.592945086118979   0.321839583259019
0.330342767844055   0.707326033435348   0.278073089410045
0.485143703882449   0.509269879133151   0.340422853754354
0.412519565506864   0.466356791903180   0.339650063863861
0.391267915235567   0.433253945117087   0.568278116965198
0.337107836067745   0.554785341034684   0.552408273944073
0.414180361092695   0.604973322947266   0.722634730878991
0.330267240986420   0.629655872306909   0.662155910117359
0.426165699892470   0.639883758730814   0.743806765079073
0.408305977331246   0.506468532245285   0.030138380199134
0.335600097691198   0.620255704617290   0.960065667371316
0.347146301963976   0.540426809325926   0.762775104839947
0.257422824036959   0.730073857311720   0.916286208112302
0.311914714043752   0.560004598599997   0.063877183100847
0.401452835035124   0.623913434573286   0.046910653560584
0.451919834787829   0.691203907720740   0.037237833682683
0.366205309025730   0.460463390375863   0.215976410184725
0.445508334522612   0.737391293173620   0.147588731563091
0.283025024425043   0.656606970917360   0.381545180987285
0.233390093052458   0.465461813252805   0.459147389124686
0.156252936998496   0.541354952834273   0.163074445632480
0.447259467276719   0.581049182219656   0.271895038712252
0.370160773967078   0.696546485191836   0.284515215505360
0.280890751334357   0.565736420662838   0.559636669861152
0.350080562949969   0.759610290150111   0.514629568191382
0.350489211212888   0.641955484032200   0.715772700330603
0.463063680430974   0.701251695115499   0.552452808906884
0.324094623778681   0.687265358706422   0.564271700258583
0.583287308998809   0.794010068807179   0.743930919577520
0.437080282019750   0.565849912499433   0.775455417614669
0.459011628324062   0.705824746722152   0.121512185682475
0.503440442645362   0.597782746212143   0.004082155360850
0.471077001050559   0.579113290444064   0.763172722123302
0.582872555304345   0.924238093668489   0.058311869176181
0.381399542964272   0.607219772752481   0.077386050154774
0.500884831854530   0.669008036626470   0.956350797820892
0.382276137046749   0.857299720363333   0.110296241024900
0.235511668987687   0.785393027111618   0.244799501381216
0.207823789794410   0.680073893766085   0.200813414857876
0.293256259179298   0.672910343924353   0.307378714631625
0.411225056024322   0.888730232408571   0.408872327688576
0.327158974276805   0.593935609756142   0.383960503784697
0.390968308985950   0.668061395768755   0.592161699061926
0.457221709375498   0.791263419463662   0.520363760322595
0.294547478013501   0.783409542658833   0.707510507877148
0.203235348573490   0.692154160270278   0.426231119028691
0.352549358056697   0.660894174092884   0.649436924246725
0.273539588900480   0.742043141948351   0.620453034927126
0.378131419690869   0.695100981673783   0.753543730266539
0.514240471514237   0.491234216642933   0.630786133340046
0.482868305582750   0.897384329619279   0.788810246724457
0.534043436239890   0.674573505903711   0.694261297375891
0.369527837426358   0.710925041412121   0.916933068931116
0.633291560291503   0.945746522759629   0.025246706532131
0.374933593587197   0.762621656548500   0.791952601149069
0.558299101776655   0.851868547942568   0.122585096595473
0.424691625742044   0.652433640785916   0.166848545239634
0.438942131947502   0.707795143208713   0.352709515784406
0.312083765522664   0.880640225422233   0.317135491511654
0.504534892019264   0.678638336160498   0.203419958421339
0.265001338862787   0.694429716618072   0.259135582596545
0.337931040857080   0.721034512641641   0.373025436530507
0.361468893876248   0.667271502857476   0.445150343012719
0.434240433351410   0.696617769650083   0.522023317057032
0.345319084865065   0.767436602732858   0.280219595864293
0.330125998961371   0.796227608004897   0.568684061092174
0.401267468935333   0.710763798984932   0.679047705186076
0.560938223071799   0.542548652979045   0.725341910595377
0.240544898136949   0.655087529644182   0.841250781022496
0.275161908941695   0.704350324684231   0.744287375162267
0.558427087188866   0.839372373776859   0.810751618797577
0.277962567732158   0.723379725405938   0.026426323714795
0.068018650235744   0.748127348188361   0.931834737873887
0.404251056368931   0.757410338726836   0.974182699309703
0.419330585501368   0.813407636404972   0.285844271101104
0.365878024554790   0.775544666042483   0.211792583669492
0.457801338968409   0.905879718786845   0.152893509786307
0.379921361679626   0.017782963444184   0.013195009915827
0.432556788197234   0.710032980204998   0.275371432921585
0.193100193641439   0.493688988548596   0.154561428278307
0.335611276655608   0.913201497549400   0.228402964237661
0.477601836087162   0.775335237247829   0.398728223949843
0.455909595532824   0.991838238802999   0.160881414120796
0.487985977929246   0.909534609926364   0.571178693662439
0.403093386824435   0.813072443434867   0.405397904935599
0.307437689660465   0.768630781255255   0.345038101335412
0.352372355970561   0.839890833266067   0.735709663063356
0.318905448719494   0.754545855063682   0.701618575611519
0.164225385583788   0.702265886541809   0.735595722861419
0.415134314171308   0.720810530966621   0.844607157904109
0.562591601367512   0.761740063094777   0.909241414896901
0.204998478691167   0.843754478904498   0.689658726442956
0.486669873703971   0.815273293662275   0.093939926316192
0.478637747366136   0.994551591143762   0.769535611948797
0.395895220883559   0.902201064780696   0.163255893907752
0.495519323914893   0.917615684062845   0.103772197636628
0.540396982146459   0.916814187749273   0.263415668421582
0.530175398854631   0.926060592612365   0.221395908004541
0.376566150751685   0.967998191405119   0.067816078083563
0.163391925239227   0.851375293558985   0.184537961886065
0.454107554911603   0.005306151545615   0.291636265492626
0.532478250949002   0.807513357274590   0.340575669185543
0.473224714999197   0.023206830062086   0.459088395065196
0.169115390911390   0.807708648628848   0.262665168325917
0.363120912922842   0.817713472061699   0.549305805415421
0.411453193271020   0.775310560091331   0.397657542016328
0.200068069143261   0.903454387494746   0.676553214371661
0.305384118309475   0.910326642230713   0.612086607297228
0.373633856689398   0.841955408425423   0.818938557270549
0.293629700743222   0.982234353172195   0.756177312445797
0.350901981382819   0.672663152360806   0.915802434773571
0.317929147907895   0.850830497472040   0.787894984329594
0.513245039452634   0.653433898059736   0.872808321298189
0.375621564637235   0.806836706991940   0.741812743292365
0.398238342111487   0.025044950226214   0.104386160597856
0.371232700020426   0.937068124365609   0.227812989516348
0.235146922699517   0.759530737585050   0.276040730541292
0.423975183579694   0.899925503305440   0.136256792031290
0.453288380155093   0.802921543403074   0.129430063939718
0.584123305420648   0.844237711774845   0.192451026744675
0.473375413929811   0.777362945457080   0.359137978190866
0.469974604751154   0.870386945158829   0.325473998489359
0.493578182954341   0.001952643527194   0.389834020915394
0.415937045677856   0.977322667928137   0.556565781385705
0.434349929661530   0.895896050205292   0.737250042504739
0.323087820469767   0.760547626220150   0.547863410767547
0.223116396652145   0.815786703849629   0.711903986306524
0.450613503394298   0.998596473778299   0.603903328225268
0.522302275533571   0.911609242194484   0.552468835193237
0.174568246662572   0.053148876026811   0.935428427173602
0.479876123918709   0.822328187430313   0.765952577963792
0.541957456568044   0.972621945696891   0.693707441520085
0.230304059375817   0.875752612330053   0.994301797308578
0.518625690528419   0.040105766051086   0.970893932093118
0.399181155419043   0.004855478311273   0.987778815251604
0.467157849520106   0.096765102291870   0.008485342963392
0.502773637747056   0.664892231660978   0.022068003256272
0.483153296797901   0.231143659952987   0.402525099259375
0.481683397956682   0.822772465956268   0.247620943925352
0.419812878659574   0.038391632066273   0.239359275706030
0.443949565116449   0.009953200360513   0.329432727478059
0.259883905456776   0.990039677313377   0.513271368642962
0.550677875691634   0.938129931753206   0.559837687531489
0.449913213792475   0.962340373805900   0.236529920297856
0.512711326119641   0.972246817455219   0.509532292968631
0.396852160297821   0.908746959476733   0.743175778290327
0.279407235685137   0.972322636590835   0.463995478564361
0.229776747629990   0.799747759798129   0.641111886699860
0.334510278307066   0.739497781519115   0.829657845870266
0.407128613981393   0.991073927304188   0.705317526505033
0.463691701682653   0.878222003221513   0.812315550710894
0.385463676709303   0.875269192643432   0.072249630891677
0.406081493283229   0.896898870816141   0.910053366153454
0.327196120785066   0.876051525893802   0.075786521247487
0.370662143993338   0.769050910567005   0.981965182092121
0.407663830256465   0.810493358674568   0.163440435348169
0.575032401358653   0.900532657563008   0.270776829192430
0.601457576817651   0.101768146999080   0.130322293896608
0.254988108918483   0.875119960308725   0.210203182430141
0.487303266514034   0.098524431109155   0.459678910558824
0.326528211199353   0.913943394523673   0.324934389096457
0.510670354789396   0.109209021256680   0.578112436920174
0.394157023865666   0.995729227396096   0.414328470970629
0.509787477638930   0.086557063756243   0.640823941192298
0.209195322872581   0.023426982887280   0.743093391890512
0.697040405457118   0.115718770477505   0.601473913846343
0.449282573866500   0.024254067699783   0.524514536986469
0.437522294117944   0.857182583746819   0.727813247954326
0.340509736351598   0.868698491581901   0.760106007570098
0.512299736065218   0.128284562756169   0.692155750486910
0.430139967103557   0.053568428779888   0.058781416527853
0.326539924386600   0.023952521813388   0.831179959807892
0.279305776619561   0.047286134124324   0.055184187794578
0.403822477549866   0.011562529185709   0.836466321583622
0.635051523901390   0.244890108686161   0.156411574965264
0.529189960559184   0.935741400854138   0.094882037531517
0.331346981646853   0.929198501856372   0.357783222784575
0.384574404259141   0.138397101690004   0.173588210300901
0.515877663660688   0.991483136572470   0.421297831698180
0.440693458531537   0.221261807309600   0.533129869512852
0.490215666469718   0.071034222312930   0.380337707283824
0.560049760785562   0.141184750060914   0.294777798258331
0.360771323045905   0.216353341295352   0.538272574860355
0.460580575353418   0.950166716452441   0.356350772047053
0.501840166512298   0.112506853599608   0.522797710888714
0.382946820056663   0.067439316697762   0.376673625704252
0.476906270606217   0.938648969992457   0.743486042468908
0.476898271757495   0.942966298212566   0.591491403901053
0.569628078680359   0.140702184656340   0.577242250260439
0.579797752236346   0.989305791964063   0.779308588372328
0.470947359264709   0.858807262443747   0.700663122808131
0.568874544871723   0.155524226092709   0.934748442737885
0.599507290442826   0.080998828514848   0.849819670132312
0.364288408230403   0.001887614207820   0.049314757695039
0.422418862799254   0.175308125006755   0.833886288989179
0.359378072874201   0.868081633090433   0.977090043536219
0.333599640542883   0.978257712181759   0.112026032007673
0.467712453930749   0.933988038986191   0.392212135427343
0.652104133380677   0.048782629105083   0.319192838786597
0.563665164047788   0.969670663943815   0.300439773659397
0.477342972583152   0.069530312322470   0.313782170256137
0.529281192847254   0.190805569748988   0.477068024525254
0.442332530697513   0.172223651163080   0.457953224720457
0.519808432985091   0.086927793410439   0.548891959712372
0.475409995275504   0.121006826059536   0.591548935775204
0.400963980660747   0.105025170013880   0.704597251906674
0.694581045346960   0.983036536300958   0.574276211236782
0.420003420207696   0.198188796173457   0.665054003462121
0.436521820016825   0.030233432619839   0.791052903021492
0.549553961850875   0.096585128405418   0.777861111514728
0.400414009422519   0.917831963337710   0.966439341141829
0.398642992132237   0.051332899449556   0.833691324818650
0.361803280862970   0.901154793149783   0.954167356092447
0.371229557834785   0.213255572430065   0.815880306066600
0.542919251055029   0.109958115550496   0.032856262482179
0.523065176047010   0.102105682752355   0.978959734942222
0.329346063149494   0.282139313233807   0.081839920776337
0.555806879627569   0.191268174363890   0.348936943727790
0.313524829742721   0.114695888317651   0.245582944748842
0.527787123626543   0.143526596248565   0.215468671707031
0.296339402235992   0.170211979807306   0.272441959031851
0.377191777688604   0.094979664733458   0.554363914021895
0.449386546704818   0.084673996683389   0.547488169907593
0.339777848208198   0.152410230231317   0.648883564536394
0.295117043507888   0.018827734900671   0.561255477038990
0.467051622441425   0.152259261986418   0.931774741023015
0.540101810195053   0.137273375860364   0.664427555485677
0.564026327874068   0.144163058030003   0.405788313671481
0.396882968167897   0.229431031773545   0.654012708574266
0.363033662781697   0.217566136301296   0.678493295432413
0.551761586272724   0.219344383640676   0.735085624936359
0.493049332998848   0.179410911020932   0.766235425510978
0.466562201570746   0.131902822568918   0.858646258251517
0.427707159194432   0.203200136960992   0.004326653409228
0.380270118927635   0.290900188727147   0.130958754561243
0.179536015285124   0.165550723398017   0.151137171608019
0.446829579203450   0.163074792711686   0.285383569839481
0.563625546227943   0.384343633334379   0.050705028191921
0.533429223740590   0.349684568881678   0.277165560584321
0.385329355753621   0.249138872940268   0.528880845544635
0.438762632996237   0.253247837405741   0.322559359086795
0.529087517439047   0.396402807137657   0.372889954689618
0.421425123215199   0.396402310866805   0.459852884363150
0.340083408655357   0.159928158492974   0.385614143524960
0.484747305691324   0.161917221365918   0.593936802564597
0.531732126772387   0.134471545614875   0.726325948203366
0.153664223885062   0.122372616847390   0.878704800251445
0.449413701885154   0.264149428988607   0.646321920825800
0.567433670879307   0.197955030616217   0.761857498223346
0.458620433624397   0.276553861992698   0.789708091525553
0.305082804469298   0.371431942548525   0.566875923226283
0.543563123427116   0.311095134349615   0.923769063655092
0.163657203915945   0.410035399392707   0.981718469161092
0.364666153109978   0.064134937631235   0.064818150031452
0.610553176869488   0.319837184577659   0.974396981652430
0.221635892538989   0.304028605153980   0.267029418799152
0.477237187592355   0.312853994174023   0.169388168754027
0.603460542428502   0.985037498441087   0.343856537451164
0.626249694570879   0.398227197895727   0.196575765746562
0.422252757332656   0.207732710466853   0.378933274327504
0.464201535095538   0.177744056787517   0.429287852920026
0.452758357490916   0.361569291284808   0.385487279914717
0.502135644927531   0.324712978609062   0.469053287908485
0.369042700363970   0.347727460546295   0.664859099669083
0.456492384371325   0.147124899350035   0.664965358804048
0.501721712527510   0.487802929851071   0.717525760798632
0.583666497659199   0.177006370569015   0.854145691152944
0.571601288695789   0.091923760110232   0.630302717016047
0.411260586767424   0.390030794111269   0.828245248827040
0.409341780602616   0.268326108663671   0.905092583438299
0.350524251335833   0.117978426146884   0.669991076198843
0.428838069616711   0.205253688301510   0.920846921692922
0.627388995638410   0.165077397787014   0.772311981645425
0.588791360767643   0.221027622986933   0.999032751789479
0.453688848349263   0.298338781268604   0.008824144353359
0.369792448517280   0.352634191598727   0.210484797488966
0.458074382731747   0.466590951498325   0.042710212734733
0.376517153710081   0.330213665066502   0.241906731231125
0.517017857469915   0.301499310972748   0.173559799540982
0.532293206162842   0.311995488291663   0.440088343995701
0.541261094661142   0.336039434014579   0.349728125127239
0.486799466271799   0.289365504602654   0.477824727751903
0.349521388175846   0.218888878545079   0.315902123739631
0.497940825049190   0.402541916666999   0.510883688236260
0.337810271515034   0.380179641231793   0.465891817445018
0.528467510804984   0.376195425998014   0.643159639203858
0.244292756579447   0.390399942622135   0.687996930491113
0.530311092613754   0.374695720324182   0.778056710961473
0.625206262305007   0.355267649124081   0.773178183390717
0.490513268100023   0.242459899670312   0.009391667336912
0.455770659800871   0.403581496562370   0.918646222502319
0.574441657996695   0.236981489664686   0.967314497131633
0.458334034948739   0.116254219804595   0.935190062087060
0.494048721818850   0.282512321838767   0.004703964902130
0.618327540273299   0.430809399608614   0.041202809904186
0.363177104073189   0.432445020220434   0.129975146420976
0.379034679414842   0.389723796444971   0.086649085634723
0.301238642393856   0.407203883731485   0.198367196373000
0.444822829180953   0.104174696141093   0.112698645926733
0.384966511701177   0.423610722963449   0.306848353495368
0.524884190889357   0.500047501817137   0.526426014866862
0.304127534856557   0.184906056986924   0.597261397259665
0.390096390179939   0.217420227462695   0.438530573211634
0.287560966196111   0.418946698632597   0.407202181267137
0.391954260588892   0.292458051252470   0.403135292565042
0.489149202208614   0.403572380702768   0.712183229579974
0.428750866179273   0.429211773960494   0.831638847119659
0.145622518130348   0.481322915639490   0.773196826910073
0.423332998523293   0.544382245751642   0.583440364661195
0.512788038188789   0.204712182530801   0.794032891870811
0.496660656940703   0.437457371377780   0.633749985648464
0.433985185599496   0.263267346228118   0.004907266416714
0.509886320053353   0.511653361670612   0.927375437478255
0.506098026634939   0.485053049179677   0.000198735422156
0.307290799767501   0.352082868768849   0.202389932065546
0.431056333722042   0.358862717909168   0.138447797221854
0.274212398076154   0.425952455101330   0.957270087131932
0.653634537950065   0.494600801057390   0.964981896747902
0.427798990408634   0.563322418216117   0.342561973153762
0.777181912526610   0.501937123761756   0.470168147790079
0.482167804180379   0.387480121550883   0.294015490425399
0.442882596543775   0.268028436037776   0.360495678968703
0.648894840092945   0.345145048882003   0.541219083078039
0.488710601226229   0.547929473594715   0.384517761780899
0.549886616255660   0.529575948878859   0.599991743557059
0.413535042571019   0.341437494812918   0.485731761424126
0.621351801916835   0.328459559328849   0.598428635927758
0.435498961230400   0.543931539015954   0.645601144831749
0.442552629872450   0.367772948265477   0.919515616379339
0.238237089904588   0.439726890484566   0.741129419718852
0.592465062328174   0.354655219757822   0.751422196467830
0.285654484537976   0.224746862161689   0.024176999878863
0.462846299133127   0.251401216260840   0.819082822723909
0.706258287223373   0.501605817881017   0.257485728787515
0.571387360781400   0.375163565026725   0.974529602125239
0.363301968281621   0.358417156591391   0.098146539821769
0.490911567463488   0.528120717118502   0.145559985368421
0.247983732160040   0.496553169449482   0.285067750931676
0.638235834246741   0.515111321632058   0.271215487419409
0.508046224002829   0.486641220903029   0.319505890830223
0.438487400571549   0.592411584839387   0.230763776398099
0.694939574699691   0.393350218682128   0.428181957783378
0.448395785386117   0.449655074817687   0.515115255234086
0.493891217062560   0.462760871573967   0.381161841668135
0.578544772741331   0.269871978494618   0.552044995702778
0.346509847578610   0.561368024264219   0.513819039743544
0.593195633307615   0.307380926078414   0.551438068031872
0.276908487621302   0.460977977259959   0.519509875585586
0.787924035921676   0.416396863978657   0.733125847687810
0.509038518949680   0.407535823891130   0.875322337668360
0.438047674992149   0.360075071582268   0.839382688307466
0.563440738276450   0.513845649136844   0.004431304061566
0.415680033460464   0.455807325807057   0.772613813976051
0.437896068708729   0.582930792659423   0.085943442865171
0.482427300369329   0.469385986151849   0.969401313872683
0.433172335000771   0.326375308714531   0.116924246578347
0.403038829452896   0.307990045008072   0.100241287540104
0.396658955054554   0.481803781607627   0.092624605549738
0.440840595373821   0.603817869739739   0.424973406002019
0.537373878197282   0.560738453332426   0.234684321086058
0.455881209457231   0.453198448845668   0.124121862050219
0.648164602063413   0.637395524078375   0.420811929396593
0.470585769433300   0.430733056237825   0.605175279839520
0.476163423470689   0.369041668244870   0.417229236675671
0.643052015642093   0.594473418790521   0.513576101718292
0.621565613222044   0.398639592480026   0.619281606586139
0.314715092728783   0.584628560572960   0.575681221716935
0.514284835766780   0.423162337965232   0.693256361280490
0.255597145366519   0.397853875199688   0.904111932220055
0.384640857241032   0.430006735735294   0.781892994397248
0.451752894177494   0.524711505944698   0.961336343182920
0.413754361492911   0.549876994099994   0.828221452220033
0.197801805693466   0.387607129038538   0.885903094051309
0.358207079808084   0.404593265577495   0.033976102456784
0.329565437548165   0.377959313073968   0.031621367947151
0.440428917069574   0.526747676923702   0.050432707329137
0.389349701168170   0.558612119102702   0.883290344731754
0.412460043931476   0.742627487444480   0.170124790951998
0.274634219388482   0.575736332824225   0.208932775429630
0.538741931685618   0.522772508696037   0.232190514637384
0.436864867350488   0.604219297749693   0.488285138668590
0.422922452075737   0.598825704078305   0.329508698113116
0.308763255225260   0.532523862666556   0.465580899614464
0.428611406938143   0.512881617523993   0.510001512706783
0.472275684025581   0.547741251853711   0.629967246547287
0.178985604661508   0.563324791009935   0.562380467213627
0.404442820955138   0.673999070487086   0.730621580969975
0.597841650123801   0.603859388883104   0.714614334528664
0.546555085656953   0.573068979024219   0.864993347549976
0.595192340263427   0.497786522092716   0.688002960364947
0.328933915151277   0.361612794616941   0.900469384404110
0.523760961011291   0.490111721897467   0.818363254279690
0.330779569128216   0.416359405151196   0.956190910347863
0.535177917937840   0.577338433560360   0.005604118801015
0.514838604720064   0.662408942398726   0.130114641789990
0.637750207621124   0.572545525172708   0.174206081260899
0.424964618240192   0.544741768610013   0.083101801162482
0.580152771573640   0.658853847802564   0.225472578910315
0.415682523968941   0.716508841062052   0.200529223517736
0.422089298989922   0.680193461743510   0.372348717729552
0.197541584736305   0.619314380704891   0.278634374322424
0.586946144278671   0.832552035362391   0.375244204341743
0.522002563369652   0.561272188245639   0.439905234814388
0.401255744192901   0.594497745626983   0.544776380500981
0.404331322874452   0.401726195453772   0.497699814056219
0.493568123161340   0.590205260737553   0.454892579417711
0.386595422502692   0.653033029360563   0.557987839319350
0.450448801471019   0.631785199526672   0.516008876235880
0.534442931413187   0.612793615096197   0.686081037178510
0.476775656455934   0.663845329543764   0.926502308072082
0.487328761426034   0.495783945209869   0.601243749598222
0.397652421313203   0.621948047487932   0.894428534993162
0.706297509385859   0.507021953089775   0.869118277397238
0.207926009205923   0.590695837187538   0.940311924074426
0.570350528878090   0.682707856124902   0.086703590233948
0.366301867710732   0.643425754669316   0.158645895493309
0.434742057007104   0.586940934643551   0.980098640816114
0.427709273287772   0.684059012232474   0.099875465306326
0.339801117326637   0.889556387876861   0.170960133236321
0.427107691070335   0.481567342077865   0.372659302171349
0.459162718735886   0.483359942556432   0.456844515467679
0.534102779123565   0.387611170632256   0.461593021422872
0.414151480040814   0.605819392127347   0.619111189803600
0.393327713262817   0.689169373590907   0.457590615881785
0.204817827382478   0.904734666959349   0.422461030324554
0.386158460707822   0.463085628792287   0.491806963002675
0.737488171107964   0.497541244754280   0.588763186566514
0.458150732352260   0.546894896144305   0.566620345304424
0.540562468816688   0.744287536358585   0.661574186111526
0.512461433335966   0.463431106534453   0.691061531832112
0.638270350124003   0.544176756342220   0.808714098965848
0.297962921846757   0.738355078095790   0.822964517908678
0.392445201685508   0.726721456284604   0.231270545423286
0.576220199197796   0.647653200794517   0.038285504966625
0.281946204370956   0.753508939528140   0.893902964679607
0.382645118169601   0.731926830812397   0.094385065673126
0.432302333243732   0.815747020759900   0.063506408075184
0.498814872894776   0.837357452165148   0.155398712355262
0.424728164258433   0.670380092330348   0.303789642897462
0.342022530653772   0.880247240460228   0.207034249571224
0.501232264541915   0.791157260739965   0.475916499755622
0.257258245498639   0.722967264208198   0.398205879894426
0.434627064472207   0.832936374079935   0.147587584915773
0.430948555871228   0.537424521428861   0.402670154870342
0.329180979383246   0.685488186918122   0.429925042839754
0.503681586787926   0.636664218064280   0.549761295837010
0.463607534164906   0.587512747503105   0.561337170410206
0.411630626683972   0.777565587546030   0.789497090568239
0.358973036670389   0.772942743849185   0.756895153568734
0.441213782726149   0.834151444165617   0.762287168079405
0.480415860069399   0.566969843873830   0.911207361150025
0.331766120256499   0.610720014328065   0.829649655532277
0.306041254493561   0.774274447788654   0.944681469391162
0.465033742418123   0.634874180013153   0.071625223936960
0.279033330102701   0.654825299947335   0.973490332237996
0.622512374483540   0.711875924539218   0.203977432988977
0.534125249302562   0.563605170470286   0.089723677087980
0.664483472022968   0.729137367538358   0.337778485004969
0.438052410680928   0.782635392011055   0.343692751692266
0.306060472658842   0.709314236132000   0.353246996214453
0.476524436087931   0.709506703613341   0.364865098280239
0.448567718766173   0.656332653536235   0.229853013438913
0.438612168909866   0.610379785353301   0.548016714468886
0.657786889745415   0.872947993324472   0.522129696946980
0.218017400866806   0.561099502403392   0.489761604597474
0.329886678506247   0.721858036880047   0.413238651997392
0.341964258349464   0.730086000503606   0.644456862735998
0.388654986501928   0.671983892297402   0.666495733957587
0.229752004161003   0.591010777669430   0.768533799732308
0.271676983538368   0.595932917135770   0.963222394264032
0.554974061538750   0.810438235980740   0.834152498599772
0.595269357971164   0.871369271387906   0.637226689620580
0.468922773812577   0.790937516635942   0.067660734148031
0.456909460438106   0.702655874031570   0.928395029553460
0.223546536611819   0.587094810105029   0.148925225140777
0.317402862080678   0.606708042228214   0.058827518942848
0.438727492299892   0.643428185118283   0.105018417414012
0.462728031696238   0.969177650169168   0.128991496016465
0.398774270134687   0.885010877401367   0.196397970309530
0.477886464042366   0.762448782482308   0.254191858360337
0.550753058009978   0.750594053814344   0.274823016290237
0.495548371210442   0.874492435299307   0.356280077879738
0.290223191090134   0.761757446609952   0.526771909640800
0.458208091455170   0.840389164783856   0.480369673148413
0.249209278880585   0.805465363827719   0.495560684156377
0.329111458126080   0.927318179834680   0.585195155075612
0.444286987888346   0.762336814545896   0.418304260538363
0.208684421424343   0.833544133982272   0.650253031049764
0.429941601065931   0.459716383852012   0.809034265053047
0.360843577007049   0.650752233110606   0.611345512964707
0.349615305462194   0.619490544637464   0.998568036737220
0.452287046663565   0.840909880527068   0.972085802152668
0.696174090811138   0.983515203533523   0.949909480258943
0.491643733575955   0.806021055307298   0.130332632623253
0.618975910913868   0.810398733276023   0.062267555664327
0.253810171792648   0.735260862254990   0.094894697903969
0.364185029028374   0.798945341668099   0.924706256204940
0.594238024125220   0.039739897216776   0.003904315533236
0.526989531928273   0.751986667355304   0.362454343171320
0.566684400631193   0.769501773920699   0.301859555624120
0.275441465736931   0.960026116729167   0.090875762318241
0.390649221426338   0.833765105556402   0.372299074305932
0.370839043728004   0.855930406967263   0.449805489615279
0.248774790708306   0.918687220731899   0.645532760759764
0.343335502612054   0.082127768114521   0.498252115847894
0.339644952486833   0.938178423701881   0.474953358009936
0.435664247892225   0.030523682120764   0.585514827642446
0.534199064740958   0.940223601922648   0.497998953025698
0.295710610663587   0.634852078757843   0.820273112468244
0.677993838380230   0.569559690680743   0.901456493388845
0.280899872880517   0.740990355738629   0.856920855924848
0.562603673287500   0.762785963303474   0.973700508911295
0.396475752226918   0.822848627647472   0.003389304717937
0.474802817085048   0.030752478682858   0.846485052773642
0.527818751315318   0.903978499903919   0.004511386928822
0.417060488928536   0.780208093451656   0.184173089416481
0.301266288692399   0.906189978881250   0.026643622306992
0.507908215925651   0.085101522918954   0.130746075634684
0.199353213230251   0.820005141576998   0.315763470767880
0.393637769144819   0.871161166966018   0.379666934353236
0.251026128154784   0.083186733921960   0.450774613982848
0.413399112748851   0.758580985104429   0.246971685595100
0.457148726641553   0.018782309044100   0.397328634318391
0.581005824510070   0.701859964715169   0.340046851612984
0.483190938670690   0.706672703431988   0.612698903314667
0.444649740260280   0.944444121431162   0.682287314624082
0.480949230811294   0.880249140263366   0.602732482658330
0.552703378666181   0.838361547833776   0.542785721478043
0.205831382925915   0.737037086345331   0.773855458714637
0.444995410651578   0.854068339756217   0.667775476893361
0.285572946583512   0.778057307658058   0.615404208703706
0.406464113092656   0.959211788029655   0.679024108087302
0.360103623236370   0.863440329471273   0.045441668402908
0.648094648568643   0.971721613011870   0.899263827029730
0.458459466004995   0.001321287227205   0.064953413725839
0.201504037163763   0.903303330335905   0.085190145979091
0.158017697313772   0.032508906666415   0.218220791965465
0.439560253090694   0.767268555632718   0.119201317258050
0.243737237887647   0.013005218094882   0.133498521406551
0.453811991631337   0.054209397925212   0.375456095210781
0.634320171976629   0.800486876941589   0.434883045565188
0.383041175174853   0.854677700046612   0.601716521107945
0.407638858160828   0.749029809040443   0.493253689079293
0.533729383462938   0.805686182272759   0.533838031861378
0.452222754172797   0.867440976125502   0.537804439291942
0.629332740926427   0.933207303735453   0.738592533404914
0.503375261479016   0.049552932926617   0.546899518240879
0.450342529757746   0.725575904300929   0.792371206173519
0.564589179574103   0.943468184810805   0.676020789900257
0.390416315087708   0.917836133498235   0.564022590603648
0.419631106293061   0.970468298996236   0.597739508239729
0.379126601236635   0.099730291848525   0.765331010063733
0.487353721234545   0.947196220803227   0.890713458059179
0.655410852750106   0.079538366969878   0.164278574685418
0.667973497039472   0.962272547155190   0.012723190559147
0.467630275932664   0.124168297241031   0.039134277042651
0.395898650574936   0.991804728844813   0.126138890023816
0.443392412158486   0.869433613366547   0.269623899989841
0.459026190162908   0.043189183687057   0.117148321362675
0.484683589825828   0.950128960435013   0.324558969729137
0.561473435892878   0.044802892023056   0.574306147972173
0.553560445001886   0.084748062442922   0.388831103528298
0.637160599771990   0.918796116294537   0.277704340442990
0.500385065065733   0.837435605262017   0.379768384289740
0.225940895785424   0.011611579700849   0.462249668645539
0.560569311374996   0.077491039423284   0.549342921822093
0.596180206262959   0.160975498494743   0.669769622060160
0.449484328787963   0.047623019054847   0.697110009807866
0.566218650341440   0.954102162259970   0.793316657314172
0.551510347487973   0.777383009879884   0.648397622858182
0.598751538221960   0.974202474135499   0.852799257340057
0.436032308211700   0.073778813729321   0.999146760244232
0.495117176625714   0.881083477321373   0.997398729483763
0.447191703974540   0.179313321929780   0.981252580685410
0.586898965610006   0.154659807303789   0.035207261462659
0.487029116488721   0.241893386119907   0.208190163521984
0.423173468203397   0.964525439131818   0.124268235728078
0.449615635936702   0.023436410662251   0.215212450108610
0.393789028142219   0.203813418844283   0.074624201507382
0.470103200107409   0.039944967928813   0.493393092832026
0.326748659742758   0.992993557153409   0.263367962327909
0.548957109415312   0.104809372922643   0.469885833139884
0.418189574683176   0.163098646031862   0.321130935265452
0.590395715297903   0.956587769234977   0.400407405994153
0.272390222146109   0.039024748735470   0.582604832056518
0.438724064122271   0.938054915117617   0.603523902942637
0.549505330555017   0.949441220795916   0.596611948084037
0.533498535965832   0.036602615629620   0.675330328657197
0.517146129006668   0.915703857856567   0.792042190846140
0.596286158945739   0.096859980188051   0.661113261715695
0.603978841689140   0.251747917248194   0.909833628835619
0.350800539655877   0.096320225353856   0.787809306043934
0.323332912707993   0.114743316205421   0.806284970723731
0.383958187423963   0.992617230551318   0.805166645699142
0.507797010401508   0.978833453919902   0.945473834714468
0.495223375463488   0.131334255396545   0.068894069631222
0.615205366648507   0.214679106418448   0.171738058888749
0.443472681771714   0.168016337685879   0.085494086271705
0.622680147389253   0.161733011307811   0.311033912844610
0.630833015508630   0.222590813663206   0.419124895653270
0.419886154279482   0.055190427709433   0.433615517258472
0.781305015598006   0.833038762777934   0.543746836640099
0.393491180668558   0.260897203328463   0.494231203293083
0.506977632637101   0.970871118961161   0.270865095834903
0.641040302894429   0.066670705983139   0.510293794893306
0.516310041249453   0.954565518306019   0.431611134169187
0.389667737415559   0.230045546703634   0.613080783073586
0.372441622401637   0.105906113690798   0.728633339671808
0.420900632102670   0.328682319985720   0.862438983264780
0.606396377619965   0.196006656070293   0.757323453118246
0.505658019899742   0.266870455972513   0.719471435965234
0.399776014486463   0.186779536562230   0.896896821976232
0.237486360665639   0.055663883029355   0.948242420964899
0.649128665256795   0.271632119740836   0.957060228096741
0.486245776736705   0.204936660794241   0.152181148314497
0.540698292837373   0.161511016477403   0.123730802024960
0.350252000623233   0.091321427939060   0.090232308365017
0.726324230368319   0.259674605780653   0.038062122685874
0.271037351889946   0.142676959861529   0.285752318806536
0.350081699289579   0.174370937873212   0.228262090686773
0.365835790413220   0.970865464985204   0.422006390438064
0.552956522861338   0.011627240576186   0.412519004799923
0.584253791298704   0.195234490123093   0.403821829271150
0.404859784725129   0.098886741152072   0.580210108484167
0.589037871510175   0.072521093555705   0.384398917876602
0.527376094352161   0.056917613636183   0.731544739690693
0.619717986128604   0.148089623163243   0.525880617110094
0.482060877447109   0.216063775789412   0.820141290028367
0.452708253633771   0.184598734343214   0.649492090898271
0.410326034322878   0.352559414116019   0.709664230754193
0.639204049494262   0.309411428083816   0.950580762460547
0.518372799529674   0.930748186542306   0.032637648185687
0.685109201586428   0.045917820112254   0.051046959577303
0.656808486535559   0.237415764985358   0.865256635414999
0.490066344041310   0.011427023230925   0.964015061474796
0.325242166115927   0.072085666870853   0.343886825951071
0.421477594677768   0.122157063734751   0.177523251887100
0.597478676854053   0.164086737917634   0.142722585840793
0.350423156127222   0.054110282770130   0.137219082716855
0.591956716622401   0.089346155225984   0.255324252915529
0.534409908891567   0.270461759185842   0.439776856516639
0.496738858719614   0.098558960931798   0.423372633318405
0.442533050908403   0.293820684412387   0.707047097503729
0.473920377512467   0.288313943842525   0.547722796839874
0.244732504086741   0.148878741539156   0.625122383365749
0.572583202745155   0.208509945204165   0.587507261238615
0.424766425219993   0.422977644313038   0.692029740036874
0.579135461232733   0.108762246537325   0.497427831832409
0.414352984453014   0.265126931085914   0.661438402383179
0.515089459008936   0.331810141276035   0.726802006348717
0.487816644544571   0.206559216744558   0.735235017226286
0.442967728133711   0.248818280821859   0.767018574078939
0.515618582969302   0.393115165705807   0.939168153874799
0.533244576017478   0.134075618916539   0.060917727061349
0.456699759697400   0.202107069397816   0.284468013432486
0.554980868242828   0.177687473356265   0.281270074964103
0.609488086391114   0.356123819876030   0.292180854716029
0.324673760827704   0.226357486319797   0.195091939276433
0.568990479397932   0.136947805619689   0.221654021781046
0.450091821313230   0.314463516494919   0.434424583520970
0.487019381423890   0.206878221924991   0.435368336216534
0.432851459634053   0.322070365573747   0.514559540801582
0.414329105478562   0.322270892443808   0.420308291863132
0.285382496467407   0.138734955509600   0.321890594364079
0.674353873881504   0.198372546202651   0.518675802541140
0.442439799703950   0.223930544791550   0.492919045519656
0.445863385816330   0.444688344782096   0.749184895391788
0.454091648220379   0.394043460344684   0.700316973398685
0.345599043349568   0.360569857623962   0.776536403098377
0.533007779745791   0.350285159786173   0.850655775010605
0.558979120335653   0.300378593213276   0.783121794480778
0.584121366373749   0.419783413456444   0.774404865011825
0.365777552425573   0.122288686480457   0.142117911300368
0.654771297924429   0.308755483230937   0.011885456984893
0.434102492623429   0.428182399319432   0.978377430787448
0.485280447366444   0.357078192623473   0.094533913515586
0.465429218288173   0.167840494203447   0.215442810189812
0.678250229113350   0.216738471524834   0.327392674416792
0.719532689580690   0.424438050779965   0.183592197569989
0.466990049291142   0.316114771196052   0.234120627636787
0.258228159117131   0.357709455197779   0.084367439916223
0.345040531254731   0.449741698642688   0.418172532602385
0.628791414436447   0.463976799110778   0.500599999612319
0.413257386155906   0.190708897625379   0.700607483637086
0.462127154977713   0.320364067753010   0.596570347992339
0.418511902922222   0.435993865354257   0.650839561628948
0.407448369220436   0.292382267797267   0.689998504714486
0.502568646521989   0.358715000239455   0.756376547667578
0.428478436320264   0.479722278602150   0.580761507238577
0.375559124774443   0.090534004443143   0.516265790337878
0.600896726000167   0.309130426697540   0.655914371174615
0.490003245403553   0.301701969928627   0.774533211808274
0.572719774265296   0.215475184377813   0.163606121685498
0.430902439490017   0.202469968012342   0.078240445475353
0.370100265217155   0.402479251420725   0.880951483464657
0.404335776952589   0.304491073034206   0.925586352648620
0.452593613531097   0.217223042410175   0.322427279386302
0.532745360561373   0.536240282396872   0.541201313719756
0.513240387715360   0.362232195481099   0.363178027785399
0.391462778334281   0.394402476727579   0.329470607791254
0.512873429221815   0.417740556006800   0.446961938146280
0.447693773352603   0.353092264883333   0.538546331657396
0.522482704177014   0.461372825612499   0.351723443717462
0.415629284125919   0.197601849444020   0.471899824125655
0.412652221954017   0.255975179578758   0.590134818794256
0.412339517968247   0.508246194998620   0.599270006773360
0.714386159663238   0.524738840305829   0.491925554896571
0.430192409569935   0.376681441824234   0.606923024463181
0.276733822154568   0.469490595825615   0.854678049996639
0.402186890226355   0.265121319798179   0.839244423851748
0.422147189632607   0.409967302101737   0.557551900704599
0.337582669723053   0.465455352948725   0.997666301525579
0.583457956845807   0.209888118614171   0.095662951607268
0.583113052548771   0.467697426761044   0.849174631138679
0.564538383217841   0.603857369659714   0.281268250513814
0.254626774826912   0.431533903213189   0.021980575125901
0.588949529763890   0.405918455647775   0.032775045305614
0.338006217992240   0.282820265975004   0.119527591709822
0.752967109695553   0.191541458673247   0.176827876966268
0.652477661217129   0.281773567967328   0.278888613439034
0.474801096635644   0.357188958920434   0.351495463559472
0.728129675542023   0.331948619357624   0.395195849305382
0.652002420631102   0.404784702623386   0.479432617104198
0.372091756032249   0.272417002168907   0.465593287500671
0.453561256648170   0.453803222132859   0.294059944009852
0.435393496487441   0.452188403581092   0.398376414806839
0.684196250354683   0.263941853389022   0.490404527753794
0.474263720328752   0.337980115143312   0.778003274256316
0.532373374797555   0.203509392083042   0.588194958242604
0.251188605535723   0.404122221599707   0.864334027967029
0.509293434846397   0.262525344714648   0.899415852303312
0.587731247750493   0.295966284980148   0.870339567045837
0.375893377388027   0.381505331053741   0.849866389185253
0.346481912407396   0.435067782563494   0.059258261418171
0.131607157227302   0.495574433973493   0.066576047524088
0.408998734087595   0.648569191617249   0.980576775422154
0.443956017458148   0.435960419733555   0.066005071236778
0.597643058166003   0.564301500158152   0.191838165278902
0.299545752955698   0.375611843896479   0.169947419207450
0.612955368649231   0.338891703702671   0.176751090710053
0.534618742365451   0.422770176919077   0.342202128554161
0.360826771912386   0.318558833943060   0.390047778236454
0.516292692770581   0.442354654133312   0.282230218836077
0.442900251065755   0.446932315475323   0.328559191180094
0.420845395618614   0.507769240555361   0.636916808707816
0.505167690475819   0.699008452346054   0.430777268508299
0.441058379288593   0.452760256387448   0.711937936832551
0.581309987446401   0.329229093279612   0.586815865456989
0.393679477118540   0.402004048917696   0.910037605003043
0.566117290622999   0.477609079393867   0.881433450728858
0.493728204150119   0.457483416157207   0.770104533301306
0.535842912862650   0.174859848065879   0.932146965633498
0.354558749419301   0.594218725796648   0.935959150574808
0.276416080897668   0.494330291268949   0.996949429067615
0.671978582864261   0.659115563712124   0.956077810180591
0.543915605935403   0.386318422736853   0.120650502536151
0.730468098190547   0.524634144164843   0.052608251681683
0.545556421506693   0.378171392933232   0.251488623656749
0.400617097102124   0.599115032935985   0.234101806922619
0.312502488956301   0.502038363039928   0.324944293630185
0.384697394716244   0.715732092871064   0.488129220359355
0.415763505925681   0.553351633392433   0.280022061712709
0.573612707207199   0.541076886751761   0.546796107348452
0.624629012094166   0.489248107799896   0.601576495204537
0.488597502242221   0.493758665094652   0.529602800212325
0.500693457158041   0.663856966654045   0.672182784393418
0.415351826267523   0.533564426244145   0.769786238916346
0.594954950997520   0.666695177808666   0.454632840699150
0.584497421552265   0.364637473953906   0.675621169659247
0.325949157353266   0.529108973464089   0.679596211071107
0.424597676337342   0.550544953765049   0.868056397451952
0.263004189040028   0.486056394985866   0.092313706357453
0.381979173165286   0.464505886518563   0.958348064241495
0.597130991714723   0.519975125961452   0.988376166527323
0.434267111210001   0.478862413269062   0.178073417365616
0.532035246176230   0.505046928138753   0.198145169960702
0.473036428917906   0.736553504010340   0.181844748008504
0.639104193219335   0.410716618042251   0.371047530283834
0.570202278289306   0.506709812946304   0.344199589232781
0.489980394364649   0.493506817169268   0.257144944574474
0.507522819365000   0.534005181464293   0.355574868778082
0.355519375398491   0.565720126504405   0.388308641343006
0.405617418517084   0.775806670710158   0.466113570846050
0.541394307893626   0.682171918792194   0.629881366128285
0.463467385928666   0.525426174179709   0.529389260775256
0.258134157538039   0.789248782983219   0.582732420196660
0.654709276223790   0.543236922172909   0.549024380676949
0.664882905607602   0.542825699162560   0.615239953050416
0.422265533099111   0.686797143650112   0.606940570687255
0.389434972033793   0.610423081500852   0.792095498920989
0.265290174701053   0.604410004489185   0.003898491415394
0.362987958481923   0.687541765831450   0.949795584683847
0.419114232428193   0.490066318363663   0.893130775938922
0.413367494916775   0.608637371909119   0.106071084804126
0.374111513152175   0.533780936195920   0.120690678769092
0.649031661563737   0.744576019679002   0.094319397275708
0.569184618005624   0.632636812663638   0.136418513142487
0.502077188104659   0.576479784515292   0.231478935447856
0.380553982210768   0.661903854526908   0.301804244591616
0.263667385947155   0.710586017636341   0.224438535088734
0.463497034063828   0.457389620793444   0.162221597813261
0.251769804143026   0.858445310118538   0.321343450910272
0.722297937740707   0.516295619179604   0.350566834112995
0.345152653300674   0.563801875435224   0.632460999706262
0.456622238515040   0.721359375963729   0.464686614460262
0.690674889610427   0.756745303074264   0.564263013775120
0.790116182135120   0.507773706379961   0.844697196494705
0.565184010469616   0.559234723848981   0.803469686421225
0.464776103065721   0.738881649620094   0.985728820905093
0.713706849731679   0.678916963078566   0.873947870323622
0.588918102759574   0.634055146097027   0.813584919218549
0.475908662940162   0.583201269920022   0.977276407851860
0.469702137570700   0.571838108139280   0.104801885353447
0.425343264233282   0.695061038683648   0.060718472413766
0.499583988985032   0.621604123820925   0.084501066068034
0.301879172006776   0.929241477937435   0.210362319909720
0.462054238023884   0.622766274982371   0.226261672561110
0.573356436900769   0.429327083257822   0.344325778190183
0.578380453375043   0.792460955128071   0.066439939857373
0.628509254330995   0.435235133509263   0.186045601763895
0.631023669080672   0.721848658639869   0.280551884701758
0.390564558396059   0.681589589158290   0.393791789114445
0.614745216485521   0.752743152997267   0.508388472891946
0.523748104331060   0.665961524909122   0.442892314081306
0.618204105569902   0.818465027701911   0.551234687764039
0.478393071061031   0.607466693512680   0.422766910572224
0.518482990003419   0.543334355251407   0.579674189993577
0.496588134905667   0.763165702651945   0.717764874041047
0.451711405829552   0.578663042996117   0.880861171862795
0.494071022574842   0.597758492550276   0.790432112153499
0.622430435870612   0.748316090094032   0.791326943330232
0.335831559714394   0.572354253229905   0.815792399063968
0.509988466768152   0.694400403534121   0.790012732722091
0.371636030514818   0.675185429816871   0.025616044888508
0.588455891432150   0.586570235686487   0.066268527108734
0.543266129078009   0.727270979708211   0.215392674295869
0.459435223921529   0.702897402019588   0.000752881929956
0.600211882834228   0.657290362780792   0.152902446967615
0.444303098072742   0.564358360854632   0.198887613336393
0.448635398902628   0.738364002632520   0.249620349284222
0.558546626180055   0.803121706105883   0.405923569753053
0.630146429095552   0.761537821842930   0.294213609976140
0.599439159136848   0.724771247811543   0.425501226033412
0.514708192923432   0.773861984858399   0.592625728960910
0.644470050729188   0.536175725271629   0.486845114493538
0.592867424768024   0.385444769206186   0.642685389758146
0.393726050374708   0.702149664505526   0.527607305739844
0.498553994047489   0.829908613745499   0.708262499034345
0.569165428809262   0.920598818027914   0.771086218812232
0.333079156271638   0.574633763815053   0.774214938424181
0.553761724815186   0.706358197305264   0.930391516316890
0.446248521179506   0.752616479305482   0.590652550534339
0.497828159516702   0.759192561195297   0.891638937375661
0.437083458937973   0.848127856086040   0.888157537084743
0.482905513879850   0.679808901628043   0.142172625908259
0.509542885400073   0.598372176186453   0.146746479206112
0.508383380290727   0.772401213101052   0.135969725672507
0.638605544778760   0.827250027379818   0.094593577765233
0.405299774118949   0.785937884030403   0.219837224207797
0.647668264533566   0.677816564680345   0.422750514145597
0.469882421361480   0.517478358360835   0.403199347833392
0.456724886429684   0.738054667504045   0.557393063274902
0.496798803504404   0.744440750606343   0.309142459290555
0.373418395590338   0.862595776161950   0.214230830225392
0.298503533863227   0.876256574461427   0.808615935664972
0.370038742692654   0.672700514764508   0.531793810128084
0.444406421800654   0.759470189243318   0.666554864522711
0.379751076484438   0.660849573453579   0.888804691915691
0.292878668275979   0.649602231472974   0.614826611368167
0.342347349847833   0.720752432510497   0.863451411419353
0.581955192405294   0.534126241303238   0.826717716665822
0.375218521045757   0.786942830107211   0.859662954832234
0.563682486550303   0.550403996630299   0.938737932745991
0.492102030527528   0.749211521573456   0.014781891576203
0.460215397005537   0.758233612895233   0.087084802690330
0.580779572337694   0.902445215310091   0.025299455380152
0.255692149658067   0.732445411564139   0.152718766825241
0.678954073450438   0.790904093707492   0.059160130668638
0.354481452162630   0.733581441841077   0.221526209194142
0.406874653568157   0.678150438711785   0.193032064022169
0.491313343774054   0.772169794509274   0.192478145163763
0.508710805326416   0.810699583367562   0.441167969673295
0.225899147860116   0.638955640740428   0.257478943144994
0.466763086418310   0.881572392629792   0.429671081984626
0.512926360068497   0.750830141845753   0.480384919777591
0.488978372429846   0.602318696793356   0.654576539841724
0.486174357546927   0.841350795422378   0.609533644819880
0.345857364127917   0.884251967061621   0.888106628358908
0.441844130518064   0.827337342750180   0.827224989974320
0.569738390323669   0.779689373777587   0.711052605922861
0.403780565332546   0.801353431216506   0.629718864047359
0.500874278074916   0.899825289297689   0.629434181549451
0.487026962869276   0.762121203300309   0.927721760144850
0.484901756013519   0.934369158801543   0.631519987623794
0.305866734952922   0.885755725355210   0.156485373060668
0.654577057809042   0.760661042229575   0.915016742475639
0.468700295727638   0.683612507068453   0.217929821545575
0.405071693396443   0.776859961106210   0.280591941229759
0.614091728520613   0.822085743644832   0.316943966233037
0.551351210217703   0.772831665428736   0.339165479366656
0.482631137768003   0.852986729321503   0.086657234233489
0.595272072012639   0.887314352033238   0.403839821763641
0.462550460847092   0.802022445828541   0.483126543540369
0.475584146534978   0.961774864547333   0.516929874492443
0.651060680436681   0.903265415964080   0.490307973644324
0.535256462571661   0.893860793630944   0.640232695918554
0.671539807794066   0.788326554591918   0.583486805452653
0.626119416250584   0.806896321344094   0.706194373064601
0.512889020181306   0.816575073996923   0.599199806126411
0.524394167995003   0.701907685885639   0.721368137110840
0.663038956428073   0.766860018325905   0.664636577111311
0.531610313199430   0.922530107172244   0.936281285493255
0.546051060875967   0.998192375366559   0.102535877667777
0.583574982001832   0.762822838227381   0.038281371471049
0.336122391393161   0.117405146051294   0.064338388645780
0.567125504688319   0.827730007907472   0.049172662681246
0.527298577336024   0.694872881412656   0.233555021271076
0.620404488278029   0.916089891189501   0.053535357777796
0.672962308129450   0.054991757886102   0.224817100648387
0.672593494860353   0.793468586531900   0.338841737881912
0.349170315115864   0.791717505230459   0.181033798755800
0.435322950073417   0.843247391333279   0.557868727654004
0.590280933047328   0.791375408738849   0.386314606430756
0.615718617973447   0.678724934435822   0.327024749733752
0.352494928384670   0.775149039135040   0.826932274644923
0.427612212078557   0.910123640529676   0.578653009727833
0.459690214079575   0.917784910577074   0.711989803722926
0.569006482807661   0.948221794644094   0.714050224999722
0.500861654480395   0.968366565033812   0.642217422196667
0.554327660900127   0.720699996577037   0.738128731890354
0.533014710182620   0.774572678430009   0.883265096439840
0.587042558927844   0.830049272479995   0.748930233632736
0.525162005466925   0.769688248157645   0.170000166821670
0.421756135358967   0.823152186009018   0.859697850397259
0.435482003061378   0.056202482456616   0.961497905475063
0.463047772582154   0.031311445224011   0.905460492370688
0.310222909813573   0.004268811155346   0.295429709785571
0.652199092079396   0.059646123927959   0.107371446128253
0.588000438738666   0.895829239395018   0.311167399603168
0.374037610287179   0.775655651628270   0.343128579160725
0.640601154640722   0.070008141896188   0.413137118057420
0.620604641702797   0.969194800919112   0.375580625099719
0.517522703111275   0.931107169942084   0.324024382168470
0.331669764552613   0.999331349975426   0.513153905545647
0.268531512293598   0.935996675910824   0.475927498959523
0.523826937377988   0.008105704839321   0.491726364301632
0.433990330744877   0.926131242226845   0.481829036496529
0.454369354286584   0.052734780799748   0.736037386837436
0.660031496270894   0.896963567959889   0.792397050365023
0.570441365861165   0.007519439114350   0.916614288901115
0.479357466954538   0.104423901444806   0.838019682185695
0.544546923126781   0.963048319370508   0.163229919248364
0.493735324457913   0.941164264732228   0.929250029961509
0.428383314890410   0.934216929350241   0.788307215591020
0.680621704044906   0.135695222829553   0.144655323686015
0.584225786353599   0.914805121933231   0.986820926347686
0.499970750997897   0.159910689694014   0.241039026873825
0.583276363679207   0.014848194605750   0.254317255060046
0.619377400384698   0.717124662990083   0.167374481755800
0.535888262282056   0.044504147855615   0.433548041473968
0.537643823747623   0.917671169025247   0.384442783436789
0.459799128263136   0.078684079972464   0.482535684157549
0.611582182959143   0.224654214621142   0.348565771785747
0.451539571915726   0.033147749441617   0.432416934796923
0.524252718302522   0.902717354408371   0.513683043381422
0.490262626039602   0.797886901191000   0.657218535493178
0.584953425593814   0.109398486058208   0.560133686871407
0.547079236619593   0.009617050675168   0.699480396000893
0.517446785454440   0.235326144296843   0.741901180566880
0.419985834340284   0.909942510816709   0.876757024998179
0.573673158958956   0.118194534265509   0.933672607716719
0.643392024297454   0.779606833739390   0.859804642429215
0.551604503233224   0.014287800405730   0.771539349261433
0.446268400917238   0.047757205678594   0.027390428087705
0.687329307683263   0.140501858177881   0.108511256614475
0.623721859095496   0.065172427814213   0.010706463081700
0.444104649125914   0.132934826991239   0.210743998322830
0.676271979987247   0.910754185042332   0.390629499617179
0.453950530752954   0.307127641670384   0.268300144487813
0.643698021087628   0.987977206366099   0.401954665844468
0.662028368238231   0.957593898622378   0.427807297072365
0.545904584644426   0.019816640065792   0.241681140971758
0.645701176551539   0.074674780687593   0.348627540584742
0.504931792974542   0.037101444019682   0.509709269896885
0.547816062257766   0.281994796125777   0.500237537779714
0.463289135410584   0.102680166343293   0.516936623645958
0.540150631887926   0.112469695552186   0.632214192271332
0.600566148994587   0.044707982365535   0.630998515104342
0.641872285773714   0.071876995446297   0.577484886398232
0.594316154774648   0.990924530628575   0.589972623851005
0.622546178191926   0.105865067564996   0.571199187883169
0.771447330338972   0.228960158618391   0.919069723353803
0.516739612100290   0.070514369222259   0.865005486050892
0.494011894027190   0.015829699094337   0.878788289196758
0.443905010669726   0.132007075343074   0.141388253514795
0.504056512676256   0.976950528867778   0.872233060309064
0.520564900025176   0.971727244843995   0.080880850573670
0.502213125413382   0.989746031162842   0.206804914857336
0.594496924491873   0.259105217094750   0.295990889693617
0.519314707200920   0.993299476138082   0.242121260071523
0.528820881933067   0.119576473895764   0.352212010504003
0.619892897274355   0.116809874667476   0.248134256033051
0.665694777579672   0.938957766432107   0.493112337496178
0.504619906586429   0.159424877003260   0.490182304458370
0.608555435370220   0.235543902059998   0.635378377096813
0.613992738510787   0.844113734509136   0.721499526407844
0.755013646122740   0.999191944770446   0.827161467602961
0.477850043549925   0.069830185306607   0.856651666816301
0.687587692679793   0.306406758236697   0.766341981283184
0.558969134419028   0.800319970474053   0.973379324282063
0.714234424550233   0.211114993560281   0.853423964869678
0.425727328281528   0.160703712642970   0.120874351298652
0.367733580081027   0.904180073150438   0.914588135788453
0.559382074870161   0.160592583788403   0.063532118123653
0.450967659924686   0.378533439072267   0.026134505122403
0.401773042417711   0.058604281468781   0.941473390129303
0.583662410946444   0.127492424968124   0.156984721954652
0.605367561004475   0.011215026193733   0.979716740056328
0.431352142574375   0.219588124598655   0.257610378118882
0.580481988296249   0.377124499191767   0.311715805734082
0.496026218117753   0.128968662218157   0.304848026198453
0.500873628001288   0.213530803216044   0.371727929486667
0.299600475282025   0.193822123821895   0.483814466303674
0.788536444908768   0.106385941727615   0.307597879675844
0.472962111195458   0.330758409855179   0.555333794420663
0.514837596086935   0.205873812857018   0.554423551232926
0.516433817766235   0.412719779310319   0.656146338872157
0.284796875663574   0.086636357305640   0.754965320930901
0.500790316203939   0.051668843877738   0.782650133391880
0.624496417349734   0.062460974761498   0.902217433540337
0.731817243664640   0.195591498063042   0.786304937838615
0.521840491689347   0.154275093143396   0.842317176154109
0.553326565696883   0.089878145504778   0.959159671608857
0.537201377165521   0.968075142878905   0.975872933060080
0.490933626574656   0.212690885341727   0.938360355539624
0.591812038034100   0.086652710454418   0.062769599232011
0.381669875934667   0.067900283895246   0.306025920181256
0.581766624684157   0.278237088883842   0.185697826362350
0.573222710946574   0.271068075357796   0.219711438204523
0.520695854184539   0.400769711508216   0.230617214237461
0.611026918041190   0.093409734949876   0.355636270061911
0.585388640069188   0.373741130512661   0.380286215783940
0.400273868923851   0.136777321985928   0.342649843404878
0.319306856553774   0.159478497057012   0.480733174523917
0.392523094381556   0.366101048218451   0.505620235780922
0.457360877974587   0.288924042389701   0.508212690387981
0.370354985205350   0.288502208408390   0.713341230491856
0.544817226474319   0.235326776532647   0.670231446868148
0.573693955027843   0.110479636248464   0.855845732308040
0.632434283470583   0.149460183482951   0.659486972979118
0.656224974036646   0.358452344003015   0.747093665843636
0.634752441235258   0.102058679398943   0.856968583019388
0.728315559519513   0.242581672088117   0.872341952427683
0.463740799478108   0.299841660347408   0.134019813581061
0.624690046313327   0.209518487407843   0.209651314568873
0.464508153550756   0.352591815709272   0.166283150457654
0.434896267485844   0.347523305156819   0.043575146027680
0.393390164451917   0.251903310672049   0.086469153097000
0.544048105705668   0.212078497754784   0.226734990355875
0.637001882922999   0.342221526631352   0.384878328285290
0.559511445453573   0.319783065205850   0.493837998816830
0.601450501888806   0.313749424429472   0.435703877563219
0.668063389822787   0.111648996370312   0.351748681508942
0.700422093094112   0.235340946232485   0.433423789846513
0.769036546759559   0.388976579297776   0.576069569742778
0.583500805239156   0.173905006925547   0.571573785591581
0.522334766418042   0.300200061303771   0.595799941700210
0.668703307053546   0.222948764483367   0.721668415377335
0.664545771663494   0.039307377214234   0.631099797033913
0.780878252295744   0.264197510325129   0.903049503627128
0.634112578717323   0.228567143455740   0.702930940768505
0.678209200734868   0.150065174962113   0.049180727539057
0.647773438842876   0.211826121413432   0.069371129255400
0.533246796463857   0.421068740403631   0.991499255281904
0.424432839936744   0.429052690792835   0.123012396503732
0.377510460469354   0.268030821889999   0.224022438880315
0.734115925664947   0.286388538847637   0.176071545454959
0.516565219116616   0.349994173853863   0.074665216199923
0.604997348239934   0.403118184317449   0.139274797174417
0.692257675969253   0.363321756434301   0.268182471381832
0.598311871859542   0.413017901761011   0.318575040542099
0.648394388165282   0.206239402780594   0.354354684300089
0.735829579149015   0.227433518263832   0.444326639146175
0.546089479417372   0.487016669001958   0.497028439975823
0.474366511510245   0.225081472765138   0.603242522831007
0.411471637245959   0.101712474401229   0.642470844904587
0.643622345317464   0.324978060292742   0.690269232136514
0.705053372157762   0.323650989357042   0.577045188628355
0.465037546836032   0.261043930025196   0.708395116882046
0.393169838196660   0.375266921903627   0.989243683451887
0.506340536297001   0.376243472722690   0.846490639004168
0.654360326414507   0.434507183484700   0.782467877370774
0.710945157663272   0.299096041146142   0.982638955521531
0.527352065918626   0.296804336985362   0.893982526462859
0.647695813688446   0.327863454671976   0.190821888978028
0.472460770870646   0.300851720777270   0.070422904108683
0.663048800123781   0.132258892693394   0.081271876210010
0.407268408102607   0.072323633141088   0.223984965983932
0.559061405630800   0.391319004653764   0.401889434527587
0.303685151915765   0.268230149175964   0.252662781060356
0.760304513537943   0.081173753772961   0.250828324120863
0.583213576241326   0.447613361224899   0.377713599120528
0.416642317223156   0.245414601291240   0.550715086946826
0.515880991118159   0.292449817637958   0.556331094075933
0.814719529260398   0.326999773186348   0.590248716994460
0.594909344815561   0.400370981699092   0.686946937036344
0.546238084802699   0.357355911956027   0.671993443204931
0.546883516366136   0.447063504269523   0.703482452402572
0.705764719407266   0.462947156585446   0.538781202724750
0.567022277712751   0.381914471656344   0.764162910360108
0.586216517478036   0.223282978593446   0.932449296734706
0.670595986839207   0.273342751301507   0.074658665242086
0.474509644191254   0.429505152781344   0.976337461729648
0.573218399411412   0.333028300692110   0.922080801361070
0.679471477055972   0.364897444911343   0.932762346153224
0.630414649426641   0.549547181194895   0.939436017303640
0.310202494318653   0.486063426272048   0.053830067664502
0.608578594235790   0.517041373085886   0.242598195790588
0.804905916534963   0.385062523746272   0.212036151195721
0.444414568835980   0.548270404190560   0.459207168091567
0.623016278544254   0.446698153665466   0.378019219482473
0.473614780533834   0.320686320541242   0.334596139680065
0.469621924029983   0.345870490050904   0.450393127990178
0.631524412236876   0.312783577852799   0.560506087364148
0.624522371168988   0.401473384668969   0.547282847059596
0.599357768177270   0.669953642383998   0.737006243443955
0.570014614031470   0.506476866290447   0.717358651652588
0.629080465147308   0.308179952353737   0.629762524849097
0.433296993830800   0.524871246283123   0.804187469791779
0.610707863696289   0.287052215536907   0.738375478947792
0.765213549885911   0.378893261472816   0.850867279988718
0.402187710517192   0.469033872752605   0.554373099275940
0.296754402917852   0.401022149849166   0.081296240365438
0.440037100110563   0.514277206288467   0.873819694159214
0.617731064094287   0.309143710692142   0.009548788812047
0.392433666701427   0.387739808737596   0.051728822803051
0.453052244005522   0.448356652331888   0.229254922407667
0.639496490814065   0.479822110392027   0.370975103545021
0.680451158812356   0.369102820480324   0.308929471126235
0.458627952711053   0.397635101964426   0.258565925951192
0.482769436171278   0.563828874571393   0.266489441891084
0.571609863710497   0.367536623579673   0.224894325297694
0.373992923606554   0.424907056330800   0.503971231981970
0.513548203299693   0.524872956609391   0.454217178421138
0.616554624072609   0.385461887114752   0.490399865561400
0.518930535114744   0.582366442982844   0.583017155196735
0.337390758895674   0.506819291249680   0.707279036325079
0.372139274702281   0.508009566853976   0.587933854467712
0.519266271342408   0.507710038156826   0.783260300446463
0.522823614800738   0.434255262895685   0.853547457840826
0.455485221476961   0.492762197761933   0.815250413948028
0.432333187207893   0.364674865786662   0.992806611732196
0.685860459385145   0.459639382216459   0.049104749291185
0.429603671752541   0.454388554897112   0.891808479997126
0.522509632616835   0.237477146513415   0.931042222919407
0.408723982190269   0.445123275494106   0.089068877154045
0.536306102651573   0.251711325858669   0.087610441256701
0.470355122698180   0.527735057327725   0.250804213025878
0.707211415427661   0.553650238623824   0.297996139068650
0.504413238077126   0.408765781644517   0.168689715106147
0.458551942545121   0.419999094719079   0.349791931010297
0.434408235324281   0.412712142152596   0.521109406592959
0.405508711582891   0.543514663986521   0.319385718621112
0.529240479126701   0.499473553960659   0.259942571873333
0.628452787699091   0.712496585266285   0.038850268147540
0.554729403604614   0.699998347173836   0.594978886567970
0.655000034597203   0.416045822582485   0.636433996158733
0.564449578963240   0.493919318078629   0.587029987668107
0.459941483106844   0.334078231672856   0.816274901850268
0.536235997563548   0.419056855569027   0.822984122217683
0.498076292095126   0.297305567858726   0.967972013265157
0.198735833768906   0.463118131403565   0.791594562623999
0.680266879960316   0.568370928023528   0.859292237033932
0.284748504563376   0.491030110499515   0.156617900342132
0.569316020974293   0.575662059998890   0.097208189074126
0.493204065507489   0.385169229273339   0.022615621828436
0.506433549311961   0.506068602983320   0.074648541249302
0.400137545885165   0.475797581548383   0.156478562742129
0.547676571080240   0.383092870316836   0.291040095515656
0.409973241226275   0.664279739195782   0.231600353270870
0.518695188708504   0.673292668363044   0.319244283034531
0.543738802488334   0.461041438925284   0.260726798573285
0.534411825739873   0.655040798285451   0.555445033386128
0.592243600896450   0.552650818105618   0.514934805287511
0.516151099506891   0.630114023399899   0.655812293837219
0.531934197763149   0.455927925819209   0.619389262278734
0.626822432407123   0.346720769354125   0.504970542470220
0.567218709937711   0.402660281057980   0.585545373402969
0.431174826280946   0.664807807085591   0.845667334154090
0.637786804983139   0.613455699409731   0.935445401124061
0.683335353479479   0.453760609813828   0.845654906891257
0.675697262423614   0.780775114914256   0.890141620211316
0.607028968933936   0.608461821260623   0.791077072393882
0.377557669356772   0.485313886942332   0.187749652771964
0.482198660155718   0.471102282070339   0.227403980050375
0.426752255704547   0.384602759974427   0.201456911862877
0.659302492380213   0.370861722493988   0.089099094776026
0.473712952271993   0.542905542205753   0.991298938515491
0.742211385367014   0.681811550214914   0.267951942243654
0.656295931875417   0.620662758226782   0.136767225970217
0.509706848708951   0.576612193063591   0.296005301538346
0.573533668686145   0.566264388709606   0.288152166590346
0.518855931707437   0.569754929775956   0.399442817813777
0.382371814748219   0.737528446805142   0.590389501554174
0.531205082051371   0.555190193520078   0.657469230713544
0.423444363212848   0.565221755576117   0.432226241677647
0.420740131919939   0.665266488280724   0.641079810501181
0.481663554033070   0.747871278155396   0.609011649903870
0.402532066732017   0.593998925333806   0.505968207015549
0.637793007266723   0.630200291911409   0.678468816297239
0.490669288515803   0.675677724184114   0.890786559450833
0.577211637727349   0.571545956604782   0.704196652500257
0.561060011571968   0.434161309212857   0.803083189096754
0.564015282053044   0.699128789417695   0.894368364885140
0.543501899005920   0.586532925137902   0.828074356899894
0.289724831138327   0.821623057089832   0.168918532411183
0.637824937127681   0.609620112058603   0.168737934408498
0.496118500777997   0.458826486342296   0.030140467685277
0.408998181351044   0.623164841741500   0.354810626240311
0.595007197355765   0.699488746337967   0.143109060064311
0.547781957910526   0.494953713175689   0.405244147090519
0.442640243333610   0.731411073691842   0.498835186534299
0.416033177290423   0.735832203633577   0.650391043495083
0.520871780470836   0.609758444095634   0.473997193802190
0.699736511177915   0.639339150047765   0.591163688002298
0.503188217367877   0.683053134292058   0.500697118120080
0.643142597605430   0.601668127994005   0.780668265856737
0.621171256999202   0.781524711324791   0.738413902658412
0.599378762894819   0.670626443697944   0.662149685985509
0.653719729045449   0.475905707423406   0.783168282524187
0.668127129392552   0.636485963918118   0.859075214078110
0.435796299726202   0.754965350247730   0.848193105759360
0.612771454707786   0.518401460684328   0.812440511117598
0.435616975013077   0.521530230562344   0.117112987929581
0.641006625575959   0.657831818564666   0.135175543774237
0.385766379886485   0.640356840938088   0.011913387691251
0.390431502394629   0.695735808605704   0.112162607206182
0.492466048676930   0.915905084913182   0.234573098658775
0.592841047811433   0.627173924564971   0.211495610676895
0.842559592744275   0.730563623105556   0.319203753987031
0.448820133356583   0.325351603136683   0.727583537849947
0.671147624699680   0.533379250333061   0.389843450304514
0.242471693481120   0.797009173568623   0.458475555650333
0.459296640039085   0.686421559566090   0.589679506880034
0.413859985802265   0.566482977786254   0.617875110294672
0.503216008321877   0.606824459199512   0.389684770381316
0.579191874969995   0.010768761355970   0.562194612169002
0.668888490079827   0.734579485950167   0.536460431079152
0.589250094389263   0.867914182511469   0.699775313796179
0.633899118065185   0.668655038359377   0.683840614848664
0.708829750358143   0.627442030775984   0.917991956252907
0.372802063254852   0.664435128420349   0.816729861999974
0.528613624572006   0.879229913495596   0.884091842806939
0.488149783265497   0.857715238474964   0.963282750754746
0.413913496710747   0.540190269174527   0.194086502310363
0.486848491854729   0.848987686713969   0.021618049660670
0.465448466457377   0.848149364624553   0.170657772996410
0.696672290312655   0.829412628219782   0.170344699951917
0.505948077781668   0.854486801423742   0.239728921147579
0.603401764775188   0.689881677477768   0.227882088667842
0.673513236486529   0.779436673495620   0.488529273743240
0.545286492059382   0.540858103713515   0.346369595656795
0.562296181580988   0.691267785014756   0.374256244821909
0.651442912727532   0.919578979531921   0.420129947253437
0.605724892627956   0.740221596290680   0.652368096581548
0.461491758550199   0.647688155907691   0.728200270300462
0.488607515564461   0.892696461705802   0.704422335688458
0.467225109270068   0.755093298627379   0.525039758160616
0.544056515094230   0.640426898600361   0.714511414531495
0.568145363263294   0.602633096797773   0.513919830777858
0.686067367546545   0.650222603563097   0.759888680101710
0.648122459115349   0.681638209102584   0.977921255212585
0.406264941774277   0.944985742887533   0.758308275633625
0.535147830182775   0.734545304079006   0.828294524735495
0.528676485878135   0.634269934383176   0.155134134249495
0.615654211226832   0.835121837252199   0.003209613296414
0.513138235548519   0.744745770708741   0.111550730681054
0.381900086982971   0.732125064683612   0.056326693479522
0.537515849396885   0.729707242106928   0.175175825941567
0.599989795560086   0.840595159562687   0.259615423785509
0.480075465908781   0.549018709497787   0.209704670420693
0.549874923020237   0.840765507913996   0.483685085214543
0.543348698620893   0.836718846229965   0.392278920808356
0.588572777220518   0.889965234082913   0.528602820321450
0.698013939183624   0.804004521927073   0.425501470168487
0.448427705611488   0.900714336994027   0.405069981653285
0.684336626700754   0.729891158724362   0.798877235280900
0.339139007130907   0.945816909198120   0.876708302987582
0.549039267990848   0.593116878480446   0.758756764891299
0.347683800166700   0.739044549762694   0.899046544188183
0.284906531899133   0.809712443330690   0.933026875694487
0.677606837938680   0.885526816291164   0.861486633339436
0.472164612720042   0.733047326616431   0.946811372035226
0.502790904123170   0.813748933784279   0.017257238394359
0.432999853930360   0.887282481518402   0.022839751897545
0.473886355514486   0.855230502755967   0.900310489222030
0.747302199062273   0.722640302325880   0.190426664743427
0.448102889036116   0.030618955957713   0.154045623892760
0.645042858278129   0.820856791073966   0.342245807731657
0.370492488807360   0.679630217705127   0.179096989892581
0.505973928648009   0.930240370433084   0.404286478695700
0.492466769832281   0.743274334841416   0.347257092280856
0.730153559016684   0.822007801534021   0.683506682693384
0.484798981077186   0.794071763562729   0.697484192749163
0.674700772453955   0.733959622739481   0.731405845208975
0.416070549876523   0.728119502831184   0.610908692313559
0.610221996558043   0.888313568467906   0.601257938308744
0.406266393442047   0.773269988538575   0.654280466998774
0.744466447438799   0.715004418621661   0.781594120563710
0.479481903432640   0.778280280326330   0.812461007963435
0.422793953350913   0.706065490277726   0.807381890615000
0.611796666859125   0.725118110691557   0.871856787781537
0.500882074474398   0.827910137045095   0.852770491402982
0.364155790407475   0.885926787447544   0.013726699593158
0.544980781902682   0.928164154259649   0.975355894348596
0.546432996334586   0.038065131864351   0.096695674736848
0.642628795022081   0.008846058143315   0.986923520831422
0.351359595636958   0.764935803310746   0.151909297346103
0.556081085733205   0.755478616330103   0.237796984222909
0.407079563938471   0.898493402257918   0.478669295979450
0.689757672747510   0.039684137192091   0.381305815734470
0.399838518842381   0.697503905421319   0.255190548010468
0.339607078344858   0.804180448629969   0.283138367187367
0.430046526573006   0.182993182947866   0.584136041994506
0.663445982952401   0.893610666853476   0.450746396693413
0.527073085755870   0.845469669128979   0.451173921835967
0.729290759039450   0.951550290513456   0.704218719160875
0.341571421571821   0.808835336370979   0.634705238943619
0.735598005533237   0.927658658693222   0.671559273913195
0.380751140300238   0.870074222506132   0.687981673361502
0.323052233965032   0.934676049259702   0.794785631183882
0.593195462171628   0.939426915224738   0.908900717837457
0.620106087556073   0.863282542520495   0.975280669244304
0.645571575500946   0.894206524524313   0.989529689004394
0.474973291153723   0.079967752394550   0.110470685511149
0.707819608916214   0.907275312018027   0.856404759627255
0.387257897292961   0.013330149810444   0.243520939744190
0.545333101333746   0.897673338951179   0.199986396004533
0.580716226234766   0.073973862018632   0.292333292131619
0.549648832622795   0.696590319922013   0.310608884180077
0.385407323237905   0.842302630160899   0.242469045185968
0.543153945429542   0.751165023864214   0.451987876050175
0.580461801256798   0.743973650872649   0.456132155570934
0.353984549398379   0.991073958601256   0.599410358190201
0.633444271576757   0.042154221625025   0.608157345149528
0.605394321403895   0.887215924077132   0.671671045775652
0.575726142455350   0.816830814523780   0.599968500847909
0.456019325018881   0.914860890912730   0.769449387640604
0.541134177937940   0.962401074877654   0.879903603222093
0.642066457311184   0.724315965325262   0.711814052720262
0.514576712840251   0.935118660115559   0.756661109410503
0.626985939596196   0.045572993849380   0.935337233535341
0.626016342209960   0.911958853170435   0.181679341770233
0.706624254526701   0.934529801118656   0.832819849230724
0.750003672847563   0.857114232933843   0.925844182913425
0.565810885175109   0.039535718072933   0.026674006885863
0.589165517788125   0.102672695253257   0.964743284901177
0.654976745904509   0.010248875325115   0.268994301883402
0.605186871329539   0.901998091394706   0.215267947786317
0.627520651821912   0.111093982693329   0.207172807514054
0.517719875014151   0.008726516920240   0.360576395799620
0.620388215559231   0.985121410988935   0.306821102245799
0.605655218730392   0.961511312599762   0.522476276874191
0.626462175179261   0.848494785149939   0.287301025091541
0.637190319986289   0.860348584113772   0.602166632682566
0.595420843727452   0.874018423105514   0.565716906397478
0.573795770331193   0.073927767353231   0.512635651409007
0.882214227314154   0.205685451563510   0.669561002076101
0.683037427673158   0.918877715857808   0.771679299036699
0.548909437839399   0.894846671096408   0.858236439464646
0.551706640303703   0.933213639849725   0.853773025524261
0.434395018019139   0.942857685811101   0.859032403811472
0.546218462164497   0.980840320844092   0.937784188888125
0.642997910733292   0.255908542599401   0.922203714183277
0.466711722245966   0.217322224907291   0.909083454253386
0.583686941465615   0.112784915460937   0.029139945184511
0.504535199028337   0.888250257418222   0.260804514905381
0.593128165380196   0.978572297357201   0.273749312857035
0.558433277196405   0.895440129607540   0.415256134377241
0.577084425952794   0.980794217520094   0.089630072550229
0.596404746154710   0.255395580870018   0.370416989763505
0.518567066355158   0.015991484878719   0.320100882133553
0.435153508902803   0.982615521634245   0.355136824826452
0.553782866442913   0.120996746411088   0.378680620776325
0.383452008681407   0.209164014666099   0.712414982018633
0.528631889661917   0.047535497550722   0.637111807004753
0.769645805821268   0.952269674072978   0.662140757992080
0.618897635625565   0.908445612695986   0.845867081271995
0.620532844354599   0.044521865682066   0.694889955693549
0.428295637011619   0.900111504081427   0.944673045418533
0.653650122681419   0.949333623335104   0.764644893374958
0.637344618289193   0.951533012907325   0.958387790005846
0.663377729585439   0.078696156771002   0.855455097812841
0.354394938711450   0.332857512211285   0.889969105967221
0.726657806492777   0.290261306320832   0.104161633769874
0.820815644281532   0.154902569272441   0.242600931415978
0.632300866919676   0.079833845168485   0.133511871919982
0.593283847827219   0.113769676216534   0.093875285123663
0.537391878850369   0.848307660720451   0.257496965301209
0.808346147387556   0.013691654904343   0.407079294696013
0.649858558320880   0.143065950466298   0.400136232303708
0.648096322940941   0.998230564796520   0.231812876791015
0.658864403591280   0.266618655693246   0.660775365646838
0.385823380953697   0.031812502582730   0.429164042310770
0.672627805410828   0.002540941075671   0.641556275538323
0.630515705130884   0.999893848797761   0.597003939760242
0.644966120120684   0.204394218488502   0.886635690908167
0.567769298941911   0.122834391464152   0.722824289951469
0.521862670908941   0.166975135600395   0.606258759176141
0.845819055990946   0.216068243776325   0.745140272858544
0.530556950603395   0.128772490339302   0.790453005390693
0.626173241671238   0.246346045555887   0.845723655853301
0.656923249316672   0.164811636427282   0.842671620905876
0.599901575238364   0.175230274175496   0.920558251655461
0.542553106654488   0.056834838932864   0.944703945568680
0.682870779622178   0.232120179338735   0.067678469904927
0.450327648908563   0.257364739670772   0.204031823133479
0.484300346401177   0.168511678777687   0.087499246393056
0.531524607686896   0.194775626819471   0.376257635287698
0.593927468385867   0.134314770934721   0.307597430782320
0.652192348266408   0.118904890730476   0.268541499572742
0.447903588156353   0.090321306670945   0.748270087140666
0.579869324773601   0.047325471690993   0.484608944839185
0.393519756451883   0.292284646131454   0.589600488494206
0.647582060156401   0.141649699036183   0.465461234051260
0.450230883870171   0.255680884039084   0.607469175626039
0.511129830344464   0.225603595675669   0.613422086533055
0.575594427191380   0.177511347653453   0.641785946266077
0.512591401153091   0.250178872586814   0.863564556213466
0.641128003712173   0.032810510731351   0.788595588991240
0.650715129824064   0.178444364572257   0.048621412770479
0.645391355793494   0.902334305056484   0.875139420119956
0.399872897239451   0.085010822332352   0.016055116840514
0.512195755854004   0.262851610113163   0.119111461637505
0.499250201873614   0.075478788795042   0.992520293791798
0.482352371675248   0.143575780973549   0.149885637298822
0.689097530769286   0.195727893969486   0.177160287871271
0.457220158022074   0.265302232756928   0.082467368131522
0.725885576243188   0.025982847049082   0.170163150084953
0.593786106536073   0.320345745346877   0.281301195623351
0.574266741075536   0.256603737650018   0.435757834039825
0.568233520984333   0.097516352810485   0.226639210915873
0.644957509643361   0.979268822705806   0.627124267351904
0.654037704458853   0.222085594090274   0.585861717332440
0.701231454834855   0.225354805458163   0.506724723859506
0.400536647059950   0.080211728324805   0.613276542651939
0.396275684466398   0.177828835767034   0.772736443286558
0.729231276845257   0.110581342793808   0.774019023964436
0.669097343985724   0.205041143815024   0.645503385797556
0.494418107009395   0.395637933473894   0.747855430279144
0.484075245249812   0.164996387567266   0.850330602841821
0.559261089503396   0.058313665333387   0.063556370449466
0.458505239446594   0.334039175957077   0.913596889632991
0.629762873784852   0.184355828247806   0.144248549762296
0.649620716816825   0.245448399776606   0.986491861143249
0.676993029950740   0.177433181968156   0.274599013171367
0.374452576487414   0.344476156885399   0.006161776259951
0.538968761666923   0.285232576324313   0.287897533707486
0.500189747402086   0.171987333596547   0.123866033693026
0.753310623623347   0.281048082086599   0.142150606499591
0.555595586729026   0.318246170214362   0.279009077035170
0.698881397709174   0.329825972825277   0.419682712797545
0.523988622687617   0.264917652272307   0.258578387865455
0.749749070085845   0.361619120813327   0.446021621717520
0.535379384368383   0.297975920938712   0.672970340518264
0.536689062694922   0.132114090716444   0.595850133771471
0.754005624199407   0.096554584372246   0.567629686331602
0.566027902902246   0.054809572071434   0.615589570227965
0.432498109079259   0.328814692397988   0.763892277441979
0.707194024784220   0.251129347045686   0.904462436684219
0.665606271604650   0.378860821395647   0.869452419561184
0.838206419991041   0.159044593292764   0.888993203569945
0.535562211419533   0.193446149417372   0.007742511517936
0.625321850602840   0.135149506518584   0.079931674666809
0.607648034584542   0.185890743921763   0.884041388224844
0.741627393369766   0.314823784343954   0.239285902353153
0.549015165392900   0.360149194297946   0.194086436157633
0.747579096647227   0.212432139646336   0.309296146257709
0.395578266009909   0.253873722428023   0.021448512053162
0.608785077296140   0.228669607848671   0.311166997961594
0.562684032709881   0.268748941905540   0.313337658037582
0.610363510665504   0.458065105667905   0.538179627649729
0.763446498732103   0.301156240628116   0.551649680639427
0.428302742206457   0.375701947954182   0.569054713262768
0.467549635608099   0.281304975365844   0.441660912515421
0.358125657203639   0.415113397417196   0.678930391719936
0.516894993650506   0.239282436921779   0.780151027637021
0.541774909002339   0.267625407190981   0.536852659015107
0.524168126713842   0.299514544840641   0.792024403112099
0.506799200437628   0.298716852924711   0.739801868310181
0.708416121084181   0.307854303564688   0.797646568745348
0.523952543843056   0.378047299793050   0.048794475399704
0.480220427481058   0.316138366885173   0.848761565092804
0.510825097358611   0.108065097974074   0.200696211121264
0.425636263831107   0.232364653120682   0.182836796922093
0.556116162356912   0.313918426948387   0.108517173346139
0.384953343748059   0.234351841993410   0.055672757468738
0.491106352242940   0.204004516964252   0.068980815023418
0.767328581868344   0.547635653988312   0.107819343949020
0.574030307409209   0.357109824527153   0.346762569123515
0.526813255389615   0.166970837500360   0.184195398112087
0.750258242167907   0.466084053811619   0.228639783922929
0.707883029768547   0.323249034923378   0.263028685452070
0.669606179272478   0.159047525409603   0.569294364652391
0.575216423509869   0.436041130523961   0.527325521361531
0.495435197476033   0.469647883032625   0.657704269787832
0.518633037777692   0.265314004700826   0.681195122552914
0.568227026875046   0.429773519228932   0.413884596653399
0.716261622605586   0.545654879069032   0.857443150103208
0.686157669031777   0.289008555885330   0.567488962149379
0.559183820778407   0.304570830818753   0.018950562868530
0.618979582212935   0.200211153518004   0.941427371980286
0.581129789139054   0.207690237844487   0.827538073519246
0.594373640012398   0.301515305654474   0.041247629953762
0.667900412423870   0.485633789078668   0.124452659826153
0.428346429094942   0.409218193385088   0.040708455541311
0.603452802623599   0.264721993696175   0.063746741205440
0.563914514375347   0.424354699974266   0.202153384604011
0.672981987820034   0.539535279755747   0.019723657796610
0.566526188099480   0.329759213717471   0.451973999727545
0.512187101829731   0.332216071763758   0.541884660919243
0.525915087709290   0.263787079726093   0.156274704704579
0.678470948395770   0.382596792675810   0.493451811255142
0.459729045824213   0.385741983142915   0.328479571644459
0.641409015564931   0.231265737532665   0.660771963506443
0.547138399500845   0.431635147575604   0.558130240945795
0.619723248323982   0.268489545567906   0.488804994121312
0.552801696592052   0.193754769427443   0.798648533218120
0.553325816263736   0.431320900610187   0.644322360060516
0.597570225725968   0.257816878333344   0.869769333139163
0.445315416083068   0.434436454664460   0.864483488509774
0.648745046359605   0.509631421544681   0.026293367753141
0.568685456705542   0.515369289873417   0.891125770698963
0.657122646775243   0.487676331452210   0.058222648831852
0.767825140800602   0.533292170891131   0.005564940818019
0.662713195000498   0.262057319172263   0.172588971740618
0.512876669864797   0.467358599182355   0.203152850236165
0.438264272136764   0.444337318577354   0.194929919952929
0.610020462633720   0.411480298794144   0.254680367394495
0.634473227258223   0.400804955522180   0.331922409094015
0.718801212536885   0.494412707021915   0.321085938283574
0.689337487636128   0.344669741481974   0.340951463943354
0.681866886406135   0.677566606140621   0.298716429417659
0.766120210683553   0.345504870590381   0.244870880701805
0.594188357658877   0.426945838360784   0.445161924990669
0.482951486742277   0.532398246492158   0.593791061800356
0.665220633422663   0.358048518589437   0.682486187580914
0.386201826804092   0.573793286390702   0.449127857276625
0.643732240691922   0.330990387126425   0.830690728868943
0.476441202238972   0.425399473084732   0.763146492040873
0.473041033408218   0.507613982789171   0.706051509419089
0.702127730726777   0.364722534798834   0.868686683336773
0.747550048598985   0.351860339764430   0.791638651318394
0.477273032863220   0.392354918583319   0.108906860177231
0.406739703118159   0.513564447229392   0.738216489261812
0.529589992712479   0.567830942008532   0.165873460038581
0.372492442196516   0.529045102934740   0.330666037497699
0.756898275707784   0.354983976306441   0.035948586279692
0.694434893502269   0.412510494038105   0.216265676909310
0.453097370751171   0.719099250173781   0.213514267005190
0.764103814161293   0.511916281112136   0.280471664016315
0.656272596888482   0.493306272891729   0.340047452762792
0.439986674383976   0.433420006284559   0.263764839330715
0.577339174754854   0.366346703371314   0.533744591130387
0.481149536245472   0.554255730484176   0.508245441239501
0.636601818387089   0.503598487889713   0.434164065145235
0.681789502837848   0.508794546124821   0.623707775489543
0.732928202080963   0.406151001762756   0.569294868673190
0.454488135972036   0.627284117741739   0.928001034919600
0.526062865928818   0.467237556866158   0.874913393042563
0.796724818980518   0.541076906708200   0.984150776409397
0.770462876910456   0.546690554867197   0.763153067937238
0.563649641499787   0.600169958100206   0.988944951374199
0.515096506390513   0.453496730278315   0.910012679599454
0.928923644678325   0.553625769341106   0.027588624554120
0.546954679954339   0.522238798277305   0.920462254068957
0.557621348051747   0.610766289749989   0.951872276382070
0.523541831454259   0.648543439691982   0.095240112283082
0.504458593514674   0.588256037519488   0.105744600343688
0.535817204555773   0.510108628003099   0.297396380568593
0.485670106893882   0.648452379587860   0.519015977204027
0.520288640588421   0.409494769401704   0.303240740621074
0.575743928745294   0.465223456815836   0.283613692927494
0.532686963923621   0.726592828756702   0.420172290250793
0.394370346588293   0.479088052285710   0.747270120375333
0.629086635170464   0.623419603075476   0.640469913832755
0.660107802904128   0.513277176297416   0.687253310804380
0.873868325720492   0.861758495694611   0.681089895085524
0.725384906953473   0.436622071076859   0.924358326972047
0.527995170539429   0.620018656414716   0.778809741661568
0.607837822795816   0.460005951732611   0.689392818719821
0.482562843077331   0.728610652483410   0.096386181290073
0.604364963550846   0.330815679198740   0.689374211951981
0.535257186872259   0.540523200113320   0.019788582815852
0.550306106181775   0.665389580684257   0.250206245637234
0.693365933219267   0.855962834695262   0.999324432826194
0.777768215953594   0.922621082967230   0.177262524290231
0.710781961697484   0.524695323371538   0.086719635158569
0.673794698267434   0.604270436981327   0.372542566229041
0.649944032552529   0.688968451410135   0.382259013569803
0.607123382391759   0.608495212054360   0.373578903870280
0.598192256752371   0.457604231611417   0.470856590324834
0.516674168867740   0.641478491447595   0.194473035861328
0.616293091204791   0.676470408500821   0.596952758023140
0.563371621939769   0.573313118816541   0.452433480313795
0.535478358064828   0.693219330479351   0.554660396381745
0.662759623425255   0.667469496647448   0.917863932344782
0.562146080050302   0.470610380995924   0.815569159851621
0.650555163614922   0.561195916425266   0.776866688978187
0.604440852896204   0.671239592628500   0.819028671989287
0.620936209875039   0.838269028892128   0.851892539672807
0.713068428576473   0.589547072466887   0.911667020243641
0.540169557230720   0.675995655689299   0.952728983110534
0.662095370288046   0.532510959796118   0.953833072172651
0.759801805701849   0.536420079594233   0.180690414110448
0.609229680236924   0.333526025605199   0.070567934518610
0.468684641565986   0.384137215200472   0.190092029846647
0.590303833465072   0.590942019514923   0.220479835238737
0.593171909677493   0.804152653029576   0.257525467677408
0.571575246123959   0.864980106551226   0.251717194726624
0.685639832676159   0.629077910379787   0.402063851975220
0.440426826929116   0.821472342389532   0.425615633504632
0.669783264552039   0.780308809682791   0.445384736310358
0.779813847208967   0.658175473409986   0.615566792162989
0.487498762619714   0.612021877895275   0.353920383752937
0.748374095015282   0.462224623731592   0.590053679320897
0.609763428906016   0.738067790892746   0.611014715188773
0.694019821506582   0.582300190137237   0.703119113783785
0.492900726896318   0.713390585730294   0.468709826609970
0.575180250887712   0.687402917189830   0.798699901337913
0.440811204543739   0.631462366013707   0.852893944997505
0.600856303701822   0.659970888980080   0.934399872978560
0.638179757242321   0.472836153844754   0.933109238468327
0.627754127506647   0.630826195669075   0.873784572834873
0.586269751311402   0.626282437227223   0.069246393032948
0.780675956907642   0.599775464830234   0.191797150061340
0.671198376681231   0.804414316444327   0.260895293514016
0.658934378242871   0.544874873908019   0.107179124129257
0.638775151387597   0.781547602845503   0.971453639315391
0.726569165201350   0.750098953132216   0.245922318228667
0.612184369475318   0.567376809956612   0.294298902370876
0.526216569875362   0.724402118719202   0.291440513789598
0.592748203521653   0.681501167193098   0.512656038000294
0.565946672135247   0.605244890375452   0.369109845946987
0.281667787761559   0.677548003932045   0.715132596540629
0.464115368315718   0.827021451637196   0.640676242097243
0.438775016528378   0.790115150751435   0.585218563166587
0.509130360720459   0.680070882286640   0.753780698795449
0.682797974709390   0.855628543012529   0.710428273783732
0.495427906668644   0.604390774947870   0.567417677332690
0.561263567140732   0.645494687739080   0.934230537740653
0.245108881798067   0.566735845567225   0.124286297785940
0.596648875591653   0.694125804653425   0.026943049250855
0.474374204913728   0.741525427572439   0.865442361829316
0.575360282818146   0.875977409585874   0.212869308864893
0.749961041366600   0.696374569880597   0.989313645213979
0.713444040738329   0.854672786814726   0.246149846868024
0.781518338471536   0.674860649951311   0.336179526271212
0.589640995598181   0.553720380540420   0.394808094554022
0.528392821322089   0.609983805907819   0.284014336960753
0.531291706301773   0.667243244708378   0.372792605172324
0.654117685002766   0.799587021279362   0.375153538350256
0.563912369600914   0.724178421641762   0.144575668973928
0.504200743774253   0.706369461176026   0.534100576820744
0.689487270325540   0.859764239513678   0.276658450032540
0.596440119476979   0.734713088051286   0.539170850179217
0.550568845263473   0.579910628169427   0.679188655127616
0.535265201887628   0.672758502219914   0.478650555331086
0.886653726957206   0.775203140116372   0.906265122200110
0.282372163681166   0.753653427663510   0.791439941118279
0.689933287579368   0.019984276088837   0.705122302448780
0.465071192246018   0.705791025180433   0.885153875008508
0.552187918957386   0.745541187456600   0.112772618329330
0.567847676345455   0.810851947468821   0.132926293730100
0.675717514929412   0.823018385075797   0.082768203183493
0.800457895883014   0.888415528501028   0.107586113049349
0.655392595324915   0.047737842804871   0.878558925606679
0.486350640888448   0.787285630563775   0.227161707227574
0.571530014764808   0.789597474121071   0.230534812874529
0.566130851257736   0.713514890070987   0.404721839786618
0.612081274785386   0.627816034154035   0.407179859971011
0.693766383791121   0.883137219851202   0.305179805764902
0.576661094874636   0.699328174920458   0.541763814057291
0.670858438694954   0.962649568116909   0.465516256321848
0.729474551186849   0.855953078569237   0.446957299579862
0.651958747849686   0.834850852177601   0.659196916884459
0.387534399775530   0.762188093436609   0.527663942452054
0.503553083772944   0.694810627145269   0.644269151739784
0.622302692458513   0.844656333523661   0.891596838513380
0.552607093963947   0.749583567988025   0.796340398844020
0.483680448959967   0.715689540115549   0.804070017194897
0.700586255909462   0.757858330527688   0.983816676247184
0.562514173942165   0.644869326576296   0.097533963442760
0.752667889647645   0.930270083458512   0.898760270874627
0.581333923133021   0.782351974661362   0.837565541069787
0.673534476386034   0.943847443923256   0.330544187844365
0.755787446605437   0.911417848893030   0.049238855575309
0.798209663910017   0.999710775450284   0.172402030688677
0.535940428416625   0.081180049507133   0.214836391789923
0.501049153386190   0.705420021597003   0.172540394110980
0.504597972456257   0.700182830592556   0.267306362477705
0.635682753305831   0.713303448064847   0.548061997587571
0.494810093426881   0.813524766701647   0.287070986848621
0.378392653002656   0.930128171769722   0.677357581690249
0.628125374893082   0.923502336641847   0.599384138608205
0.422995012267310   0.849921121740705   0.594337228713865
0.496284504312614   0.862952757191706   0.869434521572592
0.695879556608569   0.854128056571473   0.607261280171879
0.660839736060158   0.018220870107603   0.819397588963274
0.620901342376632   0.880995648229205   0.898187036469132
0.470731815893958   0.889905028549495   0.848571872139801
0.826893603806350   0.860096454853583   0.839479103286194
0.341153303942533   0.980358321696678   0.952140551952919
0.535154289590999   0.965666003197999   0.042055717313364
0.497772890725434   0.173932339194552   0.946864370347291
0.515316242380666   0.933347618323722   0.161332559463078
0.621470105608496   0.930313346523539   0.989904669978623
0.845303547226596   0.906613223769924   0.056797206608549
0.569357754430530   0.810141561430928   0.198647036333573
0.415142402124274   0.823520111809088   0.229798241078638
0.471103485242259   0.862735223507589   0.506353449538238
0.624568243058316   0.167222112551387   0.349234544383788
0.479945966189441   0.814693525325239   0.411700826786413
0.474937029122934   0.887986375042047   0.287709757083563
0.625398533059431   0.837625579312130   0.631933316180502
0.543221037369067   0.912318937664935   0.671995524915836
0.676297325285768   0.833946674914791   0.790465275147026
0.610795265015154   0.893538026129982   0.491665081147678
0.742806517280064   0.968948599195988   0.993335090665780
0.556714768502359   0.753820667553407   0.855208862651528
0.546512874117616   0.924441388863272   0.735983784750454
0.726190753261763   0.904777669974289   0.888528984663161
0.706135341046104   0.108312443013476   0.958169084355585
0.674387012843853   0.901932984010392   0.084138476392653
0.722471543724848   0.951177514523185   0.962200384464056
0.628835873225984   0.886958408859602   0.302303710827942
0.637296194490434   0.874212879927276   0.174564351845546
0.610177131653371   0.977044124414728   0.104868519003198
0.575485991312993   0.964313144679013   0.055059555263904
0.527530799938872   0.898695135085949   0.348377184003350
0.552617740933511   0.869983699316964   0.516308624230492
0.406833132252297   0.875248320026643   0.446551323951585
0.530119014466636   0.836142742917601   0.686332401801500
0.558353453427495   0.876112984845272   0.330389398331712
0.668258076221574   0.871102256603445   0.587838452780798
0.650623819213588   0.936219276230230   0.664701692923426
0.655372065473244   0.990958726737492   0.567263131955111
0.476396898156221   0.099868072878844   0.624278051397951
0.603976552945299   0.958962119171601   0.726853274714393
0.643021262943097   0.899684834718865   0.680166195592490
0.447981914940476   0.849522185930819   0.011867132941220
0.323287210810900   0.826748551846704   0.665953835470222
0.619271635054349   0.971247980010725   0.928245960151857
0.625007722060221   0.210445292907638   0.105277135490454
0.605268733443012   0.933553255573414   0.153200323785010
0.623386245169927   0.865787757405105   0.102200812253232
0.590890053837724   0.116338607060159   0.194506097000653
0.613770774545256   0.974212677423376   0.043354566312582
0.663072715026115   0.243607023379292   0.265214731287978
0.546609864249351   0.181775109255340   0.409546093242660
0.799609406983006   0.992132969623293   0.317902779175088
0.488579175328630   0.896017916278072   0.499760056825648
0.512433844829733   0.227545259152882   0.492329690323909
0.659870150412070   0.019542036539234   0.541721660067735
0.679159114688102   0.950665848807445   0.527083074231537
0.529084637883084   0.898016006478753   0.705939650928058
0.898970718778083   0.832866502413270   0.574264440251033
0.415063262398513   0.801265322590957   0.757817073238321
0.543845033790396   0.024166577449411   0.735804954495719
0.586674394054418   0.106526213602731   0.898437805192531
0.506085698701353   0.965218838304313   0.681427300259123
0.768920464780344   0.900536649741843   0.741492456450182
0.778570390927593   0.954609911978872   0.999350788913823
0.523657623214031   0.076179446750622   0.053645932065833
0.491683810382674   0.195246011138945   0.881136314717034
0.973424133529869   0.995150605539645   0.197916999482358
0.594509993292659   0.974952914996825   0.207640459800023
0.606011124843550   0.956057240363691   0.241367963972975
0.679724241023751   0.052409668636318   0.443163306639276
0.728491916321352   0.135460682920039   0.367434882451763
0.673192865857201   0.019698495860213   0.458007811223062
0.772771724006620   0.068770386333469   0.401727016450128
0.709294130869817   0.017032834227133   0.492551294093766
0.573966913922901   0.978409694258470   0.465263547643393
0.649776292932618   0.075892295359115   0.450097105024286
0.519388929157812   0.209573325560315   0.649783932066595
0.604885705696359   0.803513331176395   0.622056028452386
0.655238754944286   0.288466704238125   0.544904672170155
0.659734049608984   0.060454168215979   0.954288801479098
0.699595597682113   0.168678573808423   0.771416013796784
0.655317147763800   0.120487743140702   0.921644453229421
0.825409970904118   0.122917917364923   0.990922392976697
0.722393965426200   0.887772120956624   0.996332069216209
0.749147176433092   0.096270612833615   0.013779405520658
0.563373948728638   0.876400047990987   0.826102097261238
0.614211617563640   0.057665569819241   0.789839034554140
0.466207392481761   0.927730493486362   0.293260640525231
0.543930151520175   0.195379170852983   0.313732455954591
0.718920518031798   0.130033005237740   0.270399750756645
0.714028500091007   0.231431729838237   0.091419235345582
0.619645538232205   0.197464667839930   0.292079654164815
0.505055509374202   0.151889375828936   0.529247775311617
0.495251947185341   0.212795323774262   0.273394560967594
0.363227266646636   0.297116972697143   0.568665212814368
0.588337154514921   0.129185880529681   0.526474361486968
0.679986856408506   0.088766777657209   0.576034682053078
0.682395457831296   0.065772390001987   0.649148653225730
0.532435426483484   0.264875130787690   0.802490812401320
0.741104210006497   0.140034458553143   0.726951309384961
0.591254879939274   0.062977568287075   0.817582271426102
0.623700163381844   0.230967492122358   0.776963206336141
0.433731045491758   0.306649644868690   0.799412686502207
0.700018028845882   0.821410140203438   0.944883663110031
0.585176853474067   0.104234088556499   0.753610961915968
0.780813782446825   0.113580113124431   0.192065964304417
0.685613526446051   0.138510609329756   0.217068040745221
0.632511952409608   0.274764889678129   0.089972053550158
0.558044951787487   0.138256270507715   0.094290060640082
0.770736259223835   0.061406409770112   0.215081604471542
0.592026255180179   0.189887910329971   0.363208578796138
0.474893077083590   0.320196268975275   0.296905808199288
0.564765158612392   0.272966691064245   0.350969890620809
0.591797402868867   0.169301916592315   0.470661891290246
0.545201421067012   0.964078502766759   0.530266779362557
0.590620718184168   0.235893359269286   0.406112351793466
0.748505910194309   0.057695971528277   0.460596370169359
0.923209982925424   0.101425158121670   0.570891640691710
0.687595667657629   0.273785651824445   0.751802246526244
0.576781540591094   0.127335475933336   0.683195250341597
0.671079988588477   0.152703837615064   0.913640424429529
0.570518747502841   0.238288183863608   0.848630417305767
0.582680050327530   0.143696251683686   0.829284303455401
0.643712940946316   0.131758157994111   0.829064413881283
0.718740024740552   0.037023333250320   0.067234820296970
0.520008045354371   0.224216929882701   0.023902731710719
0.786600326767789   0.296422041375806   0.971285170363232
0.780333532129080   0.139930033900068   0.144226766350866
0.719502082001935   0.208111707165256   0.160473380932611
0.704570497104955   0.096832618686215   0.412107154179205
0.771115215363379   0.193264979628396   0.249425444178631
0.675110363902152   0.982750857082859   0.285553965621154
0.510451103089759   0.016053463751372   0.453074791653600
0.408552321538466   0.135774618539224   0.497356405259869
0.654405009804711   0.285266196795463   0.694226984584916
0.623500131100093   0.052290380616396   0.477471978820117
0.828789001258914   0.283271297145382   0.639914590541393
0.707478141527574   0.163053931650454   0.732145283098140
0.588494978536340   0.189575151847727   0.694539574609476
0.660252368073257   0.196665628113966   0.557682728228420
0.891817733081194   0.185932839488812   0.726193241101981
0.691549701033673   0.217522331358164   0.930227066405584
0.550572782665194   0.293707212382216   0.861523122345217
0.703459968132441   0.180153861844541   0.921664614061392
0.706608214169017   0.180024772019461   0.879814446667896
0.619877580534873   0.157456373215157   0.051325046228023
0.467588020769923   0.324212148473280   0.102243488376835
0.510860144627307   0.114313961348403   0.157430372420178
0.494759200842287   0.349506538400311   0.280315231185847
0.706065751917935   0.069982643408097   0.287594415073779
0.885683426688814   0.247637022431804   0.293503570675157
0.468218909071153   0.431672112445344   0.387482296617482
0.711033559359139   0.385253459013351   0.544576037483485
0.654923991147776   0.281772848685178   0.401613149751224
0.607302980238461   0.275885575689827   0.450466000997407
0.573175570648071   0.254093408136505   0.647165389132957
0.495801195653049   0.321510993219313   0.614653852988998
0.732757799864567   0.514426359282009   0.425704291288246
0.778580343806023   0.197895145409063   0.635632172570116
0.440937061799826   0.256708224050461   0.964779503520800
0.749154490969917   0.065547315132311   0.833979832099395
0.665091097861885   0.103699444638199   0.957547106938627
0.677322230130776   0.445879160851432   0.011341553308530
0.587129827073691   0.066052860436610   0.890053660706517
0.792347535478174   0.223506109576847   0.034810609431637
0.691917659796121   0.208338041093966   0.214676184316188
0.622674582878102   0.481758613986805   0.806650679815340
0.714245335562516   0.169235192246943   0.275030607231831
0.565809568607445   0.254836603141243   0.157916493655799
0.674464350284041   0.407188125620649   0.322275524498877
0.716276025650365   0.207793269189734   0.336696462603471
0.687975693404326   0.436332618826272   0.298809654889767
0.639120610927817   0.299371802149776   0.342335050914429
0.687155986353568   0.346151720135642   0.481656451374510
0.622423326496071   0.285129454818101   0.375938611122622
0.893561967107285   0.319662184367705   0.545551729872094
0.726205937620472   0.234974897423860   0.670269902080068
0.671300563703989   0.306336207899231   0.886059230244535
0.614230069575266   0.199175032669189   0.718576812172058
0.486787924758642   0.176820335595709   0.554857206003429
0.688033808318696   0.253392137976844   0.812802337673988
0.803933170278953   0.447781727366311   0.751362330872375
0.718348447076808   0.402564834237166   0.819056091245789
0.814124227173819   0.478777179528558   0.014133060456081
0.460355740567881   0.491552217197593   0.106733137124843
0.614379793889794   0.326250320983934   0.805291532602813
0.625249776883079   0.248509683030142   0.120347918111989
0.507058573326306   0.050294538920216   0.027492572102852
0.652260424117879   0.326770809353929   0.230421008128182
0.597895981774960   0.434395946130060   0.284490859750278
0.511708535292450   0.210947196549886   0.308763141637365
0.638410031969278   0.554584826497309   0.270906065900603
0.749120072960960   0.341389810000806   0.310185278324260
0.460163777036691   0.382684357293088   0.511436344417560
0.583113593326140   0.219031877054967   0.505415907848982
0.706575467113581   0.257946697592657   0.570914904401726
0.873326216321735   0.286984232568766   0.558840259245911
0.681822002669103   0.407689007548237   0.607290195740129
0.721312143658548   0.202216259490757   0.599762112205930
0.635104505190712   0.441518110328936   0.710497387635833
0.602482677133284   0.321695684399478   0.895547797181424
0.649889517036331   0.450934002809298   0.867298822689338
0.471060649782771   0.259538690214161   0.908903056808978
0.453206998779639   0.313187210214104   0.877912390301297
0.686814569111251   0.429483081170751   0.077602068219128
0.667905289080059   0.300745573269078   0.166445753605250
0.725668226420666   0.365628327430437   0.985942638603645
0.822828973542844   0.515345508702619   0.175713316609535
0.597921163132791   0.491153618676188   0.217052390374382
0.534065087273614   0.396236928129365   0.191830528838772
0.677621660447930   0.501925829651843   0.188007667319375
0.643870707292483   0.351304218950061   0.060683310925268
0.367094358280336   0.379980353375184   0.355254350926366
0.798566355616245   0.350042274995071   0.218532007220793
0.676622171624533   0.254695679123789   0.453628193365665
0.588761534801031   0.204525878798482   0.622466170127582
0.566994631484149   0.456800690197569   0.495881401516325
0.577112396941822   0.435618885532774   0.680400024491838
0.885513559604436   0.503945160605911   0.856314227516293
0.702608036060173   0.201798447818111   0.671006725361337
0.730384114181213   0.366304662635416   0.663919352888831
0.541491609879449   0.260842179471167   0.840923453639774
0.896744271927238   0.360477827743293   0.898003496770054
0.580234823020742   0.453736889458567   0.909167203084425
0.529830721911305   0.290564710597904   0.093626625937318
0.721482937454800   0.417888238824805   0.083544454279318
0.483969486287316   0.384982597041478   0.228499103317504
0.537370264220672   0.442540267844620   0.225407684657343
0.737655465879190   0.463408777607758   0.189190960362479
0.627008821623854   0.378361145688529   0.265614283276172
0.592685542761834   0.401098462184687   0.219595306299642
0.616933936730088   0.536311617887177   0.211728370107110
0.312039884379670   0.356774176088328   0.381478689618405
0.693812241481543   0.255155979977306   0.325608427661808
0.830913622533805   0.425570686714597   0.368554903296333
0.715582622950989   0.274572633946737   0.511035574379101
0.526952711277731   0.359350422181681   0.564186050849114
0.627012228717601   0.405420030188065   0.707005494786922
0.736801620576549   0.595483956512851   0.793490709871747
0.593141449456091   0.294539796622391   0.795762066478149
0.334785850522849   0.587265851271385   0.898402468609307
0.597670680260178   0.548880771511890   0.961330675574036
0.714015577267958   0.400031352070874   0.754726900717084
0.721589882566204   0.703496631408130   0.751642516559715
0.557125572798733   0.584351168900571   0.927388208630278
0.600393084204105   0.464308131160677   0.938547520513306
0.622346038614541   0.590515453707324   0.009847514720731
0.654970290924273   0.631347345230013   0.057941854906912
0.447333173524021   0.559011646993973   0.373580909453044
0.716805440121639   0.367552111949896   0.122215082588714
0.584722552819011   0.313395117681309   0.167646646687150
0.534263072984607   0.443981699772403   0.428535040103922
0.714540050624766   0.616152708816633   0.430177880148516
0.692731942375655   0.458349525434818   0.427487803012898
0.824613933738577   0.316120338978757   0.487504189941410
0.752030504766438   0.568127439777707   0.455577735316837
0.464829972233075   0.574195460279814   0.479338071202600
0.600343493648347   0.605766602816111   0.620662886086992
0.439124673823591   0.488286490753189   0.692609652717959
0.625488555551067   0.521297507787565   0.677952013845505
0.647742150797250   0.368020946935251   0.835828231251736
0.469052478673815   0.502753779712651   0.851120999333880
0.663006803136630   0.677672621040199   0.750059767869892
0.678705660474630   0.505067774538693   0.896442032458567
0.699251787547979   0.657383064785221   0.240248270479415
0.624957919712529   0.460850580272041   0.063573851833366
0.854384283063160   0.456209773508075   0.827943925767431
0.800320426779628   0.559578640349395   0.266780107010876
0.846275307972651   0.561677320779530   0.055731100238852
0.546579339872348   0.327305919907162   0.175993408317997
0.407246145136197   0.261653581688613   0.299909231390666
0.696458390362144   0.723663533704097   0.248665566933501
0.708766983799653   0.457953109595621   0.327151411210654
0.700635967307585   0.713440165289990   0.350741309313011
0.459147321207235   0.648518501929136   0.304387193681413
0.568686976435293   0.641601723929130   0.569031990325067
0.771912644446528   0.491535018824883   0.371118665469349
0.750731885389368   0.322168788855287   0.710290229837113
0.660142789555297   0.516176966559035   0.726184250105952
0.582807074548992   0.697872855323620   0.761116679527199
0.723761720487260   0.607694513442958   0.829633944258925
0.555896833945133   0.471056111255847   0.734578173120494
0.687780738551857   0.488888187327768   0.838917907627499
0.476789895755844   0.594664873063526   0.938429319760550
0.793977942674911   0.570232447473893   0.743961830228101
0.670778168285072   0.679013677974306   0.144616246323421
0.569544191256843   0.494152393794865   0.307697625917043
0.810137640746817   0.673344718691723   0.303366727445135
0.722497285881025   0.674954673051461   0.007513775066236
0.667110809409241   0.492805430214035   0.257620907953414
0.661963774659935   0.758585273978955   0.190581702853839
0.662702154601761   0.762943369108067   0.317167654338908
0.603079149187529   0.485926775650970   0.444268422118750
0.041441593365429   0.395483509631693   0.368893794281247
0.688607946119001   0.691973475876198   0.379571180901807
0.541861048448846   0.461722625267643   0.583270297018064
0.515158480827878   0.474811696670049   0.414376027433128
0.669208092720065   0.667927059007608   0.834635599910771
0.635097054305328   0.609614333194248   0.575250465066027
0.682523292459825   0.463731011546972   0.973771415712385
0.768130602219730   0.769942303991545   0.936906615173550
0.686996162386394   0.430249957673200   0.914389501716480
0.596418743631797   0.579921876704203   0.986221204599145
0.568374910777928   0.418116792588808   0.905662187318974
0.685294219762641   0.533223572619589   0.921033115376522
0.511220823949626   0.824744735520122   0.956269637346666
0.736723216366864   0.742200857466926   0.876963416265266
0.646814194771812   0.516689116629196   0.311530559714589
0.629167291663008   0.666089043680452   0.100933658286963
0.914460155248475   0.561344592093993   0.271351924799730
0.517641808322845   0.638948361484165   0.260904186330993
0.648517762500009   0.701516924082098   0.310825933386983
0.679404069405081   0.686973140940547   0.444144895021194
0.727960653808837   0.615937856314761   0.577599028733511
0.754425485898921   0.687571677013096   0.507405230691780
0.661141909023908   0.693897067671381   0.664851043211620
0.560636325931294   0.397569842493191   0.625291498094556
0.709086114096661   0.657574718081118   0.690317733638011
0.555638321710913   0.566601368472949   0.377428423102253
0.710935017919270   0.578853312437879   0.634727733496896
0.542735163838966   0.522564738099865   0.638955911479868
0.581412429947130   0.582740681548692   0.777500996528969
0.545317187655067   0.597631533284920   0.894555566610338
0.588917074775677   0.690026976163428   0.991076770347343
0.567316783251204   0.663505523042181   0.872224652087084
0.393049932348380   0.700338702547184   0.042642231091855
0.545008308295899   0.482679360462702   0.995126215204587
0.755644248267694   0.871065697501862   0.987192452679353
0.641516066984019   0.786564452817562   0.037901239771767
0.662735615652693   0.770665072221790   0.274000068454892
0.770290180541462   0.946519806574516   0.144054195929453
0.727526742566513   0.690178242048573   0.121456611614116
0.855069222471400   0.786331482141633   0.377149038072954
0.703162050950969   0.688205394300577   0.262641983369150
0.811915772402641   0.720908770527359   0.641561662260615
0.530905095288397   0.768885345983687   0.550640250358566
0.705050927245369   0.828259078405382   0.453375237927028
0.596813143851166   0.767755070703889   0.479737339679094
0.676377356631246   0.616739314982107   0.771065433204479
0.782207766956187   0.640540404230269   0.899062040202653
0.609559850292495   0.533558553848246   0.645612669057316
0.716653500912140   0.797497222077499   0.043049772072228
0.495000543575887   0.726395601569403   0.705262152469929
0.400978229106799   0.906677038609602   0.006751884415520
0.647430641521686   0.724909097401457   0.816532251720249
0.654926480015733   0.624090304290701   0.966308584495933
0.620554885932431   0.751724932596358   0.034035438567890
0.533843225027002   0.945922107375134   0.289044385784292
0.640162744481540   0.765466848776341   0.124834259748524
0.781024555404723   0.646587483874461   0.138243807141356
0.804268303660298   0.765956874819857   0.229468657152795
0.588784869246720   0.546726590922824   0.433677926583899
0.536749921669656   0.630702159846896   0.386288798990768
0.617498304460867   0.012175201161101   0.424847177667992
0.651836527273837   0.754735437624614   0.508155082385689
0.569875308482809   0.738123955959269   0.596836116584733
0.470818134246500   0.646425818378951   0.347559998280789
0.752186989037423   0.730444556672588   0.839878172254456
0.659741269902685   0.831328295239607   0.830337305284316
0.659128916681314   0.804268849668142   0.683547595006700
0.474842114908240   0.810829102688008   0.833395007840625
0.688922943755657   0.604743249453026   0.845545810014189
0.799893439763723   0.749423424977899   0.893096334517638
0.540068192600181   0.692832585447664   0.816127654273845
0.680231698519357   0.816892588704775   0.910023537047505
0.553831118463756   0.948623574903380   0.916701319117565
0.678379907014168   0.036200875026485   0.121735655641844
0.584581848337855   0.908510550285796   0.127841636878068
0.704712526147297   0.796028258486681   0.159139896779114
0.706366109909645   0.812992848261524   0.340565780402465
0.584997348869992   0.642946676574857   0.428169268009713
0.482248747020963   0.933290821132729   0.139104315289191
0.746812650693341   0.925780396512074   0.405952543073687
0.729230822390366   0.891215567118360   0.315573250168102
0.716943806497068   0.834086485924324   0.525165269840070
0.568932536062569   0.753280945412721   0.559957828239300
0.699456372237504   0.753410944973396   0.663181996710571
0.544450051297885   0.829623330588941   0.619473995525396
0.792569425567672   0.737333813054165   0.521606420978105
0.680711868663367   0.682782353517208   0.633579889129141
0.830106095962453   0.814614388185606   0.681622319556927
0.641061281704134   0.779382342670947   0.770435349452999
0.671387869644532   0.980111218243041   0.814716682172676
0.784746084196878   0.710975737349209   0.003032374881119
0.667057552758109   0.878682842781276   0.020388366753209
0.696095081276163   0.049632640443886   0.935063957133125
0.435548650938413   0.929738934000523   0.219708885024162
0.710202371707563   0.726727682170222   0.136986718365444
0.732292124300782   0.976943722114199   0.320714931723356
0.553013723299372   0.796702162336882   0.167791707810845
0.565170927159882   0.008437916932988   0.492237202507241
0.472915332327142   0.829203468938111   0.319747770936818
0.432947030182329   0.806029510724191   0.548751663422807
0.754180404507301   0.052342367721871   0.523648033353720
0.659576020892457   0.813959296509448   0.498839481211526
0.610414553861723   0.853379630626051   0.398663189516087
0.563454022034010   0.916476491099030   0.449041619842890
0.591464630543692   0.926597716364017   0.544540548643977
0.753321292823898   0.843315163058756   0.514051603340677
0.686931871550160   0.912180387751922   0.731875952233743
0.704272731025978   0.683111142424950   0.837609611388424
0.777293164655132   0.837246446509352   0.866266564466442
0.526704124570053   0.812379430982310   0.990053791882393
0.752008470080030   0.795882357965732   0.959086711973053
0.717169476407558   0.856966281696035   0.157926051412716
0.670255205857437   0.007517391630413   0.146131516341121
0.697880222101682   0.966343769792441   0.070672132943535
0.566297846735134   0.684369646153647   0.047610002632916
0.559046114929767   0.009621954298712   0.311341916804918
0.666043821978299   0.970050343200183   0.129129187148525
0.506125448978379   0.878988864659858   0.106296882447051
0.700863772623984   0.110223684711506   0.377233766069399
0.611701760797865   0.861188935221993   0.470150617316654
0.662063756159824   0.772404223213396   0.621411440977386
0.916703170255938   0.188351717024950   0.494957158625867
0.615157889759695   0.919508463046887   0.402236122084240
0.526723958752323   0.028405841493719   0.568279230011130
0.873680140767826   0.977563766050314   0.582006701123625
0.700821027993926   0.815356277415139   0.593066860039936
0.718964080585131   0.054262177226637   0.658569880883749
0.422334094307269   0.978143267853527   0.741938142092160
0.536915839638348   0.745566031191832   0.763078063342046
0.506359851088115   0.764751977571705   0.753488513737935
0.433371345784325   0.006145934769741   0.907000848186097
0.667564054310438   0.972835523923869   0.089517918734511
0.686851607703977   0.031363883846385   0.898668657219033
0.870585712924158   0.967517438507285   0.080451920998160
0.596474888182646   0.923251773366778   0.336967628418590
0.765370864315588   0.245611733854027   0.127145233964815
0.417712816096752   0.929425811292146   0.111538636281958
0.753311210776553   0.888457007606286   0.281807224630500
0.686330941206603   0.076227598788047   0.252426045378554
0.529840209263445   0.053776132808521   0.127290889675546
0.713766380440388   0.894872241787709   0.509885832058024
0.638527972315072   0.049902587673590   0.543710602269825
0.496270332378660   0.961814332747268   0.832697676689066
0.587451882004331   0.957970562991606   0.648871223902136
0.712149875889361   0.064720283512015   0.816201236060323
0.795384300644413   0.131950573446782   0.775360947841212
0.683010024876879   0.989668823299514   0.909666514439359
0.495508603333424   0.742126690496304   0.829623336196165
0.680526401246615   0.224538727917772   0.836276489499877
0.639784490861252   0.823208659479011   0.920558902682327
0.503120199968327   0.851412807978478   0.054324283946680
0.060743332803667   0.307896184305056   0.028136530601898
0.627487017717920   0.959636531862514   0.133016387447971
0.557184703495428   0.865051300449396   0.945063816419364
0.712244617594266   0.795673399994657   0.976753806535826
0.826929313891237   0.963159468256733   0.123248546523865
0.816976062863917   0.007204807087793   0.077926076939900
0.625839536126396   0.071384495883313   0.049285812200554
0.697651619315459   0.018244829449954   0.528906540104965
0.754393867851173   0.927587563440077   0.468382982247180
0.721760290045469   0.311037285757259   0.298757394233142
0.629011256294911   0.149040220139575   0.430631131352700
0.762018864107576   0.992359318789211   0.653686628118000
0.576526642054877   0.954745098352711   0.337576587923342
0.635163827154602   0.791940744356740   0.570713359084615
0.669856705798503   0.867402466044488   0.672057154584089
0.656850818099740   0.104988499743327   0.771556934862132
0.447901735472573   0.926478966862773   0.646639682313769
0.792589227835422   0.120240990828445   0.968083128850531
0.753897733411570   0.794870277452947   0.669386925892551
0.604883709610759   0.871973999761913   0.831169341244699
0.610952859897413   0.103858210838408   0.996634479070667
0.687546349889810   0.099286859765607   0.158362131520805
0.852742680370351   0.062686742224301   0.115070099751318
0.601092547509487   0.156121814719334   0.239939627830249
0.804896643890609   0.040296156029964   0.066314885209280
0.753901913406758   0.725627603675185   0.391693584653462
0.704286543040042   0.977398333218575   0.377919047973725
0.532236329546751   0.044705965041356   0.216250056464705
0.584478443556488   0.835982808531038   0.337188166394466
0.800269858579849   0.929300631522301   0.207441601806309
0.787003667833323   0.152072201789504   0.466590259017400
0.657712780519558   0.166825102347054   0.637339351394760
0.729296221174881   0.113159292216158   0.631716437605637
0.696603531300162   0.931169611778778   0.611744802442068
0.728477527129016   0.187959241851265   0.565341279646600
0.714617813023943   0.843445740845990   0.798235149534137
0.602934023365650   0.058802078314952   0.667215475658956
0.791320267686118   0.129573920808684   0.047691670803092
0.766177405220868   0.180252972221556   0.772029737873155
0.725243698064830   0.996408059959380   0.015730840804961
0.675140659306472   0.176977591975213   0.234708649540013
0.527150175740672   0.129058807879880   0.002788702324305
0.383463154561805   0.096738322640616   0.114151165879945
0.650449344186937   0.144123985027229   0.197448872576803
0.752675809395907   0.023715259747319   0.269359328446845
0.718522495904664   0.155505063009107   0.095012125037300
0.905434675767830   0.068286072002438   0.336001690932533
0.855542175475749   0.953660042540444   0.410961501776906
0.800483817621421   0.242948217879379   0.430563702820146
0.657494346998562   0.060223676613661   0.381102141454503
0.792639751518718   0.935679535811082   0.636759446589000
0.603517662124275   0.069093831146943   0.754744515193976
0.831892809926671   0.001016700613132   0.652726132481510
0.574745055759886   0.969273683955532   0.615041232349868
0.633081764544170   0.112132111483953   0.657881448849428
0.791161641228586   0.038780422515329   0.684505053392853
0.844935324631117   0.071273323480202   0.649090570078830
0.733148890741362   0.194066136108726   0.824355006289551
0.796576416663403   0.167630444443800   0.799129203678805
0.687220930239190   0.047940610560640   0.013938127314333
0.825229863279957   0.199576110905638   0.994434808922529
0.620397468586388   0.375158735248198   0.162035482095378
0.534584334239644   0.027369872077306   0.008962882011105
0.718256907261908   0.148447496702908   0.056521624311175
0.760717206595026   0.340293831149984   0.414799037389355
0.887654248216931   0.149382144078569   0.223306669755382
0.994555447425529   0.201961368976743   0.191098520006179
0.579892283198378   0.130176086469322   0.464119958576241
0.829863170202330   0.987853882667909   0.341734539008281
0.733629394263402   0.212642978410537   0.483496723191463
0.666456235998295   0.096793440596062   0.664811842468934
0.728944413937997   0.128572997992145   0.576197693405019
0.448628304007275   0.189781445414837   0.550960573952265
0.764405542830356   0.257043559094570   0.438929172285504
0.677456277026690   0.995894333548087   0.679573498633839
0.733684332011311   0.101429903750550   0.733910923085284
0.740987823054501   0.988973646658010   0.791617645201541
0.768507793993848   0.418888346770456   0.697682737567453
0.784765724856882   0.075232213190359   0.820859120650871
0.631396210931493   0.397782434421915   0.913821260267028
0.745792084543561   0.011943856677057   0.048173167122859
0.797875341730200   0.173114561500293   0.266905873325837
0.666885872190747   0.332187883437534   0.039789688101806
0.653959677261701   0.058777461957651   0.069496860918932
0.766265255517354   0.174032665499658   0.212248479145296
0.796943587063234   0.167249351822352   0.302328775362273
0.821381299315383   0.227260823740877   0.568628445547104
0.445769766223282   0.237395454387880   0.386692013005082
0.642749291994160   0.258586142649912   0.433807890447079
0.782960022037944   0.429071248068283   0.272055033814722
0.617290777074846   0.230480718463970   0.498142205187243
0.860323203715746   0.202635603218960   0.609925276856243
0.842432372754020   0.108067959505520   0.628417571597308
0.815459220731383   0.253289134520672   0.535140311352162
0.836456146436500   0.953022681436963   0.740660480867291
0.853084894812087   0.363825265613615   0.902054346060255
0.901918574786391   0.366878451713108   0.857007156361183
0.799608173903335   0.197304545486697   0.859548185096065
0.681389217849890   0.080247154702691   0.753020903191188
0.648705988770085   0.919912812816855   0.936020643737428
0.775403960821495   0.036220870339111   0.039490874120738
0.560527209338208   0.199243765856756   0.063325473533612
0.795394221994509   0.389025300901251   0.080454714638445
0.559864299903692   0.313611066414377   0.982103142035274
0.545349898975354   0.874774480852030   0.090737856977342
0.823443815658444   0.321722231921152   0.213941678218042
0.759420149187435   0.085240866254422   0.086563490302486
0.681204356366358   0.414467669450229   0.364667057482748
0.507060596393110   0.353227771955614   0.400107865383099
0.703812324474704   0.250345837257540   0.262565542839701
0.757600481617123   0.233404190957721   0.539502025970750
0.563371185193877   0.370723676251702   0.443928032196980
0.651021972260583   0.326377933511926   0.480758236433139
0.742987667076031   0.314908231757024   0.784557849492036
0.681977526580074   0.219546537865441   0.611803106098068
0.729603729680005   0.274112390295280   0.928524767657324
0.523428753235231   0.064277668325510   0.696186958716589
0.584171659137501   0.356938598676263   0.890146392658259
0.624315200701730   0.267285024604575   0.710086085662755
0.691088501316636   0.093784199112837   0.833794229065169
0.570143969448121   0.358665977925357   0.852797199255127
0.775248302002718   0.156704663173170   0.021578542646596
0.748634782522960   0.278158978832424   0.361517652017163
0.676873571296180   0.353617778347221   0.121397381032365
0.659909501504181   0.210179835737018   0.289698190014638
0.714526696010534   0.394331163871722   0.249778286039252
0.841281764786165   0.120277101422348   0.375341026212262
0.628637489500465   0.374230992680542   0.431935151290306
0.863479376166045   0.189331803147024   0.459703163934681
0.758642836967703   0.150732797335867   0.494504736955916
0.733365313553425   0.369912831733786   0.514484436452273
0.738182853049771   0.253712273739660   0.635510081406816
0.610137541016128   0.185910151905302   0.433826862104977
0.801145660611827   0.347207495609403   0.660759635997727
0.841806866259972   0.439520365389274   0.757319153190802
0.503157380378438   0.376931330092684   0.587459379262683
0.609391941090935   0.268526165957905   0.771478722384561
0.870386783301818   0.348874254711901   0.775982184977622
0.745712083010062   0.322150822899313   0.887189171373482
0.592626973007863   0.446205726465680   0.970936815862790
0.632367224425833   0.432786435638812   0.147650411895935
0.783076317509566   0.317929884769043   0.837685319512649
0.558028989104404   0.471942732156107   0.130728731018929
0.770076313551657   0.225489845521885   0.182748258055886
0.642619409348827   0.070934251618592   0.200598317681524
0.649043533827004   0.336909018296860   0.348757270813281
0.782285294952039   0.347209646084424   0.125888523204503
0.663373360673967   0.478724676173452   0.217646866631458
0.630491612149231   0.442993014302312   0.252964104907498
0.622500758068202   0.242911732753244   0.597113855671110
0.765547342456891   0.194409856487662   0.551776890763970
0.844962366203892   0.281010831271548   0.533146670206161
0.758205736967333   0.480910904181823   0.710990634990525
0.832090682266842   0.427557518893480   0.675244553242528
0.638559669729715   0.365688589635549   0.599611803753195
0.701654296078058   0.341917634624865   0.613541539462484
0.725784534229148   0.383967618578610   0.787272258756762
0.757429254503769   0.378713685568971   0.005046847863030
0.767979804752153   0.578530100342400   0.942232917972514
0.714529859507076   0.441032040168419   0.821019509519591
0.572108133735926   0.193046740327130   0.019770042200742
0.727493199289852   0.386408407046916   0.851869496471890
0.836183277663572   0.390306714036158   0.119237098797136
0.550157451592736   0.351608329130123   0.098846708715432
0.749618231955963   0.549950854647235   0.221580863424542
0.663445363180356   0.408413314302624   0.096733396756011
0.698126017113945   0.621893171088736   0.137667401604999
0.865356812383708   0.433909369614110   0.397337284050337
0.626771195777208   0.164956694150811   0.491320420174656
0.872848337836727   0.469497872444354   0.454658322625705
0.684836552342130   0.484864332501411   0.559730541109910
0.624938657736501   0.433818676032222   0.563619998740009
0.668921409332675   0.108180580725709   0.469935704947929
0.665124119739434   0.379979370834237   0.651933517772913
0.687822506957417   0.557050967893300   0.783545455463871
0.734472952605543   0.533790331192579   0.820726725937377
0.692665816309564   0.244706703194152   0.775247992054899
0.870561075055946   0.162729050587403   0.910985539496176
0.794807798603197   0.485677240908339   0.733236086487002
0.594956357430076   0.393111475738538   0.997537839224364
0.786541333113131   0.465632767406842   0.920798039550718
0.550602951425950   0.248277526316460   0.236345625092600
0.650895331688412   0.481525920871323   0.897074581186769
0.720696668831826   0.602441752010365   0.005060000915813
0.572806578648722   0.411260765533772   0.123179121858938
0.660306523524415   0.374956468432981   0.150692338601226
0.786296204441311   0.254299590310993   0.277873465672231
0.800924746217110   0.412915836543244   0.573984278189667
0.669428881979771   0.640901047301854   0.292324526894906
0.812131760075735   0.445272127589174   0.217033567035105
0.998153433603325   0.461960761276871   0.579243055327070
0.505203302652191   0.425841212971069   0.546268106184584
0.859865325635222   0.473713673015727   0.586478147895498
0.694776878820850   0.524104833765053   0.424039678595166
0.767640950936184   0.525531556904245   0.666988138652506
0.730632508873361   0.587097298507004   0.601654865188608
0.770484439095791   0.378150983478366   0.614069133734561
0.652764848963329   0.378812738740630   0.714808319533786
0.855220491607092   0.399328766785845   0.977820143915055
0.809270653463060   0.603641658523976   0.101640583159423
0.781725426770881   0.608048786266006   0.740127163859056
0.660906168669068   0.577706975224695   0.089868848728735
0.688104627264488   0.289728596474912   0.106435003834365
0.613282309791218   0.635279363599280   0.181263762708155
0.626555722982309   0.462414467699413   0.215415825651249
0.655461593478528   0.655982721675584   0.500044949332223
0.778637723780784   0.554805905013372   0.350587283706882
0.768306287874931   0.396487356980625   0.446189843909495
0.707401079765334   0.427994344284051   0.445532214896313
0.807490996414559   0.493705824050409   0.631380402738586
0.497845019783458   0.430140629680215   0.481886804630429
0.564703622595927   0.364698511856646   0.569612113014819
0.716708975525070   0.416312134954563   0.603813599397455
0.812099304289204   0.643594499837044   0.422763663313220
0.755045075831981   0.655759010096923   0.776124355594535
0.375387027818554   0.551527391059975   0.815659915096791
0.733199628802996   0.500848705331654   0.734044735357276
0.829106222285851   0.401194342251341   0.853343843938352
0.835086362027444   0.524440355137810   0.052626963978878
0.769091681138335   0.184683919937574   0.077234178187518
0.557442870737851   0.448974015926037   0.985831612271954
0.790025898087464   0.356434743513182   0.943573524044909
0.518233513428653   0.631798927988070   0.012611475635290
0.627106193111620   0.718369157991716   0.078583089315135
0.541309290962788   0.550123137748861   0.306608082580180
0.718333396148979   0.462120668242410   0.248937218131151
0.719100973193976   0.426688371013861   0.274300785114478
0.687804823915231   0.539509863176129   0.199253190910075
0.638991716171742   0.621291459563004   0.486222551677422
0.759711752598218   0.439516752323770   0.491601774035202
0.618012205652104   0.572229269769523   0.378956960679962
0.740111899537674   0.446050520330140   0.698430373669932
0.799717587192471   0.529745282046783   0.647706437085223
0.715329744295135   0.595711089513352   0.669899265660124
0.863788359139965   0.636704012353212   0.707294327581099
0.804317019558291   0.509210503478060   0.879348807577505
0.673167555012237   0.450779865193613   0.727327014889089
0.739512107805840   0.493426127613454   0.889370959283679
0.517877547177516   0.318703594277600   0.861561420050638
0.725479600177530   0.378881585313205   0.724078112567597
0.652714427259744   0.510123699643574   0.156228838024313
0.546236996042267   0.637746672878120   0.896101863045896
0.871330108920517   0.506899678817059   0.264885395697384
0.526079353023965   0.537859328265321   0.061783928019108
0.633969962117557   0.802671116285345   0.001392923617742
0.440725375039850   0.392073092284596   0.121187079928932
0.920963861683628   0.475280260497187   0.199180989143046
0.471057773833482   0.609539823216178   0.154900283561748
0.760789892280934   0.645200784989416   0.355189284991310
0.835389128753158   0.705094416804910   0.417627867250841
0.628322035456187   0.527243452646599   0.613292201423125
0.544869849169967   0.508085770324240   0.466787845671150
0.533044260465769   0.592818000455945   0.505842217566379
0.509597191387314   0.574021686685848   0.880532230038450
0.758286091375378   0.497928009922582   0.825265598616695
0.714672020516062   0.342060821464359   0.718402578482008
0.691095346803398   0.651519745659131   0.892203989318493
0.677695451212892   0.554317504729120   0.983833377186377
0.770191460311243   0.557471802335568   0.906020055212003
0.538079907827715   0.660341283555812   0.841412471944948
0.706963712248007   0.577788093742505   0.978344582806920
0.660372245383672   0.736709059278326   0.253180306204413
0.567556963515285   0.569186777125925   0.163098378482610
0.646305901832008   0.737745724418816   0.217542998445160
0.564394004309316   0.783002720927688   0.102834794028070
0.721742795252594   0.784271086768826   0.222104559935771
0.735951021225268   0.807403561974553   0.316878863546464
0.748576830495919   0.632348916478919   0.420577378592454
0.547356623652211   0.639298633045125   0.423577838036528
0.764912223694399   0.684485250213351   0.134880080218930
0.684010868049426   0.551496190569304   0.483839858976546
0.589066483208232   0.484165160360573   0.617706352580597
0.434094944772188   0.663771313920925   0.502548452143534
0.526584086083072   0.646006812883073   0.750182205547491
0.348038572236752   0.478878482482073   0.492986970197683
0.650059685439916   0.862279902898112   0.775717080537635
0.588507423768312   0.479879942427695   0.788040473083435
0.705665313295642   0.588411549010981   0.770175980874712
0.855716974814406   0.679729124052779   0.972179127378892
0.714992429520435   0.020585041336829   0.956079201488006
0.653034001609042   0.556056456479363   0.208872563319875
0.580376570825639   0.489210453838111   0.155815588745877
0.525803279806850   0.730649425831327   0.017946886273855
0.718411116503168   0.607244715248330   0.216577883143032
0.752974947554473   0.591810212164956   0.222470543876222
0.740015109458254   0.726302129717844   0.354113266212561
0.602134772847472   0.701395249586429   0.263576243672994
0.692408469960119   0.721030657844013   0.441389001169536
0.789235304701341   0.641685582326241   0.551706448607055
0.720860402084704   0.910184809932936   0.473829155367797
0.650975576421523   0.499053486413495   0.502460106747811
0.674134109122928   0.572480289613682   0.634315328978320
0.630844648860717   0.682983119350663   0.518412874315958
0.719746072228883   0.790457656803366   0.616244442877401
0.565588220130845   0.621767793967902   0.606021478259340
0.777179897735054   0.698098938950857   0.694828751292845
0.758492765693178   0.752602780753929   0.780232453247187
0.529078268871824   0.885320152170427   0.923328418221107
0.797932891652815   0.682689940943387   0.818707198598139
0.687450489764434   0.897539548346655   0.048446985609945
0.672793528831051   0.733524885271835   0.940868811930353
0.487979905872999   0.783363531819537   0.033257378772426
0.633106323150934   0.787142984890604   0.934516963310492
0.596970437468890   0.659358337265917   0.299183378437107
0.626455556652659   0.782719884959277   0.399455539088743
0.696802527833766   0.842778518548202   0.366638718596705
0.764751940506846   0.705208906467711   0.447438033043148
0.824725878777167   0.722789701242305   0.355087254905864
0.698382069760098   0.676124928069119   0.539852407054823
0.870991114956240   0.819420965513476   0.381962848848061
0.764464051316706   0.712851101079214   0.533782203682533
0.780940368404591   0.600056871037946   0.663999647077307
0.836399303120286   0.640331082152730   0.626333697602696
0.593875063108050   0.796561814856860   0.686606132347457
0.728334451370321   0.770113727842129   0.733092115045775
0.839549781753022   0.703184323862285   0.547739631659591
0.736126140348210   0.857775338953659   0.664936508863506
0.756164195669177   0.581840824021239   0.130590970321499
0.558886196246284   0.743267657738205   0.941471114160381
0.576012134102193   0.591219560980493   0.132469031097878
0.722223017110736   0.898237629636940   0.034174888785041
0.552412245934340   0.827960881218827   0.944476004787315
0.610237112925521   0.800267670351528   0.856531783369106
0.647380956108423   0.743192105398871   0.156438623293959
0.604652997240370   0.918513524707586   0.250906519272719
0.600583094342329   0.787626608961823   0.293198160321879
0.783036775556690   0.750486482225413   0.396676714915826
0.782017073514091   0.923708404078130   0.106329284946695
0.730228870253623   0.717802343676569   0.509323565355130
0.683151221741100   0.583331653757731   0.511796816418051
0.661417359879243   0.836828899953248   0.275546921413416
0.711286435683815   0.901483564127239   0.402404307524698
0.404750714562283   0.705717113834061   0.423858047349843
0.695625444942378   0.916373522445475   0.543329851307488
0.516747815719720   0.560107128524296   0.515354079714585
0.716250094268537   0.725562972895884   0.683452169693812
0.681515777392595   0.710749439674954   0.761499357319051
0.844434156098839   0.582204894702029   0.837713552552734
0.587877603381452   0.761033958004577   0.805915631107302
0.508057599147080   0.535094784758522   0.179618303067958
0.819979259038843   0.934727060065192   0.953000130549895
0.732122898356855   0.958332800583015   0.088801394103401
0.775639793583358   0.853820950859696   0.109982607782289
0.742805698404843   0.010813386091814   0.345166671266070
0.634010875529928   0.802328320418586   0.125322214097292
0.679137773901033   0.833444927435102   0.202830642602217
0.636262512769800   0.725304500625911   0.370151323550336
0.675784428283428   0.823299718048308   0.396628142536404
0.711348284601388   0.038362992635598   0.346530121031148
0.761250689541388   0.755521225565724   0.341079214840213
0.512993555107052   0.117872683261621   0.481445907186045
0.642994561068702   0.960487247061520   0.543925094621218
0.747263311494671   0.972013890044421   0.528104661389073
0.772863578990079   0.938763049546459   0.756850839115023
0.539084973998138   0.643384320347459   0.626819158886083
0.784531067695328   0.913752547899621   0.880868427662218
0.642128426918840   0.732980755328433   0.671535432679346
0.757627601548744   0.835942815607064   0.005444873534488
0.827229774544505   0.756636678206514   0.921656066708671
0.716814675552944   0.820704993515239   0.008480733089407
0.783512469896732   0.929905397894873   0.965204004538558
0.728646274852772   0.866267655345598   0.895714087293669
0.780278686740953   0.890262680605245   0.966028566815526
0.589936370998501   0.884881056180374   0.958097880917254
0.693058302137825   0.911298817334344   0.117297496293633
0.466823284954028   0.904733237192579   0.014374679390648
0.732506460470400   0.060705552579435   0.093140797401275
0.737882906989963   0.747806705918246   0.283895044162932
0.642374262919501   0.837898195037356   0.419104653442941
0.622391953416621   0.964747961068321   0.656107991289679
0.647659687692469   0.857796586332898   0.452505888676849
0.528341448832989   0.809686335710652   0.498132518537507
0.663940702333376   0.853512387062820   0.347692957392573
0.707741097974392   0.979697604551800   0.537331901416861
0.657623419934330   0.938104978265096   0.621918856041733
0.609958179693475   0.904230978777003   0.926661877907003
0.692078731488821   0.767955220544233   0.797527123691244
0.640469767604786   0.727382284112721   0.894649692494603
0.613220991177021   0.862862236301233   0.793127450006209
0.844961108475082   0.794670997374864   0.811919413988637
0.702153849739754   0.133601627063891   0.787240586824765
0.601972741229303   0.838654055516254   0.038561973238059
0.828764661310769   0.897124224428431   0.135010522639359
0.865691321668445   0.873464291731113   0.274031519877789
0.695614111997401   0.974753054531810   0.033709916997188
0.690055449253848   0.015695445343535   0.177130282620553
0.907332531330829   0.934965489528779   0.336381761991813
0.631462509851326   0.925692707020526   0.561727531894138
0.515301592503837   0.054925340142586   0.312698924554156
0.647795621089443   0.903113668026756   0.720992373854329
0.765566311155172   0.941338967326550   0.504273872845961
0.561630461362168   0.947635918257709   0.374884590751675
0.866289612654811   0.990912763591085   0.398007534584368
0.741683541372777   0.048938831269479   0.762481365718301
0.544848271729094   0.761883863769701   0.614318007129746
0.631509381054390   0.988163046643675   0.867691788280732
0.771702076300486   0.941993737286369   0.825249412198735
0.576618277938357   0.733234543807283   0.881396644084969
0.717067167556543   0.113387719251419   0.856896424041625
0.842766029085606   0.794638462447467   0.746279777257136
0.856486852340228   0.010072325632247   0.159457367930103
0.784092820349498   0.767330607546259   0.082353444205257
0.711894719881921   0.991786944975706   0.226263696257121
0.733005075463299   0.857325077997662   0.121995660808900
0.633810991811728   0.980378186442765   0.076511459088283
0.781474416463566   0.107320740706756   0.404980323703397
0.734557142873210   0.008557935689494   0.136099535441829
0.758724609558898   0.952225872233173   0.378848672336259
0.919315440162717   0.128277112612581   0.379126067533445
0.826580950701369   0.795739579459767   0.325619366488217
0.903262649987031   0.075147813421725   0.546968009942306
0.557214182080215   0.865513440217587   0.629093739125514
0.647972061048975   0.864355048811289   0.733532568846851
0.802799996270187   0.924068976448502   0.577898474840664
0.797663451714040   0.842340446912165   0.735049028301136
0.700578174900789   0.796046430792363   0.737758841001176
0.638303521680051   0.741485645595840   0.851298354277734
0.612642979455292   0.678631421344303   0.965719452434394
0.945203609166612   0.932739694374926   0.820640937397167
0.844081026431332   0.027229894680646   0.213962878330401
0.899175280306090   0.100014530625626   0.053558420667026
0.729540053730796   0.266429314855014   0.966295023186302
0.673676186548501   0.897751343204296   0.958818397025579
0.738721748952134   0.058952329686834   0.188109500259184
0.591808901020182   0.185087721154546   0.265598128359512
0.756566336559279   0.244310636423993   0.218301831684707
0.873523230064464   0.893483615397739   0.480080869230427
0.971931897147750   0.175929773166301   0.381761442661692
0.706463522118788   0.057781642505312   0.414633634563725
0.821940671328592   0.088829547289834   0.559622706909948
0.765129663296343   0.094561230279157   0.334690391569530
0.847651017040026   0.884969154211372   0.452564192332849
0.588886284725887   0.832793880575424   0.472593611380969
0.968823916911817   0.854195839693026   0.698453256739240
0.701825334635540   0.975162571792809   0.786177286695873
0.604975261516047   0.009516255683273   0.939115349820750
0.756933852912426   0.068903622235067   0.734816842719602
0.637799495670870   0.957322578057144   0.801402762751096
0.753015398146323   0.947282176742417   0.790106288957849
0.711632589330576   0.022137063136196   0.865570540618832
0.728735829140425   0.333161301718730   0.963111276053550
0.783116995949509   0.075045271274395   0.143025678748439
0.658408822389461   0.931995823280145   0.196348344474135
0.680246576980065   0.853086212439002   0.961367999364266
0.803554578059854   0.129919270944240   0.112264651992234
0.473157363326931   0.102390463221798   0.255798735995882
0.814374275732387   0.999433097513530   0.278032224348679
0.888005508579090   0.199273180482308   0.431436740347528
0.679910440184837   0.127719027711082   0.319641790063336
0.744124922506992   0.046610085265312   0.422413675995397
0.609130856301473   0.050159018646515   0.408963334944146
0.592449636961659   0.130435768541821   0.428758646831434
0.755439784182324   0.042500063878429   0.706730764074691
0.662450443757337   0.895050374618400   0.554981953776359
0.809748710628525   0.073298030166562   0.673556235821232
0.614041158671119   0.139915530832202   0.804921016937853
0.628135394518772   0.105832514150527   0.896769664353856
0.695559136589838   0.033056147621672   0.830940413422602
0.748001379520756   0.163817892997595   0.837562241308617
0.876022129150396   0.233397262322015   0.927573769662771
0.648540340974658   0.121483298660133   0.990289269349772
0.824210032095061   0.297413415640332   0.977085583477167
0.662216485022310   0.165256169650817   0.163982627847667
0.728332971296849   0.111665947976000   0.042387775403807
0.711266119627630   0.111615202657482   0.304580065640604
0.645453790016705   0.238609316496508   0.228745730144980
0.718736881981734   0.127719479388600   0.198696957756166
0.824537369465756   0.261160859354277   0.207069562265963
0.808596542683565   0.977679690505396   0.459462333871418
0.605072782225123   0.316314474061848   0.394168925302613
0.634891330877291   0.017825912783732   0.461339580339194
0.595010639618953   0.398565431369055   0.521517532184957
0.778965424303613   0.241308881252210   0.628004642057067
0.748022463193099   0.201823115360573   0.415218427321195
0.855717528525683   0.170105377084279   0.828737979035393
0.747200506236319   0.093291054780578   0.859864145759721
0.809631647401614   0.208221556314070   0.962561226604822
0.569889079813873   0.990001035270546   0.878418196174239
0.737268602798095   0.323106303913390   0.043580500986162
0.810134891368898   0.031360767983156   0.973574448584200
0.735779365971458   0.171356953413179   0.945250159734139
0.476274011921035   0.024831361404859   0.031450872148851
0.873466647739948   0.135472416608683   0.108772811382979
0.779941299718604   0.198502317802263   0.898315706153906
0.940414657342447   0.216423812916844   0.305754523356603
0.599054544802446   0.099070222214492   0.319102180670435
0.828658376184844   0.324178132948350   0.381708869617175
0.616037084084692   0.042455515873404   0.198142931793340
0.706827568263477   0.113628647037733   0.449145694887725
0.721698218454548   0.206836287546439   0.376974066727463
0.638845840126771   0.372910433251208   0.562365842735123
0.621989305493142   0.048651155241305   0.730383215883433
0.874459594215531   0.117973710220337   0.442074695215870
0.942375934056061   0.258186355788491   0.801368163823312
0.580956150432347   0.340738612810366   0.960991779338905
0.700969495748736   0.086917289385035   0.716790158192736
0.756583749108016   0.138844747317364   0.895483022633392
0.931560965142995   0.348796198669992   0.834341984169217
0.622808875255639   0.231833994909557   0.008172837283562
0.879319330331498   0.091905124304715   0.882946452915472
0.708730457503290   0.229890392600721   0.966809665173881
0.702199432839157   0.228077931368751   0.028857794603586
0.867328668982522   0.302650335028157   0.152663472330920
0.708062017589051   0.344351750454392   0.188057696633919
0.885557004383418   0.353544933541303   0.205124391645181
0.852205775900272   0.062586776849675   0.379136483963296
0.767377071246076   0.227363980281022   0.502304626831667
0.533529217337066   0.118078958901294   0.311356396902464
0.779541041771445   0.263428488366037   0.556463160650885
0.826348936726177   0.141068245242196   0.748321313504609
0.566894136438659   0.191882754896942   0.488553802755472
0.847467010509894   0.289422197818193   0.469486627665989
0.800135994861888   0.259459916559144   0.656653144911372
0.642175907818144   0.201134358661572   0.495620066731900
0.658188436338836   0.440378888566554   0.494130328255302
0.780340192996795   0.438532654105342   0.823843131166151
0.952220808892780   0.173182362156858   0.863268299612932
0.913025114941586   0.182083385061773   0.790841521423470
0.534667734340708   0.386263303012903   0.973023288714649
0.844186732102717   0.400405036805858   0.890711321220999
0.741418579877231   0.316793605750093   0.080974388171159
0.522885462230089   0.297851888539594   0.028714460276151
0.778920712535968   0.417463183255194   0.958180886842635
0.739910645465980   0.361246122113030   0.175781811461092
0.662820597210455   0.386774707594173   0.211874403045908
0.685662402081944   0.115087382523763   0.249001727543242
0.673626453062895   0.171326967690954   0.395728082143878
0.821021436317709   0.263978379405587   0.404036234993967
0.447819866857433   0.423535068230273   0.449423646607876
0.598392413298524   0.388351125581782   0.454405031173202
0.699358831646228   0.166523776241820   0.514538610812871
0.738337908040114   0.445336111534205   0.555186633472815
0.674251205221459   0.147707727737514   0.607186664092719
0.640210296051637   0.137112052526197   0.555225009931485
0.673953378247628   0.367609807988415   0.616139309913910
0.652334661806214   0.286743899939985   0.501812398019006
0.874018842936321   0.524675622938019   0.797523527292832
0.758435580819317   0.235870563836566   0.742333373152043
0.890771603969472   0.401549096319252   0.842256103008821
0.499322554842475   0.424047018561577   0.008700558899644
0.050504968701803   0.105021867190394   0.931454469931482
0.745012083508834   0.349490115905546   0.140317434813136
0.592643427059297   0.358639105805063   0.821651937492809
0.796212133499363   0.231679032137260   0.150093747486844
0.745996341103034   0.174350542506465   0.041787424154290
0.880468267821567   0.287200326001975   0.276032471950487
0.660979765847885   0.321433542961290   0.412868446095214
0.698344978069980   0.310127718776567   0.328875196470591
0.693043080980499   0.229948321373824   0.395630648623117
0.717306652015420   0.359229225486164   0.367208737244496
0.619828059446785   0.490089950398142   0.559577938312495
0.802117313130238   0.242218746560659   0.499113469018100
0.796221549134586   0.326079531227005   0.552028370891726
0.685478473149455   0.335071613955476   0.743924561565145
0.775228389794790   0.353009876386074   0.818942261298402
0.753565189502957   0.301262273323646   0.856552941742243
0.670371673440009   0.301702311255696   0.977559118893413
0.834675545061052   0.311392707830751   0.090673172995547
0.536582994779171   0.294461527944005   0.958515890042113
0.757453722546205   0.561550025747590   0.801785684678022
0.930393357861492   0.517664470112182   0.904306794011359
0.781976213212184   0.555657032889547   0.072094564167585
0.712166717466502   0.488752499242914   0.169941338144005
0.923846564280338   0.418752713086551   0.246750974362075
0.703966305252431   0.308343787694596   0.178255153352761
0.672668149935767   0.305173131632560   0.252995331358611
0.519251177842866   0.320392608783440   0.406264650078315
0.931187108846006   0.337762778647404   0.366574398192413
0.657388989816796   0.398058022352947   0.440758103634474
0.737615584066678   0.304432767539138   0.515141046923424
0.636449444375097   0.333031856086347   0.443084997032696
0.834489766275608   0.657255293395036   0.719182986436873
0.689554005602755   0.557807991132405   0.445104190983177
0.926851640302566   0.297370323657958   0.615462916626388
0.688173523660644   0.491449996496400   0.799549341766520
0.933092178500170   0.485290001041025   0.761071821676064
0.640097247436350   0.323853297217845   0.909767709740355
0.838379710392566   0.296149978239238   0.805929517930365
0.707660303722434   0.332041000046653   0.892538648628779
0.574818550856582   0.248918507654378   0.091847218832050
0.835688948390629   0.558706156977447   0.919178342461156
0.701842092379644   0.428037505026871   0.146141597019618
0.795836131547874   0.385975639273105   0.120344934938883
0.800184174613941   0.502466988717553   0.222402088401290
0.750898642569931   0.399699518686722   0.178233429793802
0.865522276936553   0.377675493736673   0.270722523576416
0.698055487422988   0.449425358845719   0.363997219090725
0.630295299026917   0.557277625228416   0.516960388751666
0.835557584149358   0.322543578492547   0.252147652115182
0.910526220238974   0.397068317288888   0.442378270618426
0.773174703694022   0.274350832264894   0.335563744109911
0.700784442457695   0.494281568649156   0.593084511268344
0.843748279463574   0.555991333742603   0.581684358821621
0.658607601641158   0.483924183077423   0.744439009294708
0.744752535785086   0.527114844824134   0.461407612646663
0.582025918650533   0.637847911681404   0.724148431344421
0.619814281650828   0.592524765525132   0.884545986547954
0.594452821606218   0.321652037570495   0.728352526583577
0.799022342614759   0.291997985242960   0.036323732898256
0.687618818195573   0.431020367382139   0.760240095478464
0.846204097391615   0.494107213014604   0.029657199942410
0.911340542440752   0.391845693336707   0.035253126830372
0.665767003523538   0.412228168356847   0.137461793932747
0.456465767478113   0.646172789352043   0.145021602163621
0.642704625698958   0.423715906152505   0.012645787691235
0.700304240568163   0.553412101275719   0.159994232509735
0.725970916062491   0.581759061781512   0.322794778801791
0.805206296805717   0.212831617328242   0.347897022813680
0.720281170037186   0.579650931281653   0.438877368397728
0.917438728644579   0.513433539698721   0.468177341761075
0.919885234833259   0.511443475387787   0.535119672750474
0.785148717446660   0.591872978739673   0.285822138812778
0.734511140139538   0.459677245336723   0.656553451172340
0.687900599517396   0.492526112243340   0.485193034067623
0.969001696511543   0.529702638247218   0.612353751446387
0.770658684996860   0.345979156919024   0.478474358060005
0.751528925281424   0.383197099653350   0.693881373322678
0.762824029021074   0.568272655606134   0.604176948516676
0.855071298835155   0.711609236841440   0.122423956945770
0.721544223600538   0.535409208833704   0.933935136925435
0.924967872813202   0.588372598493631   0.891434635694804
0.653392653549416   0.648756931025793   0.026100250792590
0.672598498106348   0.509665823731012   0.091604900594875
0.816270601367000   0.606224813314148   0.204008356765100
0.659212449302225   0.572701586244763   0.243422609223914
0.717286550735442   0.587312669456380   0.142820674326082
0.620506851957106   0.602377132010226   0.302409683826098
0.796727136917731   0.507626346005941   0.303013379988649
0.655968839578514   0.612863252336915   0.452193096518948
0.839332991126800   0.641292239690579   0.311459855046841
0.629024470445294   0.543262303496055   0.448360118094559
0.550290198053646   0.610418836905229   0.448092926693450
0.603485087541523   0.417101453346569   0.589690524459693
0.765774370860863   0.830334365780896   0.610958304235879
0.769579742508759   0.487286314474269   0.788315146043283
0.769009134128425   0.619670580796047   0.779392696843208
0.796962221189669   0.645618483479986   0.835771513161168
0.812608015158784   0.563286806481267   0.849187179156494
0.663505805630269   0.441101707321177   0.943930528277297
0.898730445512413   0.584228146741766   0.917772218935072
0.790760811393529   0.775817738181991   0.013303917522585
0.657825924461825   0.704551879851629   0.917765469781557
0.834963452982973   0.652075987801357   0.027549273130217
0.822778409154484   0.766151154860517   0.198012452358884
0.720129816421143   0.643318239807657   0.347726196514242
0.633512470225048   0.743650422413832   0.405550213720880
0.965556705905397   0.545046978423904   0.359143530294983
0.963430866463042   0.479357398232822   0.367966789776826
0.737512329735519   0.752689330786189   0.414571112358640
0.576337389924193   0.575642465094546   0.489727790577080
0.719443585632012   0.429893915405131   0.485668879579199
0.529979298433494   0.544232268477518   0.783241830184256
0.719109371273956   0.578996378986277   0.733287756494252
0.633811884356488   0.604518102078609   0.704625558449792
0.649203371412528   0.550110304218252   0.738286500900961
0.012735955146243   0.695776599478709   0.624719156225894
0.867746148947698   0.561303623462245   0.682718360036906
0.825831392008414   0.647538061434336   0.861695017063746
0.889007942122766   0.629057363276675   0.055530441683335
0.830075773111461   0.654216037181552   0.955834885280881
0.702181200988846   0.660518978264170   0.134182435629437
0.795326603765675   0.647779086705353   0.021810677353530
0.968861509072949   0.487935942665831   0.149171720712837
0.890685598433214   0.692589090589092   0.018310690035587
0.708845710846021   0.737966638105942   0.015993016149073
0.650569728252258   0.618237998531505   0.315581141243741
0.605683467012951   0.800512656194770   0.462967557020427
0.872064664957874   0.564916872294938   0.323935766386589
0.805373101259925   0.699537921015054   0.183355042395876
0.563956795552400   0.686946168317245   0.666253404957468
0.697097799054636   0.815345397715285   0.233284246072076
0.960638520360125   0.732305723821456   0.647845263314124
0.960639475605031   0.644751409568671   0.627321746376213
0.585132686089484   0.505164314003860   0.556589318106988
0.817172269674148   0.549555097237326   0.721138377129403
0.770454463531913   0.659809566177984   0.703131223408509
0.735813355098655   0.646508495358895   0.716354615969344
0.534323470537722   0.691753731813537   0.021864250695575
0.773717355480664   0.664923398873427   0.925835898071537
0.873525411832307   0.528641020534447   0.098612368707492
0.625197990365223   0.632840028941429   0.082532076789335
0.897681237066922   0.807740751346373   0.053691073428668
0.779384688999781   0.754821123628598   0.487866066374858
0.928345304365583   0.814217955122613   0.109561300733836
0.934553222798007   0.712640197663860   0.226747906151368
0.702555714661299   0.769092654622217   0.187119396813378
0.601205374155865   0.733312782879218   0.352498709085108
0.700070927859811   0.563131214074499   0.259162544821687
0.934384851252405   0.816533403791242   0.352831659449873
0.674704109426648   0.701132020893272   0.600281274630052
0.551896735003654   0.589485050344390   0.592634554575114
0.003120972508713   0.721075479574925   0.696647184833605
0.776091669606915   0.688416845022083   0.783469458577730
0.639865461718958   0.552020715098235   0.586235863522221
0.724707119727286   0.662846733588209   0.751929960671586
0.983157138424721   0.521236432732628   0.578912102669745
0.711727214155718   0.882500443111456   0.719943236184874
0.852030782209165   0.725725969271491   0.920308616978861
0.645098761028186   0.555808332144656   0.843943047498462
0.549387703262801   0.627561940889026   0.816778111491071
0.773196662425249   0.615954634098907   0.112216768703748
0.847756559205826   0.714034820024279   0.226274494115213
0.788002529222765   0.716054944760097   0.041511429714909
0.712091648526081   0.825371681550253   0.102190153525881
0.825200021316548   0.707912742676730   0.290123722699969
0.691339022804142   0.597248983181775   0.244648351318751
0.753214497088189   0.730745490127522   0.225822806950572
0.013743542336764   0.922573456406873   0.117545725224723
0.770558601194953   0.821172907701314   0.183682648302592
0.737330322087240   0.749132037044118   0.485103034853652
0.701996210347800   0.871504163448629   0.645538488746139
0.583537646237133   0.457013989508934   0.757584538517380
0.290318570659738   0.728606801418018   0.691253274994720
0.788105901519178   0.747973559138746   0.648836533095561
0.797861360740013   0.458302095065631   0.792475622482436
0.989481511476218   0.935744628035254   0.912920341464077
0.637142166986616   0.920074859293784   0.813158893012851
0.765663731743857   0.758956672983275   0.816039059492831
0.822300610777224   0.798777209547766   0.024548285960616
0.712235117848655   0.756649263757189   0.110134248477501
0.555846393509067   0.636423598595229   0.007285524889604
0.720582552044800   0.738257111206209   0.172376434569910
0.707011675464277   0.602214577065579   0.042642334521123
0.663949452006840   0.924769442948505   0.250965089639725
0.789475456799597   0.799013687862461   0.237617486140614
0.859254664886871   0.896680225701030   0.518262794247648
0.906107257914169   0.826602229391617   0.168515202104570
0.607721271262734   0.850723487918251   0.162278071506244
0.807435408241351   0.794494287877643   0.445402665800249
0.767075747633464   0.971846466144180   0.563794573694142
0.811541297970504   0.644296720697158   0.518654570664970
0.516588662170024   0.759419973602363   0.400013248603576
0.811358947625783   0.692726005680086   0.667295339329666
0.970401080271099   0.856589661079593   0.625319124734617
0.760547938382919   0.792249324478098   0.829583767938313
0.609877405167888   0.725728967499299   0.762830549752976
0.864352730145550   0.873882898168299   0.851743218260804
0.726917183649134   0.806419079488988   0.829368425051822
0.851873215485651   0.790257025396664   0.997809052291433
0.829799570877299   0.669803800188276   0.173578039318678
0.712677868491779   0.936488936725145   0.793685674042276
0.733717287692120   0.820436786311691   0.070545234681862
0.765855344054375   0.692508934209286   0.175449425232108
0.770317218929311   0.832826331333129   0.072376946020553
0.980604193015371   0.940464848667646   0.226401980926173
0.748560824058852   0.855176445265221   0.409975637093519
0.606544316360181   0.815545223062268   0.145933148980154
0.839730334807395   0.835713122135453   0.498553113394070
0.824721594314784   0.798980462814043   0.508525876312132
0.712726338769946   0.889999478197411   0.219549364803788
0.733693652493524   0.790641545678827   0.410783837070269
0.503843151032261   0.730891975496790   0.665679023379633
0.748760700624565   0.881937690914614   0.517495832097648
0.714094435517543   0.734146791042322   0.722342123179035
0.805748320259404   0.858369943652431   0.872903560228386
0.550892288536089   0.864483748735795   0.699485997982068
0.788146595547585   0.810104913815728   0.843750020657880
0.883061019451887   0.907212053088875   0.589033236710594
0.685476319357034   0.850247325229104   0.852443668041059
0.806948115359629   0.718695438509779   0.874807246787257
0.903228877517215   0.881623968296616   0.062119668611516
0.613283439804172   0.742593010273344   0.729043428844837
0.970493136129384   0.951243397665298   0.078133617216903
0.744293129110237   0.848102454085034   0.773503654821850
0.588177092212918   0.034504653758603   0.289444725304984
0.747468342628884   0.919707216125285   0.088590526239079
0.649720000151478   0.955384509622053   0.301165715866640
0.690347674082934   0.047737632542728   0.315885617058454
0.694682456919185   0.084262509154512   0.538873771919776
0.773572843154582   0.908593475266063   0.523244837715165
0.848026576503227   0.805216004480003   0.611604928794944
0.639997491280604   0.833730629167740   0.524792751217454
0.694058835392947   0.817331446173133   0.704946953087689
0.572302499382156   0.672613181476719   0.483610085869567
0.789424908282040   0.674288098700226   0.580017601415035
0.731831338218947   0.700408190432456   0.592248800156301
0.794134117325316   0.877370150256927   0.757525271446623
0.693997038690416   0.949893136390613   0.718957655013187
0.663270780869852   0.977075907101279   0.975772638171241
0.786399102574871   0.885668272397818   0.043296111712853
0.918936187590476   0.961938395824919   0.911787095323744
0.656806167350471   0.688664050022936   0.017191943733614
0.061558363070130   0.868850304208525   0.014633568571652
0.726207436232821   0.894707021958998   0.110922184193011
0.736400526213691   0.117490929022612   0.333867887377492
0.810828704734659   0.911084899803625   0.288462945290159
0.869454563121623   0.001045259557556   0.463440711795965
0.551819302524159   0.015338456331755   0.373671551818556
0.773364475681913   0.925143811872412   0.605595995451066
0.555736333063248   0.066126025655520   0.458607262585444
0.676675096771960   0.003278079035688   0.385060744438003
0.749925913086345   0.005576233203162   0.418488537892882
0.584336260912545   0.836151829209495   0.566419563893837
0.879072597232602   0.752180604302975   0.574902926974276
0.803727257950981   0.019862936144587   0.717383590181719
0.841703417087184   0.972159267438730   0.627445094966402
0.733963868530311   0.019581878168504   0.639009366560783
0.829335574847203   0.223676300533025   0.805109683473499
0.551030909866659   0.895233507038375   0.793391210390732
0.548100604503528   0.211224550730509   0.921766869906154
0.104630148248889   0.719129480140964   0.142437624818891
0.783806137377298   0.169599313854903   0.835045442323617
0.789782972605104   0.879288827434888   0.288099740551896
0.835228757352593   0.092182904597969   0.226904756111548
0.673144699105444   0.899825558224993   0.219204056479051
0.864284655708142   0.022488955250235   0.124035343992404
0.885098547208595   0.872569897763649   0.334209602978969
0.796549133605407   0.762413694993493   0.552107520532971
0.842881577907686   0.072008352071987   0.478262871457650
0.883749382991068   0.927934495156967   0.407556605018037
0.022911438598815   0.133280438170918   0.492805325826819
0.791533895357941   0.158269173052703   0.372605854965758
0.784140081986565   0.088345197434726   0.648098224002978
0.717820011381522   0.909682712591333   0.637977234343087
0.750834868210632   0.029426067313537   0.851150164287421
0.780490836534522   0.903782093131967   0.702230551365742
0.760230931630713   0.141671895943445   0.762486240544469
0.752729446694401   0.019801844475156   0.939927954729277
0.799089620907933   0.150159130626868   0.941256319921531
0.689800258028993   0.964474738608555   0.846278535501355
0.989352466123799   0.025849662196198   0.900864849098635
0.830151448927212   0.175087560526781   0.055352362997114
0.924583401942532   0.277794369987509   0.948161431122715
0.782184649325557   0.994109445113406   0.205256849623786
0.875529427194790   0.077252298775068   0.031025871835489
0.015273384932483   0.029208947670490   0.370313229731670
0.821593369458410   0.110429442899370   0.408327951098948
0.777759820946653   0.164968564886037   0.526153835759928
0.540083642980467   0.299859366070445   0.364741639435499
0.824709317053893   0.852189182570171   0.464438077078943
0.726101202496998   0.170702068767931   0.484581620086583
0.782809439517103   0.025465572532594   0.536878180318287
0.830082699563801   0.937474692740902   0.637182776808443
0.866810663937788   0.986683485152508   0.815186621190511
0.021355781357435   0.053201371688917   0.736237774481774
0.953062340719457   0.131539696152531   0.866952927915400
0.912699697580855   0.088606889779958   0.903541916197372
0.592506218828406   0.935725900087338   0.864035101631325
0.850403033567342   0.109448726120767   0.756337231420126
0.765098942663344   0.761318447761310   0.899044609483344
0.726835569524861   0.140942767965354   0.970945969615535
0.834889171611702   0.056049882588218   0.990972902686067
0.978397502985278   0.081548221975391   0.004442504952540
0.542208179749220   0.204280933109286   0.188801303982644
0.847493475315221   0.993589802729914   0.101751593740464
0.789503932258387   0.023696104294403   0.262465739108630
0.787331770757271   0.102539545689989   0.270392699715672
0.988103860369590   0.055372673675182   0.353127328026141
0.718405990212757   0.152008135553070   0.448991265014913
0.735388935223143   0.093041379123452   0.468931598386760
0.963744064190431   0.030508601621085   0.623339207654964
0.690154990221370   0.117738363059803   0.689185143774760
0.965421189702916   0.024604091980305   0.564719522738741
0.799089797998324   0.255272910537580   0.592269790522504
0.847696628400965   0.177045378239439   0.763114205833527
0.786311186516231   0.141262784380471   0.609785594842027
0.833209442290547   0.184437208565087   0.799121029091467
0.599685409231721   0.972609197391763   0.811029693897820
0.858191017854981   0.221567775248718   0.869799002113503
0.751304183290817   0.013479615131382   0.763608960000401
0.886027315009383   0.364885580215053   0.021652624883725
0.789095432683786   0.222541678091811   0.073011667288408
0.934112283252085   0.132101034187432   0.115119434462199
0.798172719616360   0.973725672801127   0.146870402432515
0.965522109305263   0.129022701142672   0.206701168476065
0.632856869321779   0.172940378519746   0.219994237974738
0.930369749578584   0.991735277788246   0.282532460683602
0.814392276624723   0.277136300164455   0.290450378054959
0.747669496970288   0.111735386635962   0.498776822500808
0.590605231989544   0.243696768836922   0.575717897105407
0.955593061277401   0.046359400553851   0.408043391981131
0.709125370841856   0.156249095614361   0.552007530156698
0.980724294974883   0.396274487194152   0.446333043568873
0.849877814551848   0.116286514521703   0.564342407551440
0.662002974510878   0.220567252209523   0.762413669424698
0.824487474583437   0.176623334751797   0.949393685848807
0.772879599322265   0.200554309822723   0.738842637975906
0.815088569385532   0.388408993441713   0.781440433596555
0.549392846291955   0.156547235337293   0.810609461306206
0.760806027242974   0.129448527030564   0.991682553471016
0.869047499609280   0.108111650447910   0.178245418663543
0.703820733909536   0.161435845075940   0.995688823171564
0.969730461879186   0.153151946450820   0.009583360963726
0.797960016631733   0.290952236495166   0.202998370223783
0.523388885858010   0.189882690665996   0.253504948626336
0.760400177317609   0.170482019128549   0.144377950277229
0.914977277373337   0.022346955208503   0.294863290161300
0.630626268291687   0.466846126213497   0.126163143662184
0.736853690163157   0.163969131783491   0.416745605092789
0.923600642483019   0.307437799609422   0.710961165524418
0.748852767435807   0.142633102455872   0.609673316333663
0.804954867983323   0.141372236783017   0.534918090681847
0.679751767062098   0.151861027023103   0.709080078523156
0.788855597282787   0.186218515821554   0.672523077186180
0.728040557499821   0.229296621146667   0.768406114463158
0.722668386031138   0.133296294850369   0.666774373456121
0.841101976014873   0.294978749368744   0.911400112354232
0.758586941135559   0.297636682750013   0.917203455089062
0.620256247711887   0.219711368967808   0.816495859843476
0.767676172847707   0.321317487432816   0.949485131497468
0.775267218985173   0.225356804671873   0.959580864990119
0.876311136112726   0.127859695524953   0.069931089538116
0.831379033126417   0.363996977498304   0.842214600046131
0.745108871332907   0.181669299178382   0.110393384996211
0.623455224915066   0.310682793206233   0.105734060008723
0.913724898497388   0.424929772244639   0.059918784350775
0.014799728203881   0.205235679812645   0.337374706592365
0.885773256389590   0.211366881524148   0.365269049949993
0.858068414979125   0.253327050827938   0.393991276346626
0.766007242884917   0.291616380624438   0.451039526789926
0.960513814405216   0.246479643665987   0.566793177186627
0.820245050601369   0.133905492091166   0.705446970596764
0.745698333458342   0.292805803035783   0.683937615226550
0.751475830810410   0.244026782182343   0.703274457194295
0.622828430949415   0.382450540474951   0.808385432777878
0.903783788361543   0.240178551155907   0.760728772519556
0.724800689743125   0.193999384580473   0.013448971873500
0.796308001269317   0.197474346502988   0.707969416189781
0.693562993137559   0.384840403734528   0.988522505816263
0.863205176553963   0.270931209054002   0.025713642977310
0.679379845131216   0.296826977767755   0.042062450453719
0.775796463799082   0.256492778136125   0.088395874193930
0.778339295825289   0.360503168212329   0.066066777820706
0.624488618623043   0.235539826532124   0.045619057735681
0.904870726926799   0.225955122349657   0.180563343641668
0.015260598449135   0.372199841448735   0.125316224387617
0.664243525664916   0.451967321695105   0.268437815669050
0.785666809385377   0.231374175508998   0.245545687373853
0.815928543589022   0.128333362778323   0.469305403312457
0.639142221289218   0.362241885702787   0.319043414995369
0.684930189327757   0.263583490790841   0.715520634803690
0.743109621811595   0.314632119108774   0.581969327456337
0.961168161117422   0.363143256366826   0.753023234287385
0.619422740017350   0.418707807707547   0.981163712893129
0.825664749085942   0.287426744971994   0.601905250646191
0.655941516235496   0.195791831206133   0.819071553133850
0.712265858559708   0.336080875991943   0.512965152381426
0.060997016723548   0.220414301831807   0.898969513009360
0.819643262780628   0.264603713518326   0.908268717756896
0.659285393114666   0.416772641055607   0.887164799867750
0.923310790491272   0.241641705230556   0.886012169927511
0.802743700148929   0.335027986238195   0.868600976174921
0.964086880575358   0.386300521722914   0.061424713970528
0.841914168078136   0.138299323615056   0.165221489708914
0.864826042561275   0.188597017255530   0.309883254360726
0.047108345279792   0.310841671375000   0.140381425503821
0.028366567465062   0.359635680011745   0.357344987200036
0.996136416898049   0.287824200612046   0.286520491131477
0.623188989549574   0.378242000213760   0.391990739041044
0.983548592165280   0.107228160275379   0.533259998757857
0.840856139938502   0.147737414131943   0.545376800528337
0.755692499850860   0.320729677204123   0.619225851910327
0.873015028643672   0.353131169198798   0.555876498816285
0.863368604120435   0.470160412455053   0.761927541363795
0.565863166628370   0.293701089611205   0.645014296614457
0.048150930191000   0.230075566779246   0.676755828107862
0.835652555141781   0.333369097365200   0.708730789484148
0.718847550876856   0.263472879703992   0.695573226764894
0.920704136132749   0.424039772370636   0.838141523963704
0.840958705807265   0.339804469329953   0.871191278193149
0.682947084657880   0.231550458484847   0.995427869027847
0.752423911267037   0.488343829991103   0.057460112089473
0.673350569551360   0.596064063593411   0.057478543237566
0.996606208540496   0.428561328783154   0.100077767967190
0.846402000451633   0.674966285885131   0.116030684904001
0.896029020702898   0.461817005220039   0.057731980908604
0.837545592326216   0.353675040508531   0.274597117843153
0.994263311399659   0.461643408811950   0.274966289452649
0.749716257931794   0.363148081411481   0.342328784780846
0.751019775916796   0.517443426459698   0.557212786585477
0.779489208793989   0.493234015986522   0.536528006617772
0.824396559165222   0.247195246167062   0.466625718980716
0.875698008225642   0.312215412119582   0.448983969838865
0.891978131690890   0.385870507265877   0.617998655767986
0.788296821837061   0.364592124093640   0.545133828376677
0.791983727193880   0.470521051889453   0.656910731041103
0.776189676406605   0.351884206918029   0.692962013133713
0.594272364446858   0.391414387452073   0.904523470452882
0.767355695914909   0.411154396121529   0.140057698719684
0.100427442327152   0.331266239564737   0.089654242972663
0.679593683934022   0.408536022977527   0.012482963247007
0.664195386655608   0.314713331131223   0.125791807913381
0.908105055972162   0.421561949608137   0.098684350752954
0.773973724416381   0.536200005219928   0.248759538723907
0.806195457242620   0.340666598190478   0.463550039682567
0.685454607538980   0.525377409566132   0.354122115452740
0.836674043908371   0.517661609581924   0.369868686011816
0.908610011636028   0.507122771890623   0.263026233600891
0.809360568604625   0.615371124740137   0.572114691787998
0.777898507699697   0.418819960064243   0.415729685544137
0.827717067967463   0.374853240589116   0.461221111825389
0.575879321219845   0.562346264290778   0.583106944402039
0.624262764016186   0.614545880205335   0.541605761534985
0.773250301704754   0.545511437549625   0.575740473037042
0.859358891958913   0.565786266078284   0.749880564849774
0.930371715378562   0.421350051695324   0.517267959569100
0.040774829824293   0.500177223386428   0.736590106021335
0.928571813765360   0.326623152233401   0.797945833720027
0.838985820538008   0.619771506702064   0.944078655265010
0.904653686444147   0.725276533455311   0.074718565226461
0.001031202651739   0.587958111195931   0.837278078582158
0.728636382070340   0.572486713694400   0.946636251058560
0.925594854061349   0.396162892210765   0.121489762532145
0.835269242733076   0.558019129164155   0.326581258682338
0.956033524455691   0.490430683255103   0.216474429198829
0.843026240110080   0.291596450650717   0.270673861943311
0.855187154195614   0.422347996313026   0.183762331628361
0.672924882404377   0.245217731103617   0.204908947954530
0.727881484258742   0.539483660421449   0.529423303180074
0.694581976858609   0.456046908788013   0.501403057001851
0.687093057202425   0.646760801943325   0.520373032205215
0.667079520209761   0.617707583573350   0.592332063342298
0.743378225279023   0.609622828222585   0.513244474408126
0.800837627572474   0.281824808063625   0.720487841158927
0.635425604068616   0.708637353135274   0.590796703108041
0.737871884185919   0.478000100130179   0.766463547424817
0.802946948540878   0.620552960317613   0.608081511020103
0.657661029639451   0.577647845109875   0.711706158142808
0.838397632637356   0.354041577822624   0.674034013412539
0.758756197151334   0.589208334533887   0.025982802842150
0.920072846985278   0.380246761704738   0.962370200096787
0.640293740964504   0.604045763775715   0.105877686248205
0.862501105125367   0.719711083200961   0.961877083997511
0.890204465488132   0.591204246749809   0.105443451328761
0.779628733124195   0.568362145743794   0.164649750040101
0.686026269067280   0.447492299086696   0.231805016166633
0.811139847141360   0.488581732245226   0.381088115500698
0.877706912402445   0.387076892233671   0.347388526204701
0.811051231392797   0.682613803104349   0.361474657992941
0.893149326500080   0.410433719284789   0.588653538416696
0.830001404160469   0.612306153535628   0.501126081821998
0.612382800867714   0.580132027754430   0.592190693383426
0.660748813307605   0.606284740048225   0.627114620078793
0.708812212383246   0.654287398723753   0.629963904784383
0.893288787972070   0.607715718036324   0.483329278031553
0.810801614613080   0.478802338508094   0.559230074707310
0.855854426739096   0.417584314621240   0.826493556040452
0.806785309756963   0.550069007935308   0.890126507462662
0.709497382207436   0.458774065553305   0.783665323160416
0.731941828429931   0.704624241799496   0.892697365303494
0.813430372243078   0.972875619303387   0.004144880460558
0.642103006532897   0.622268988211221   0.001119340348238
0.756607290319746   0.486101410784120   0.097615284573615
0.847982191918972   0.800734179093589   0.149978322523636
0.694499090098356   0.626216575182530   0.463394801276389
0.866729672932065   0.672055148188063   0.187298898045802
0.635119076839070   0.662806796734809   0.356486505898342
0.757450010136424   0.525659935404044   0.357813813171939
0.023605796638573   0.700082405054284   0.385012088055115
0.874959384602939   0.698835180089883   0.543740544255433
0.889044292565146   0.691843000046834   0.607357855282216
0.859437689039060   0.530120399745181   0.555520339868779
0.758784054114333   0.566567593156236   0.523228325783772
0.704740053253961   0.526420134611512   0.794324281520502
0.879233230171145   0.793528400579723   0.823495690203408
0.640535762119406   0.685187535382719   0.817917227373630
0.836691361586876   0.689636643668241   0.809890089745112
0.856097405446850   0.595443026271200   0.773532391882734
0.896238981929662   0.511002907464200   0.891573257165255
0.707510095524611   0.643552732496434   0.954175436175885
0.712297876828969   0.536968868867354   0.232038609593764
0.750932212996261   0.657851484905254   0.192097209656310
0.857713593642157   0.468285154776365   0.061320297661611
0.939970511214185   0.630904533818686   0.100766743923958
0.812220261233277   0.444309563537269   0.289182364103202
0.817109755617488   0.553766359804856   0.360705868767543
0.792911050001579   0.760059066192911   0.145209664924351
0.791511393719394   0.722833415537769   0.276824191497144
0.746691735973235   0.659962246430879   0.395635428945386
0.699624507185827   0.676296185891117   0.576451927271413
0.707289959020389   0.357071539520260   0.445830542707319
0.798805431611471   0.788823555803350   0.482136620439505
0.911018172892615   0.578333990612544   0.858418091710835
0.772038215644790   0.761350886825643   0.681693331362350
0.935408606139947   0.868546106553526   0.705854915056288
0.949493386890731   0.663894625672112   0.593657336156940
0.956385674263855   0.567005438390161   0.961719506619812
0.853720035285021   0.673597135840466   0.871442808197963
0.935689077986621   0.794606656711555   0.813104117502446
0.677411462948594   0.795212833222678   0.771934942586265
0.745785653117184   0.854502926568208   0.862463029257078
0.820479905354673   0.900212282692228   0.778543308916767
0.979805582368994   0.786062798160451   0.192353488744604
0.028097002520446   0.609063961882116   0.284485480903311
0.788115669546444   0.470616851785846   0.112359585097310
0.787230017780027   0.503737973903649   0.184948223528711
0.857436969273903   0.489494758615195   0.344002412095930
0.887684703657402   0.789571664961493   0.487613355071295
0.921390532643944   0.779803497330284   0.255945936320354
0.666142422651569   0.745105642127039   0.429947448139347
0.841577767597278   0.768610474668669   0.306829263707596
0.916612856344186   0.699479680230199   0.475350035504509
0.787879173746623   0.565477591656878   0.548751387786432
0.072636333132776   0.797799067308809   0.509582377410451
0.759840331209821   0.861475603373722   0.633315887234653
0.889957256595089   0.757282058462483   0.772249588070648
0.961901425958729   0.734958786612802   0.610396709560718
0.754591272965151   0.725255049049790   0.679085015850764
0.966383893368476   0.512743164790331   0.894310111106198
0.629881266922344   0.644867971885205   0.912792503938644
0.682315620404277   0.756302700855856   0.079772156284011
0.908896940418995   0.828246950977969   0.869669337512673
0.879786222845602   0.843695996332926   0.198250657051306
0.524542092936068   0.987343558312897   0.008992946326760
0.771655601635769   0.802845444174809   0.991164168078959
0.715223290412716   0.955369815620296   0.211357861792453
0.872733182162213   0.841132410677249   0.108966763836757
0.692560804962917   0.943807365141394   0.181228380448046
0.953120826582023   0.712647249115423   0.294839690437417
0.820551878028828   0.480132305349012   0.599072879513568
0.791869464568466   0.734542640802461   0.454984647217046
0.896674268638082   0.577229657216828   0.606152431788361
0.585810502218034   0.841148186336650   0.783023513050027
0.913635413058562   0.468289860903130   0.613398681067189
0.802418486850471   0.841618869291681   0.619302415819867
0.799971059659248   0.717260106097751   0.723136186947430
0.634592788241513   0.682036092566433   0.721670465586940
0.858818111560355   0.850314732207838   0.910493938084406
0.876418294051424   0.785171743343447   0.028047937658459
0.519253813980435   0.468009929418705   0.130447788775368
0.842239000431453   0.931632515014590   0.141654921469303
0.709665218058115   0.733318182938330   0.952962927514648
0.808831182005046   0.948745323503118   0.090297330460765
0.715305816742516   0.792010952295155   0.124402794843389
0.814882352240621   0.851431104041612   0.383366945790515
0.758606900569847   0.801565376948095   0.214591665540877
0.712548255150217   0.678745244373433   0.326864694253790
0.730320251079812   0.732743163021800   0.447934102389295
0.816688392677032   0.789465844942178   0.362511712288754
0.595238143221294   0.920559335145190   0.469538528682773
0.826430862315748   0.689750622337504   0.581978683342424
0.684921112680092   0.663512769287025   0.471902984756084
0.807519533066629   0.800037699977006   0.545684820239295
0.720442195771164   0.712311951788956   0.816898438581574
0.572628839853169   0.725527100757123   0.672759570570482
0.625721650745236   0.774620364440229   0.604987487464947
0.770738905082521   0.103335779444145   0.889802164828111
0.947738016072634   0.790846313604147   0.950793078597134
0.815863768428028   0.529223435876139   0.829277202537369
0.800742604931529   0.824377506748345   0.122754302940561
0.763646417660527   0.970319840792538   0.848296469399837
0.797815755578953   0.803446392396394   0.086320742335077
0.729203615257027   0.996267453300258   0.259278805881898
0.749612599848276   0.772279981577200   0.309969869810060
0.763638245317749   0.947682096575989   0.034982918129749
0.845777513991547   0.869710927618322   0.152456494877142
0.750992929026244   0.698271573692008   0.325761004208139
0.660495967054338   0.885405294805744   0.328083833938668
0.826830752596391   0.824869373062985   0.436571433864409
0.702765709604586   0.731070415103563   0.595298060364221
0.902588748795479   0.739562136909869   0.349499916584824
0.600700467177703   0.955463464879178   0.483182775985897
0.940178495985549   0.828392837117444   0.566591075346550
0.846789832749740   0.985783386738647   0.689913963100732
0.794526850632268   0.899862404852210   0.551447300537868
0.804569481932783   0.703629424437057   0.759414270524390
0.827400410171740   0.994914756189168   0.973653792483462
0.932797291400873   0.878941442118750   0.743720191631472
0.780709923857821   0.848442573426045   0.035331567429857
0.974553760708658   0.778509197088370   0.758523138125292
0.825390651918121   0.117789626401519   0.029214679918567
0.604363071651312   0.695211771112821   0.101750727979737
0.993977541412641   0.984327051397389   0.132133999284719
0.566937697717537   0.579963948052293   0.248550975179677
0.793528121886250   0.819620838009720   0.378009023561721
0.775565979378148   0.939597012101305   0.348790378679533
0.778615443112418   0.020912946961851   0.333508523172716
0.954801538102076   0.625888430731909   0.337065649963616
0.847630873618795   0.925780286770884   0.336198009658960
0.698038997115888   0.991461148463172   0.466220063615655
0.674035509819048   0.009327085676279   0.738116887401571
0.821763747223432   0.849712733819071   0.585953519995834
0.906747988890818   0.662496332560900   0.662633968595257
0.801476191545672   0.827912274876225   0.788431078702442
0.835885255996928   0.814822968534451   0.574564513759078
0.812482734216483   0.936380188322331   0.765770455823211
0.819103346147262   0.820817001890231   0.823467714423940
0.934819894722398   0.023215644380904   0.972390196589023
0.809703777889747   0.011242782403778   0.889708390708362
0.656337488295814   0.932359058418239   0.899400902311375
0.636846559415298   0.897160130990221   0.082397711669529
0.800120492867638   0.756416969826888   0.950721974912920
0.609993738732588   0.011986715963687   0.219897610099724
0.892287000247976   0.968116246882372   0.345198206692433
0.880347090315397   0.909551772926952   0.330414040223602
0.443263284875195   0.832231384826231   0.255183080364803
0.577533292292689   0.014383718256165   0.346094909571406
0.760941202007612   0.818601490241141   0.399609606696605
0.853182236149870   0.936230491417902   0.523162362061666
0.757965416376335   0.829731170731180   0.295485052319375
0.722077517324338   0.815791283364928   0.559155337873168
0.821885326812994   0.031982447216165   0.529317059795760
0.712945587618371   0.967595404350971   0.604153238538243
0.923576679571903   0.901681533675947   0.527005308022382
0.672558200108850   0.115880243901351   0.805693457688937
0.806448314726347   0.658563523647460   0.649328675279648
0.708620142667313   0.633744699941429   0.662690001532551
0.853275083518692   0.821975757516015   0.934847425072560
0.718415160506103   0.031784795671084   0.996864811325720
0.990687302930198   0.081930995249121   0.915419465594695
0.884338837506192   0.919611203592972   0.944550011841342
0.921129897766433   0.039090000635085   0.221291271974057
0.786156470504411   0.673941913423165   0.991395177611961
0.081561049596452   0.082096613931931   0.948245326959820
0.782288499530638   0.941634824587719   0.279846163703978
0.743280791679669   0.989736438119371   0.380530883755581
0.834738022816905   0.004415569113525   0.477754285594987
0.825736168109744   0.041509364626031   0.489980449378477
0.947787356178348   0.824450679802997   0.304391966128356
0.785505552374040   0.901880184373732   0.351487055337492
0.032680664896954   0.784596536722887   0.616921978087047
0.880786504234869   0.068967604844591   0.664203883130456
0.745984918084760   0.948653878981103   0.587392087235763
0.787240205505331   0.025512954835607   0.606499100969255
0.705226922471394   0.891237954034733   0.443909727316597
0.961474918220499   0.834658702812573   0.906222957710120
0.078528998286290   0.993697999536779   0.611219205877430
0.713613568507038   0.070348979486202   0.777956240190375
0.745520648758696   0.968090316233806   0.884238203096746
0.960490015548283   0.835032331824485   0.059833020224072
0.839840785798936   0.943544843767799   0.063006446743427
0.948943519699271   0.009923833049942   0.032314305979920
0.762988264689301   0.103490949031460   0.054682112988105
0.732821709549776   0.966369279481795   0.130407535889264
0.771451104168524   0.960489918850106   0.316156276227666
0.660842951439923   0.915985391757005   0.354199511521620
0.981194798175630   0.921808500205780   0.260414167597034
0.708773437953059   0.993360380968401   0.631419574605080
0.089780115722863   0.034369886284065   0.363329186773232
0.965429497544038   0.217304989046305   0.457273418792106
0.825559549380887   0.026900336027508   0.594984493799362
0.972115348646293   0.041295397758728   0.446919091128125
0.638503089394384   0.018929267731695   0.751118639441032
0.966780265413554   0.091609978257379   0.661733257175865
0.849445277178641   0.013139578835715   0.838480044808343
0.734553843662678   0.061802934362826   0.579895867266468
0.845805943014132   0.088585136193836   0.899202081856710
0.944942163538361   0.157991704608483   0.787215091772669
0.021852100807620   0.985142058436679   0.022418217514710
0.981321226966085   0.935451188697563   0.831081064101792
0.856002016490860   0.067305003379340   0.806745065585329
0.858401515001633   0.968461507639227   0.916854391809371
0.988057453267952   0.269152328547186   0.974066346633212
0.840065205858596   0.123564122015626   0.128437897421276
0.821304518516645   0.116492761456770   0.256138146752245
0.779222425597536   0.074355486073280   0.362512121805654
0.829338671941452   0.949282108007512   0.437963786072196
0.867055504998560   0.114248946473832   0.596843970908855
0.833795826253463   0.003002927412271   0.377574975024968
0.780361797341182   0.025924330208177   0.226778940444550
0.797911400360438   0.197342784961492   0.574440480015614
0.918473834233399   0.965772979714111   0.623888574575526
0.811165818286539   0.299927830408090   0.403941744219644
0.965951611958526   0.178287383070915   0.709220485067271
0.800999758288474   0.383795553190230   0.746409638741091
0.754111816307456   0.138655143015785   0.691246630845538
0.953910116490092   0.144115689908044   0.690475360892769
0.769629605433775   0.164632787297424   0.920028777805820
0.936875157709989   0.085574618146134   0.963583966184914
0.758548140539453   0.976851602370875   0.063492041907339
0.845527457918503   0.084461767659473   0.147747758000588
0.907207151001781   0.172006783865795   0.003201610889931
0.970998994351577   0.210906609756753   0.034598228979896
0.753565986689900   0.134721327008154   0.214980566677045
0.933616041008713   0.254962968435360   0.186913193504047
0.898671394656349   0.987050823146810   0.375764663569380
0.916121749231490   0.229744169400329   0.279780900885797
0.867670949181750   0.211999898146021   0.400944353527208
0.805642399036225   0.193612692146416   0.382477782222665
0.891142961870525   0.279742642404539   0.623025467832955
0.881304592390635   0.167270667464012   0.489980234119594
0.928094819487448   0.072393349166388   0.487697290285025
0.839217902165215   0.188302376452760   0.401064326228086
0.962311004777332   0.175018652378395   0.749546895205327
0.950034086899880   0.121949520684008   0.547743632324686
0.841808950109048   0.005722820892998   0.873092602154523
0.921299418264549   0.275887281317296   0.863747423884812
0.908870994805606   0.124640812172767   0.726875152367212
0.850866502393723   0.209584133239513   0.068828323005575
0.555919294695960   0.043442976540812   0.908968810522417
0.795737300951217   0.257596036689129   0.015884860215835
0.277696312156767   0.260795638913016   0.040497872501242
0.023000084053476   0.258895864301223   0.039467652149944
0.760682782807406   0.102758531233616   0.158718507827281
0.792345111779173   0.088787201188618   0.106498372636887
0.859268911558231   0.170284320896382   0.244692555780423
0.929363749286472   0.149320156914016   0.316593519521256
0.805216984936921   0.140394415720291   0.177528772752428
0.251550266156342   0.108943914024037   0.480770283055263
0.764118736917792   0.090917506233891   0.526860517547356
0.720137988751920   0.245487962460002   0.536968245159966
0.013591501106719   0.324130595231069   0.576978379621367
0.967127807204114   0.305158285576990   0.457334255677644
0.714289042848341   0.240422631168711   0.605290393464880
0.873034585786624   0.384868274170725   0.768301013000967
0.027214809439817   0.230286826121503   0.772236360149775
0.759525277562643   0.080529614957034   0.922783807996837
0.847035995264943   0.409726937781250   0.782710403254018
0.782639460306753   0.257813235676527   0.831515695412594
0.879620149215355   0.225673891540748   0.967258296187405
0.777170031496602   0.295771438197803   0.775365636284689
0.929007696345519   0.171915277288303   0.120343702713033
0.882509260706482   0.035719934893979   0.281090438801111
0.739825118470967   0.203900050865379   0.973350555719879
0.975968452363087   0.200074890527171   0.225673666671044
0.852256209640117   0.207347552196993   0.227943270230104
0.710308718043041   0.169134055929519   0.384295060715759
0.910408143409093   0.134215532336023   0.420649569071518
0.890248522749386   0.272655166890565   0.402372496461961
0.930485271622913   0.267344266615465   0.349495566780322
0.664736970323155   0.293370645327185   0.636360073108172
0.946761273560786   0.100014326665216   0.628398143170561
0.671027682526358   0.088605605417183   0.507045359841096
0.740977038827203   0.180071805048256   0.625231341112076
0.736056903695009   0.294804271822356   0.644489162068885
0.019237706664982   0.151860034374384   0.874931818677928
0.784112283834041   0.434072455664906   0.036593498480593
0.828023631037207   0.244124676318104   0.770511141580690
0.862054280657597   0.163616723515612   0.951602029354866
0.084506527694975   0.187424199142116   0.206054523966177
0.841088497656540   0.084272111000174   0.017321521233350
0.844961847360396   0.236611805777865   0.904304712300454
0.029091666622512   0.175168630519335   0.933374634295338
0.862339830364733   0.323060598954218   0.193332857597429
0.749965204321185   0.118551065224061   0.249776308020125
0.805580015896748   0.166454189842848   0.206077157650195
0.904161530036662   0.303184819178028   0.244801571804155
0.794056706955651   0.408435408007701   0.381682539780630
0.837077682690081   0.310134460850046   0.347106048797789
0.866918101229167   0.358601592352127   0.616518916329016
0.899520159840058   0.220106300808198   0.516702881375185
0.899805664038821   0.417029659372756   0.342893322202445
0.789437806943123   0.151119709701572   0.684889500507718
0.057126331581858   0.236999731783893   0.587370380214986
0.943284713369536   0.283277277534228   0.687173216124136
0.801023511561348   0.096715403112177   0.794759282971578
0.869683118071575   0.496882786495281   0.918614652949547
0.903722213344752   0.422219987711510   0.913914900506252
0.650357443552048   0.217218748665033   0.924136366187457
0.748640157998154   0.458118551413045   0.833365467496592
0.809228002259166   0.317488531171937   0.008236980178028
0.853864603727615   0.144810842421410   0.043700003530138
0.731659102383548   0.218516592344372   0.123301171283015
0.852607910244534   0.353148605689439   0.038705114620033
0.910100637351269   0.289036189140042   0.081108193880380
0.903698045324998   0.367229071169508   0.273552164596376
0.788723991294436   0.316783189981790   0.429709849584437
0.881032181308636   0.180076245342437   0.342805701336621
0.813795700455162   0.278712581399624   0.330603517917722
0.935329306591304   0.191688298884502   0.459908090391321
0.833330067159371   0.583984938409386   0.383266133755334
0.977045243144324   0.538791712454646   0.510830078273954
0.994169870535542   0.223748007354816   0.788757642178641
0.744223073835847   0.438266014494439   0.623224781807986
0.026148624503261   0.439364496819377   0.792393847732861
0.690263972878166   0.288046605011725   0.824807488336994
0.807100861496546   0.419306377539013   0.061946530379172
0.942205055606191   0.521707829793415   0.775105233413721
0.979678585398734   0.196855764933545   0.963364717137228
0.841879922719104   0.333524138996015   0.794636532906088
0.915942462282962   0.326621546052353   0.908208466270516
0.805230475520452   0.187801462909324   0.024014121646165
0.972251519423171   0.391047680023010   0.996570313547767
0.082443568463075   0.436682875010648   0.868860615139365
0.738333611990589   0.198912732735466   0.269739751270641
0.840531211414151   0.397986764676619   0.341386118880131
0.808036494925865   0.360601511669593   0.296718548721707
0.756212066390870   0.284888232490296   0.211922749666014
0.895732103146154   0.305015442521557   0.418588685775655
0.677398106154595   0.492124274522403   0.444248216659937
0.846062143909852   0.376550643480812   0.429502542154543
0.948788760452515   0.486156601489058   0.544127330341820
0.028611124728505   0.463443869294292   0.600953667252480
0.058946957097427   0.350399107351888   0.625123163022923
0.689273425149171   0.190808188822565   0.706165341991584
0.901043136266303   0.353284896760272   0.671133077075456
0.653895037070569   0.503703971487352   0.542697990357669
0.670812029725697   0.265831930960929   0.893327653813423
0.739818837530423   0.573020792060684   0.882538098939049
0.791590092331846   0.097876489334647   0.583983237063750
0.087079560346521   0.362492010273004   0.949683983453432
0.721583028266292   0.639015702181715   0.989434339819647
0.812875692936823   0.578527658617691   0.073277857998222
0.822449029179804   0.208529694309454   0.128349980443232
0.860152577843811   0.362810473978852   0.128408794682801
0.858895609073411   0.328169106670925   0.066665583931461
0.777765415272169   0.436840045610149   0.232278262558452
0.002792656740357   0.454806458111667   0.199319576224578
0.898297689816347   0.447894415617008   0.368588998203317
0.654585034187012   0.573698754828478   0.434135280832401
0.524359274457056   0.377579072906592   0.495834186317910
0.890680715383087   0.498625675217010   0.601849068077721
0.931395873081805   0.322269980954601   0.556909371314529
0.702644000359337   0.342790336787279   0.678156504534162
0.917494599917671   0.543584383736685   0.754660275467680
0.956906226169333   0.662328395686203   0.882026050558500
0.837184444054797   0.703751028956415   0.891618262022457
0.750723950575217   0.458616449754292   0.901700675715445
0.823225201558011   0.383573784318470   0.993319912289419
0.870063048831258   0.526097969558777   0.971583511299779
0.753676738272872   0.407243742337403   0.930860452543342
0.815101427077319   0.497368262681477   0.110441705627744
0.828648085655477   0.592964449170942   0.038703059422721
0.817046722983491   0.546990133472016   0.152923863126390
0.956243732627300   0.344581448523249   0.152155405189663
0.747916837823384   0.380417773139063   0.237464486951842
0.760589501675388   0.609496361370594   0.259223262527307
0.686098539164799   0.630285056201063   0.261472052652465
0.688309056903871   0.504356516435361   0.663156047514733
0.989738090421794   0.333591733260133   0.406286057836742
0.902310021163648   0.580566126886807   0.697825105067491
0.922661511775016   0.526098917533391   0.398771850625173
0.851587351840773   0.546360152014701   0.519990438416830
0.950629013288520   0.396423989323935   0.667321199271820
0.753106589302906   0.548583939332328   0.692832429911240
0.655737520818462   0.477837023027472   0.620053257179616
0.976893096645519   0.478325260372668   0.725072136087672
0.718578271878822   0.462887003991805   0.957042479739325
0.838313170871650   0.514682483189661   0.803935207381741
0.790396203540781   0.411173981825859   0.847524569421069
0.967552662852257   0.547389312454519   0.018945193419451
0.897688361370792   0.585710938716633   0.954815723723442
0.616246393022221   0.494420567222259   0.147975813236677
0.931065011977418   0.625912465343990   0.189601112275597
0.833190927645390   0.412141000985036   0.215164327410245
0.965581309483246   0.279985637648064   0.942485608275210
0.771073934348100   0.469696067979056   0.171430870812109
0.725344120617813   0.515221001022764   0.290292160150828
0.781793110223325   0.581602590135002   0.433000181365587
0.908161031193415   0.627719668057627   0.287991903726825
0.862553265982739   0.529643137576792   0.393706866859984
0.916766070186617   0.558901392618569   0.578692693490451
0.825281318290930   0.712937393685925   0.513598866657726
0.799761177458587   0.638148400086187   0.716910296275439
0.850223771482871   0.577870008577083   0.649748054711054
0.016882359808046   0.619784183969250   0.447036997868748
0.076695777438669   0.281977417382209   0.640711368671801
0.954120178106933   0.434098742864376   0.685081726690259
0.628756333230009   0.499648801906218   0.995188136259865
0.847284622678452   0.568706407963354   0.714062678513638
0.771652253317116   0.356268476644830   0.883336302503280
0.827484036812707   0.706937524237662   0.042952856747852
0.796755343510346   0.650623737965258   0.275614370946836
0.900136433223249   0.537191134031333   0.207726486700069
0.830913572243355   0.479132841368970   0.223381807968588
0.728392905401417   0.524201668410071   0.155126234248488
0.642852425346879   0.625138426585713   0.353150641613216
0.781664742912138   0.619625012234663   0.427760396886949
0.834055206217634   0.564825713978063   0.245428925705484
0.748434235424742   0.481492889453007   0.404258537042640
0.870619966977578   0.566511912270145   0.388536881386720
0.625051060443646   0.927759905245098   0.363735679547849
0.824812553436012   0.583412257147076   0.558754365701367
0.789206128323660   0.589059456428978   0.627193562336480
0.937301822156735   0.487027345301121   0.718844943361949
0.935736147660355   0.666420462880493   0.915083879621168
0.794385904699263   0.662242406904906   0.956685869273186
0.873451629831592   0.578850548065709   0.860592471565327
0.972410794941256   0.761523445312053   0.900365327735034
0.554358292205460   0.675367696130405   0.989393999779947
0.913352058178770   0.798343744889018   0.895668113771493
0.943361473397204   0.420396700604019   0.152801903481017
0.756121663772480   0.712354480543408   0.289417996451973
0.855741080535525   0.733121685377060   0.157442188295280
0.720752062503006   0.645083405609745   0.211278126752050
0.812398368210497   0.704825435189647   0.220580853869943
0.976388970044674   0.514144215863752   0.384444933400511
0.768675117896730   0.464457448571073   0.463658737543169
0.674070083127820   0.543793398253290   0.320127595235915
0.780249581691845   0.612258564508690   0.353130451905053
0.826614611468240   0.535397948649718   0.458950141109911
0.766250241974331   0.585396109263662   0.490924834725148
0.706862246721232   0.658929648280962   0.384649043448460
0.765624659784494   0.707626872588487   0.572231249222939
0.715884429698436   0.778047227378424   0.542420269647050
0.824804640220681   0.509861314237203   0.721317086629155
0.942501871502985   0.601427202262701   0.810106188662803
0.958194308979589   0.758384035446375   0.102115817545780
0.889767392493606   0.662423909798549   0.962093322045943
0.963443263280169   0.758026180701937   0.967023351617017
0.781250695275890   0.581936814444788   0.830511420844492
0.660321457340630   0.547595460584468   0.146889377503054
0.988594818999593   0.951802283853979   0.110583855768812
0.707164041503004   0.605068894766972   0.346811816155778
0.966968117406851   0.734543987014363   0.219230931550597
0.019377725023970   0.835531121935321   0.179283455537404
0.674333889671869   0.715310608196561   0.146394783205277
0.910689977979048   0.857916079699237   0.444292420859099
0.900374163000194   0.771343296101941   0.598223344581061
0.713051465176499   0.463198181918023   0.395191037481814
0.901215097222926   0.758768859001302   0.456327828520712
0.751894693219571   0.624869803074279   0.547690093240304
0.584503588504420   0.677643933764008   0.577384218744010
0.791205704538011   0.634485987511288   0.675908965535634
0.765888845660947   0.776229241625322   0.747851807629649
0.899645175704937   0.698277207082476   0.644583870727199
0.816897951147293   0.628778314230856   0.891254122745629
0.927587736981204   0.676936052520442   0.819170188954225
0.851800610375907   0.684561811444680   0.015898048340065
0.818665615694009   0.839705859901823   0.022753936476226
0.900715595810410   0.091889460734927   0.684226870663168
0.951346678467525   0.679334605588565   0.212755699426606
0.785994228116238   0.744645932717960   0.111447617475912
0.956877461535109   0.770530236052252   0.274977440912833
0.827634609867352   0.799888127692390   0.181192593396232
0.924362342894668   0.710036637899076   0.266102188535414
0.828278637254069   0.464017481290521   0.351785881919080
0.854424611816110   0.540921432663067   0.269820365722334
0.789727968136628   0.867636025569624   0.467612045683168
0.712303525868551   0.774652191978922   0.502832011095078
0.816548950041016   0.676237322660089   0.496355131190588
0.859457149652330   0.629695013059504   0.473339675043557
0.022281303766972   0.772091913095663   0.652173282042194
0.911608290894959   0.658735568593664   0.598060104844695
0.915780957213037   0.730008216680360   0.661353083737359
0.831218467156979   0.694626487755648   0.702664368892962
0.953022436482260   0.776577774628158   0.840618723189552
0.969221474628564   0.806414162312123   0.789985006327914
0.909583127651352   0.856591168255256   0.810755908224588
0.842170279411094   0.522590741752328   0.938966498303138
0.831558126213493   0.850008520699151   0.987676522655326
0.663754574729085   0.795133251334506   0.834025939502095
0.942636906654155   0.824137117954680   0.967007978982639
0.777634546821312   0.681798624507595   0.478653881343339
0.932875011275260   0.900442688797724   0.121165702359250
0.815126575466491   0.066692067895197   0.166761806147697
0.793015605896282   0.845222081763198   0.301894658572703
0.930069423234484   0.725865182180801   0.554052573548899
0.853584012595420   0.557364035978293   0.146632161513598
0.963336577095007   0.855836976331360   0.547921633045188
0.931993454631854   0.810714440612695   0.408588836989849
0.960247907542268   0.797166624483923   0.659271105070961
0.676740417289621   0.839622644150282   0.476300602981296
0.742937111160153   0.674016533812720   0.620195144284829
0.893481738012775   0.615873184841128   0.723549678260854
0.806557180556606   0.843567757206706   0.698147759757387
0.929790600682385   0.699884224011192   0.755477936334849
0.826419740316530   0.970422261022772   0.938095298351587
0.693218849711797   0.848929129971091   0.890815653526450
0.695532258284366   0.700348059900160   0.017550709728704
0.774223151791684   0.754868803402880   0.045441481232684
0.869170630308325   0.747135062920244   0.028864080950503
0.697198591049994   0.946836142623452   0.141697426173332
0.818486443492434   0.881640255150061   0.068773237732388
0.139633576190633   0.863111940819990   0.212772569422775
0.848035101529916   0.840712243807058   0.405223240727782
0.540548302977773   0.861848343079325   0.420559488479188
0.883768708227384   0.678673027038704   0.325100272316911
0.719720171674248   0.050952870655598   0.544164646256724
0.746905904995103   0.883478403877489   0.347594219192973
0.692037148010261   0.860667701507108   0.508404950696930
0.807865693025503   0.864039713925410   0.552317185310146
0.936837246734406   0.172840514329904   0.619328701029571
0.810370837767031   0.879359741166805   0.687633090476635
0.950401246083172   0.944802850983545   0.482457959950127
0.862880567639721   0.943839881212059   0.825883105474169
0.699160513156910   0.781367911967114   0.832230806422869
0.557757989426826   0.752129607217330   0.011595391597350
0.045719738475202   0.938015687290126   0.799735656205103
0.987202224072259   0.001514372502514   0.770020036314394
0.980392645670334   0.775412280488706   0.997731874106544
0.644329443397755   0.845858062092445   0.951796767766078
0.001007660211521   0.887354403591699   0.098249930763372
0.945248849173096   0.844988421371865   0.092301072498595
0.948422013775780   0.975576333406980   0.459503303937118
0.865422112469670   0.966970191396168   0.286931887608453
0.843526187733806   0.824608416703825   0.205833126267324
0.658464420144549   0.865592433426996   0.204723517389922
0.835152231101341   0.865842519909540   0.524362923854895
0.757829757199560   0.851845718836096   0.476184011419946
0.869894694592759   0.812219795266475   0.553914332719156
0.822635760975269   0.962697001111044   0.526071231476121
0.696989828963754   0.966459366300362   0.412508212979581
0.885524044108303   0.129079561699636   0.478541828594291
0.826378932743564   0.819046220117181   0.640170465100493
0.708153285428043   0.982190729494723   0.876802943393079
0.925249057771711   0.917559277271557   0.747102685715856
0.897587232460230   0.948831047706432   0.848850417134435
0.923623349063608   0.041871923007219   0.859203075229518
0.772295099926788   0.042957010113114   0.971629049053972
0.807933836308987   0.864125086553109   0.221001509629020
0.932407668026411   0.140313253146529   0.001240699479079
0.655510378002112   0.046566889605059   0.992592626026711
0.904092118797428   0.948409681628426   0.096016692042470
0.912020482439295   0.935541590413123   0.247115226518561
0.785184534915925   0.901349710757560   0.450678411637894
0.820130698588547   0.900351813780959   0.225985772888139
0.921339932020953   0.765674672599165   0.326882445236315
0.835033210179296   0.037265390574188   0.357640852659429
0.984073895272547   0.912620029851664   0.528585077214251
0.591705226467451   0.781115102649743   0.653214523385793
0.893136249045463   0.015057721389962   0.489881860810051
0.909753874947770   0.876120739554954   0.678378536196677
0.915567467106476   0.889603403278716   0.643553518332952
0.832998149026196   0.984677512596518   0.588927024827579
0.729687143065180   0.149297834887594   0.868895248193557
0.868489031815300   0.824093453025320   0.683693740037624
0.865309332577160   0.003538603026266   0.978786162779471
0.762310406703067   0.044390596981994   0.910777174147625
0.947501710956124   0.050501007171648   0.949513432790369
0.046068221150960   0.944943355918650   0.837826686846413
0.914520692063679   0.079269963577453   0.082587461587383
0.918298724089143   0.958435505446931   0.132265147334267
0.864246105767595   0.263380346166759   0.204004683976036
0.026685462693573   0.157863221481818   0.242961083153254
0.892308114478543   0.075703838327750   0.113174477000213
0.704519326964234   0.959554900689070   0.343161130504011
0.712044172341086   0.981651772911547   0.287955480348753
0.856858548280399   0.965088587337811   0.327870856274781
0.807206925522246   0.960879538516016   0.564439260923259
0.906490072595071   0.938518680246791   0.436893647536105
0.967684391438029   0.103839424658508   0.449975032236744
0.970445069421464   0.004694815552974   0.467291236444428
0.932025509016971   0.034039344101467   0.737916119116526
0.926181562819373   0.132354698834820   0.630379616939454
0.788195261732550   0.945299726948239   0.696919174932739
0.918652238677954   0.189343458340123   0.654438894911571
0.947215496145126   0.891151403451382   0.936276688928569
0.804359201970336   0.885691771757892   0.816571728099309
0.982202282630487   0.910928240196932   0.766539539060742
0.755204562509238   0.946601370483475   0.938528606607791
0.876422850008775   0.970240575500469   0.019850582913142
0.926647201070492   0.049508953890239   0.181618630889895
0.646344589747755   0.955987204099187   0.229520908884052
0.944027499957117   0.190206384501429   0.087665665135609
0.041177095174451   0.968148878042257   0.243364668357885
0.933879328787104   0.117206114703522   0.447241047539205
0.634868827642297   0.131455809562939   0.366802682862969
0.835133168171906   0.172172968899666   0.435501458085035
0.907680344440440   0.044754754598894   0.471841334086964
0.979717009403612   0.128091703526183   0.665863164228519
0.670753040292182   0.960448134462526   0.688666947390503
0.076927160230849   0.864314865127914   0.700869283065685
0.878559025921982   0.051887919031086   0.564497995097025
0.065061746449981   0.114805052586380   0.767125864881476
0.047888290224862   0.972002165105496   0.683470432572461
0.720782218586018   0.171104262555903   0.656234387630639
0.877543488023152   0.958001957723611   0.739476310250472
0.768997429181622   0.003911063719191   0.730681152553297
0.060679377572976   0.956073341726013   0.915282214430791
0.799551076310286   0.155496247616954   0.078548960806764
0.882339985406179   0.882402301704025   0.000470842178480
0.033824714419605   0.089227319169715   0.133035294003182
0.089493229277424   0.098704742632398   0.095236302463363
0.030710470607219   0.026709921928764   0.115025547987813
0.986637977839634   0.025165266515704   0.217083592674498
0.798369823800528   0.179870872480057   0.444677424496930
0.658794154330555   0.208152999055729   0.392393218025025
0.988660242721836   0.914694335063488   0.402233990496276
0.985425498306072   0.174006768480129   0.288715858727063
0.931875571558682   0.290739367286475   0.504571410499359
0.140224775542338   0.991015413500828   0.618391673861548
0.003317781016349   0.168845019929337   0.540456302725607
0.803251279018387   0.176192853898720   0.607989130832877
0.691809198914408   0.347399504189678   0.546362972349398
0.892466485360739   0.128982931215487   0.691329348009003
0.155517666709848   0.191305126627053   0.973162910351373
0.965316012359723   0.210575946859050   0.767899893823100
0.002404575851917   0.965613416273994   0.886587255034378
0.885155216946155   0.223992633987753   0.733007906820779
0.054097405644755   0.085477288898706   0.818928904747221
0.093790566645480   0.155962083869144   0.947547426159754
0.927170079783572   0.203634163982744   0.026799937007584
0.023273026226128   0.172813611111451   0.997512753689166
0.803290876459804   0.083424658790406   0.201750166652035
0.800118789837215   0.047755572291324   0.346941170993826
0.877468414424452   0.067646814653122   0.307785223156892
0.846520782588311   0.126169389403782   0.289038760177141
0.840830127765875   0.172253069056129   0.620237949301251
0.815473069925633   0.134496377127939   0.315593899270223
0.722985119926108   0.226554547344059   0.238793159019260
0.883004342473802   0.981778370865422   0.621003186755079
0.802935088995837   0.101708493894597   0.525294506548243
0.903200644107992   0.128813121059236   0.596194655613752
0.875894857761324   0.203972542094081   0.543082253714951
0.010763263192728   0.994030255066061   0.740310574927826
0.782974792611315   0.035805224929956   0.877053486357162
0.898237344042931   0.278894458154745   0.833174467239641
0.907673069958746   0.980936098723990   0.821280765550766
0.666522247568228   0.172328685492057   0.878830112422665
0.965727782885042   0.275996979391690   0.012526361826674
0.008401768908473   0.181636248371775   0.897929893982709
0.864601985826831   0.247859415588033   0.055757240017555
0.879590644276621   0.232852785040548   0.147731804954759
0.818079197290397   0.261437301562134   0.161596251069761
0.904175857230575   0.150306151203014   0.346853292867385
0.871036343121915   0.162168801359746   0.282716055509955
0.091363696943938   0.157916291320425   0.256509875479765
0.687600482855632   0.266699479657153   0.384908396276097
0.945838669221767   0.163788124798617   0.557698946147680
0.723577450692507   0.980430021242938   0.437330231927505
0.077973776378013   0.232103412301607   0.515142860873280
0.895327161527146   0.042316504132448   0.744659725777950
0.857121259274551   0.218823338796919   0.643560514246650
0.832733934807856   0.203398475120024   0.712468990997406
0.007800972462398   0.241225869586106   0.677314298904111
0.891738104207962   0.276066470325012   0.768008140165070
0.828268815418816   0.128360164451467   0.866934917047151
0.771701157549769   0.377019975961633   0.915739873191860
0.898224076995238   0.147786999380418   0.884032790995065
0.884860486632612   0.200669811794138   0.087038392087617
0.799494339903784   0.295005185048751   0.077462227648368
0.008961533731894   0.275650590172194   0.099518675282778
0.833712914895863   0.191033741256464   0.197900153112164
0.927652219958983   0.269236655839111   0.016480345223288
0.894176980152586   0.264534313464047   0.331108100490182
0.768501021701090   0.452928179742385   0.529514738328301
0.769140803462814   0.999847391738601   0.508056501692588
0.979706115407427   0.106050080233742   0.309578678791896
0.819381092925919   0.403979191358085   0.487554628772854
0.952813609136874   0.298028488571602   0.648198119875352
0.093793606392367   0.281506721479816   0.571183941253990
0.043612481812607   0.180410193588838   0.482141852280405
0.836389833802217   0.293822138347372   0.708486930045873
0.858792265710765   0.280725575692836   0.838958922320040
0.796953505914395   0.290832017306088   0.811723601908117
0.869305342789151   0.337069911584319   0.653208320254811
0.887166984759277   0.167463435550719   0.760925007242516
0.897964359861831   0.295504434840950   0.891365847356136
0.845637193855616   0.316754159812744   0.948132510304248
0.715539733693878   0.295636158509560   0.024766370982766
0.846739678413973   0.229632562989100   0.987416371794757
0.890486228955118   0.234256618491634   0.109552762306483
0.807477148230078   0.325648034089859   0.145629764422973
0.821013044066389   0.231863246607091   0.229997353707860
0.776988565869548   0.329460236250501   0.089094705857410
0.876909633198856   0.370156330714988   0.382870277919669
0.780220127743125   0.405643357248578   0.483972174936790
0.150018686735239   0.270398245030191   0.242601592680767
0.046313769569667   0.401786101258671   0.446756670425558
0.005047164912941   0.179499556628676   0.698638122118025
0.896622294961689   0.309018903119988   0.505271232878723
0.118650010425503   0.334106032012787   0.625015861719952
0.965074981528169   0.437360107016630   0.511173536947361
0.779249126648821   0.269017666949461   0.689309056763241
0.865113638091992   0.282638964361113   0.593922107208168
0.883607300549354   0.370657923052191   0.979716939564561
0.980011459023074   0.250352845023882   0.918965023533187
0.668127804756302   0.381079015528389   0.962537193738065
0.997338903578416   0.334379187435859   0.838458009649025
0.788351950356592   0.383763819106376   0.977001839896345
0.886510527964125   0.459895455920237   0.147041120314980
0.030216237020696   0.393321160212228   0.940810495148812
0.859016785274893   0.411688288690486   0.249381304032113
0.838058519765806   0.436317164716432   0.073076562066402
0.163311917723186   0.388754174319894   0.337283688836362
0.028763247822625   0.232965938915730   0.274152941638465
0.893628933672032   0.346549136685851   0.355878578061163
0.071900799448590   0.181504929007440   0.422509537076268
0.837782523829311   0.132304246208082   0.437511671539919
0.932093806727927   0.311025770901192   0.306599501101050
0.793887145473781   0.431042957038593   0.664163550966080
0.848775979038859   0.456012868002933   0.426587361979664
0.868330405898913   0.421195531833491   0.536214054161989
0.021167790547049   0.442293037502066   0.695235771714236
0.956833260260706   0.350586689824184   0.613315475633575
0.737772132335240   0.357520577686947   0.627452844286191
0.834650080296042   0.263986866934083   0.998354232164210
0.006142008694497   0.108056391141610   0.157420064407300
0.826442340703980   0.351870278896909   0.013301897134210
0.880016458482249   0.332431693105508   0.961798645760623
0.969287183885480   0.505817747176128   0.831392551580854
0.728457238222106   0.406542208386995   0.120144692200525
0.736790552458772   0.259660111452472   0.076819820588346
0.939755164708073   0.338719299899399   0.013400071985563
0.916295360110293   0.289012192950345   0.184613251043001
0.935586568300717   0.493743876946388   0.131329614115394
0.883207597787083   0.230446498131931   0.216277539773851
0.746028291659895   0.448454627347539   0.322868063951028
0.999667212775906   0.316308172423635   0.707728811885835
0.026970722240533   0.239673925701476   0.434514146966958
0.709270207068964   0.397919638872378   0.505589012742450
0.013221833527772   0.397595577875547   0.654885047822832
0.740132135949359   0.541288167009486   0.730507963656363
0.791200655104163   0.260336522979628   0.755216478170333
0.822049336782799   0.383942909833119   0.556753017237311
0.910579491698724   0.386373855925259   0.653730065785529
0.921827206111966   0.235420775519850   0.006372042134431
0.198099434403275   0.320941034276264   0.851372243201886
0.896703956524391   0.291804334292533   0.017279911691262
0.737754828247014   0.513472929290362   0.993896063190268
0.881378872943076   0.438811799247537   0.116359204348416
0.046746377254242   0.500643079859586   0.315438989002586
0.851296766956118   0.490611055247229   0.189110990637392
0.864919118066812   0.473138349245889   0.859081448710393
0.898511839981032   0.367781744130263   0.140283577478456
0.751959720561353   0.428058032471926   0.292746051039818
0.781248242703011   0.383902152943798   0.351991078761878
0.769663077983103   0.402364375462391   0.213532770343762
0.158666363840483   0.472759827522345   0.401791822499460
0.795869125785554   0.508084293024968   0.504454104908544
0.916741061867616   0.463735998206267   0.649864003120863
0.855623928032774   0.495326748593908   0.695469238348635
0.000451488574510   0.837203599249594   0.543731038738171
0.786328293068785   0.511115358593036   0.764610063437641
0.931744864965242   0.790155530622447   0.687097573627619
0.752164289495196   0.520807601253194   0.915966267784419
0.869243167998311   0.522047115835627   0.669801506625932
0.852126042324972   0.466374154428839   0.896361102993875
0.065885172568626   0.542618448190630   0.902409979986095
0.953569194719046   0.681243724610259   0.171170877983062
0.997741138531024   0.485024538962019   0.123659406691210
0.929664861380716   0.504621438729166   0.941759925953692
0.775785418745457   0.346315880480892   0.285253608601409
0.892184085119426   0.420806842183225   0.229443021132381
0.994676344281986   0.615613830356556   0.263529676876336
0.986736161798455   0.579511243622229   0.409392873544788
0.930344640420970   0.481849787652223   0.278253179716778
0.772635132728942   0.464576071250301   0.340741318771355
0.892455680811089   0.575169743417680   0.461756040650138
0.775538184164569   0.457505400780115   0.426329030319167
0.965135439113165   0.345340139828903   0.787246493318507
0.806763060908522   0.507537400707871   0.443473331932998
0.700480372458324   0.447666612468480   0.700277095378051
0.904583637081877   0.602649957449708   0.634598914180947
0.695462967160250   0.464384896977701   0.665230541997284
0.761267726808313   0.487395862415301   0.670954076188679
0.897606499122479   0.630867189176006   0.094633007417365
0.862173548820026   0.428854148506645   0.910938854569643
0.660407389978657   0.751712199441512   0.974945973182501
0.738047079328072   0.825988131857069   0.938564056070674
0.731820594591396   0.756286843173640   0.042606810505164
0.010325231560066   0.566539125837851   0.937033909301559
0.988811824314801   0.556153540237437   0.092253971492392
0.049829678219544   0.734821971482273   0.995429651476403
0.050840666808897   0.432581678933782   0.350890638600339
0.879408067181729   0.616024201805265   0.163074387092564
0.771953138402581   0.495672499307713   0.245353361437195
0.559903816634210   0.480499791801302   0.371207013490181
0.923783805886915   0.387488857276884   0.531841731480640
0.890527733194962   0.512407165492343   0.409149326494404
0.911333406701819   0.367610055143457   0.467956709281299
0.945447090913102   0.415241953640888   0.806795724925873
0.893612108105867   0.443901783520493   0.679451861614280
0.959749384407260   0.581913900447344   0.714448338428552
0.614010657340906   0.658649380789919   0.629390218860256
0.709655001967432   0.520754549858998   0.020601540223925
0.746854917060600   0.606284684484948   0.720259475110013
0.845360448619723   0.503346998823782   0.086242127428399
0.049986993969973   0.454519632874789   0.978682536628161
0.939959783460186   0.491278204857527   0.014858710882533
0.837921494061610   0.475981607120072   0.798623009289831
0.739031431450542   0.519774289364267   0.113968229168250
0.822375890839260   0.651485389312608   0.139653690872611
0.893195467066305   0.478375149425728   0.340871308885619
0.086877704236699   0.570151669665434   0.067012684942676
0.967929724434248   0.652155797112549   0.309943763107723
0.919559005511799   0.803710918013402   0.321674398317381
0.701645542535352   0.390759705586909   0.387867394759213
0.945057920803028   0.420149758576940   0.439669261201535
0.004363705975472   0.733275264493226   0.445237039840411
0.820970493047236   0.537597112571066   0.296123402536985
0.829826873432647   0.780019424201301   0.707995528142336
0.037024743083007   0.602548512025055   0.695882887168558
0.856947413283230   0.770856019277762   0.507466925987742
0.921908427752833   0.613816420692526   0.780824417800613
0.835390187408071   0.598320136112935   0.804275043405653
0.813078577005410   0.565911957623705   0.645701437095481
0.748870787594793   0.693583483285772   0.924123587160108
0.614875057145194   0.573311019330430   0.042339748259385
0.030638342367171   0.661308995415442   0.928228639687099
0.013072284181220   0.733737206246167   0.118088738333084
0.011112140376226   0.615235729738216   0.226575742621746
0.640982085066271   0.580353431869916   0.916100300565510
0.127992445577839   0.539403532573844   0.001607580954568
0.857717591386942   0.704206124187217   0.261989372775561
0.019834272078380   0.724210562997399   0.304630554349106
0.873047808360076   0.692148173863810   0.391000616431947
0.919638994631208   0.757183582648026   0.183753218827305
0.848575052602701   0.628853128649506   0.432850290305077
0.696829582081026   0.710075732247641   0.523660833381935
0.015032864697307   0.656089978224727   0.434005130586530
0.901620254413249   0.461404339547538   0.765937268332014
0.101341748427441   0.561953518562355   0.631285741332222
0.752254509921547   0.586975056898667   0.685015232696272
0.018297411410724   0.688414288727171   0.864615324075193
0.095875879021895   0.510760156040463   0.691772419043084
0.026044038005594   0.831651846666865   0.811097592324765
0.736252460779329   0.708151288070699   0.955277732289013
0.769783956482244   0.693977445632172   0.069292978467875
0.924053801792794   0.826307924794913   0.999502026654906
0.718503074643852   0.739029899333328   0.075750694819048
0.038516511556954   0.734768558526752   0.956398818927564
0.768400275029603   0.632584986684200   0.172617308997504
0.969396661812240   0.546100670475335   0.292786278199861
0.049094551300168   0.776890372928479   0.996821882929207
0.877049361909319   0.611743395256256   0.220774064205596
0.081679007343045   0.024085520016964   0.250626719476304
0.705573505352814   0.615241450868920   0.502781561763200
0.617194502819142   0.692809456733263   0.440420013307600
0.887445672981533   0.807433317499507   0.606872651259445
0.004895407894941   0.637637342266062   0.534066190526735
0.797451664650557   0.613321713524972   0.809564830947754
0.953609024572790   0.915460019909492   0.590097794266376
0.986178886146521   0.478596778667252   0.652353012709087
0.696381072526066   0.692069931065262   0.680075768485861
0.940710135879043   0.743663080284837   0.850379295976226
0.844530785636065   0.885315227025720   0.672748321981290
0.990180126094913   0.697664218296416   0.725460602243390
0.731308434009430   0.702669870127998   0.082363446918036
0.994778663715349   0.841464377543334   0.014430536340681
0.937722138512451   0.741917033734552   0.021823274723382
0.013604425224340   0.762600833307898   0.949575091334814
0.781676729118091   0.707051041582822   0.106679791510946
0.992984576470293   0.680976182329106   0.218425279241481
0.040919739987825   0.642413870266652   0.365121773497379
0.875845392326963   0.753699103806693   0.382055664803270
0.829966131500888   0.725654347333900   0.451474155475620
0.982590423019392   0.748721046820539   0.252591054437934
0.985001115839148   0.756940629151253   0.360972529896769
0.968505726474866   0.638942985721467   0.274218430215962
0.806547036499530   0.679651295574262   0.404178376734689
0.053418979964359   0.693730075800613   0.681615840789570
0.890953253765860   0.706903813494772   0.713337823101244
0.856154674733992   0.754086976882914   0.692001451869514
0.864526612925692   0.687122730834350   0.834312102561101
0.882375414469847   0.794074211434707   0.752472142670650
0.932815215910267   0.702622507085230   0.967667815711926
0.923238686414467   0.003544602450146   0.850294147962448
0.805698605802295   0.744579372895570   0.987936621013728
0.030336746411290   0.741522734438770   0.190340457498438
0.902940129161594   0.766599731873950   0.808540224915639
0.018983870967245   0.874311800086218   0.286263603280562
0.795806141422218   0.917127430336489   0.840971440620038
0.843013255988485   0.817411271130155   0.269427864775113
0.056533163335362   0.834931161195807   0.171598476628649
0.063343267727732   0.592536240604903   0.169076676287259
0.842906282280880   0.593958834623671   0.224149494910998
0.746181434735059   0.030183286411817   0.489357492796111
0.042352429137829   0.942341431827164   0.660441861384216
0.766933615625971   0.691496810428620   0.410008771210855
0.957311114231182   0.828197639361654   0.601711223639335
0.971144153887263   0.820349277639273   0.365055497387383
0.701133663617593   0.757791610621631   0.624403804587371
0.936988849990840   0.664858098452183   0.693051298318218
0.838180049251184   0.708201018603431   0.777345437859576
0.923617097698021   0.723844001753573   0.699439777699710
0.829160320731683   0.830724644581092   0.756634139047525
0.910877263671736   0.735233978995962   0.830283277929786
0.469142260531551   0.646344041923174   0.690916838486094
0.847521212414723   0.067846441991740   0.929441400358735
0.848709515458416   0.882273102333454   0.979308743094638
0.903528120956975   0.983727925690037   0.186617770375408
0.063541742954964   0.870670431367026   0.085554055821451
0.964749314798093   0.997884356399576   0.337624506650790
0.797897729047111   0.886321155990124   0.385365194001634
0.816025912603145   0.908448361504485   0.326520072657392
0.944865877945146   0.936644882783602   0.310838993300922
0.821186978159696   0.827955381953671   0.237417057019565
0.060811242315013   0.804015338388432   0.349122462758549
0.010880307471997   0.854876718363270   0.631639044161865
0.841110833404823   0.996868683190785   0.519229629520754
0.871350234097903   0.774644397126533   0.545083688807582
0.063789060562079   0.777823566783925   0.906438581483203
0.023303279393286   0.909800745751075   0.593272077883600
0.940891658072895   0.758479680951124   0.708965227408629
0.771624307976903   0.817011737775978   0.757806089785070
0.778690472925864   0.764777746667783   0.617970672113193
0.934568660087209   0.917067155101227   0.019491659805318
0.938763639087550   0.853239945419373   0.878774601881928
0.847273247072710   0.905605952751870   0.948245237706137
0.847836839789758   0.732835865082957   0.057848885907888
0.715608739733166   0.034356775891150   0.113555603878064
0.680444578795327   0.015774361762560   0.214574286536203
0.073676499505696   0.801081154353404   0.083006869632471
0.752668087136611   0.921530668511316   0.261260981604758
0.909011142190690   0.829163244961777   0.378934418874736
0.925365379815015   0.808917810189185   0.233615581732707
0.871396766106434   0.869101518880424   0.423137846254517
0.725350871569902   0.869687237133850   0.378995665277173
0.756625870713470   0.828346975148265   0.572582638348610
0.960680166143327   0.006923815756531   0.849932788675342
0.837873232181289   0.050506820013499   0.562428315063151
0.087332585440189   0.993942912248070   0.864415928721804
0.011022341637390   0.915197789765534   0.662881744695160
0.898639758741021   0.037945681305557   0.655702506556660
0.716856306431598   0.920341999056889   0.575961835296932
0.737767292937309   0.876240921995907   0.747344988464892
0.054762693359160   0.881914904585893   0.601520541020492
0.047722575847188   0.807058030499377   0.022610100621844
0.782166310207256   0.873810983578441   0.932124394952080
0.984934540574188   0.119644058873632   0.058651680786587
0.965959593141094   0.940275052620926   0.014237278989337
0.971054394866833   0.085179025052380   0.145825788874756
0.997816814851891   0.986099245405025   0.955796545573728
0.067062735837237   0.798342557817129   0.262927290642841
0.804994374332864   0.049584833486878   0.415667890494059
0.745941547125347   0.948459153387079   0.438378248675702
0.941101327722864   0.918420102408932   0.273950803046871
0.773494814277484   0.009590122066039   0.572330491443338
0.854018228740548   0.910868962048338   0.647677280007006
0.956428556378044   0.897501364137597   0.551973041483464
0.806627395495284   0.063651495699910   0.851334706777882
0.100765684196740   0.772422956683728   0.704612493285636
0.883598154403021   0.038026332971542   0.780277704864572
0.781818339435108   0.861665728255884   0.791857167960856
0.022815255374704   0.880687714572613   0.858504662533328
0.888348139146141   0.984768226065699   0.051485104595604
0.140825403768604   0.949439039550723   0.986303094853486
0.863688833250953   0.939600630456790   0.170613018837054
0.800161259418299   0.986135104521748   0.914722294574744
0.840357403002094   0.958191228729599   0.025399090395511
0.047350349955313   0.139538760456960   0.008138774009133
0.892141179122923   0.980283260054368   0.988110384809387
0.959165213980107   0.045084159399998   0.234808731270057
0.003895793604665   0.116366579257415   0.197536609472416
0.007826938960022   0.267621304425772   0.317460584927188
0.935015426092761   0.917719721385214   0.454191554738733
0.960959767752057   0.137777399595408   0.244360514490674
0.906652644170810   0.088023032325796   0.372682032984374
0.888929427224653   0.954280420699706   0.528933570845434
0.786647568129662   0.205386044286984   0.417051734725750
0.917891802899288   0.061295584465119   0.404093732741710
0.005758811120542   0.016532921967730   0.800561268525403
0.854329888653704   0.741646262745356   0.776091552240849
0.036169337792672   0.042079721030620   0.949673929288530
0.051314677779532   0.121082106447182   0.648766839094519
0.137381867273868   0.757616225401907   0.713506635942594
0.986596019353469   0.930158729637029   0.982172500022449
0.072783014890234   0.989526632214421   0.899146881078756
0.069494672180886   0.079350675193941   0.782108122024856
0.947622860082791   0.124459926311263   0.963804782422273
0.959745076628331   0.873147120612761   0.149895021536079
0.864078465030083   0.000210310214979   0.231711483819361
0.890026901331742   0.056221855653670   0.244773225621902
0.982776707172590   0.896144248416981   0.173277085349299
0.728737797658069   0.925364576775500   0.232982081402736
0.858289731655484   0.216839089225341   0.574671946317465
0.101708011716774   0.989373816941267   0.320809661382537
0.011068243659004   0.003585760481447   0.515447444317434
0.058625801495771   0.127563893476145   0.545977506692501
0.993391418673829   0.971331565468530   0.598066032339303
0.001331015935448   0.917852408880490   0.699665487138994
0.884380386870393   0.969811498618486   0.701296267435923
0.934718933263393   0.120618345902893   0.800264442276361
0.887755275954578   0.119788555850467   0.857277988787545
0.760651065814967   0.263734293421627   0.864550468148803
0.886346572349817   0.948083744014620   0.923863228915982
0.894331408283277   0.070687964800694   0.802773589070581
0.802464728530361   0.885049553976170   0.900929269257042
0.754512602315026   0.054853595231090   0.006075881927875
0.929482789013183   0.027849221908624   0.148700731914181
0.125726377023360   0.117335256836767   0.305571204166624
0.958500323783001   0.979917852674529   0.006212426701378
0.996525814848575   0.119332256984692   0.094127631799679
0.177761372176492   0.089082705724796   0.195165554926808
0.794233462407963   0.968503123860466   0.496329945901274
0.832311432329144   0.239263067620125   0.334217407426033
0.962555182234796   0.033722061703391   0.332730826954756
0.835463322133901   0.072501911371899   0.413269029750982
0.864285920380841   0.171962657348168   0.527327561070703
0.923232840161104   0.869460194459217   0.505948975471926
0.142838349661342   0.194928309569886   0.608037881719666
0.036932535713477   0.186819443749531   0.543933996363563
0.979730022045137   0.028980339051528   0.685113745136555
0.144439977622621   0.217877636575450   0.800361699914864
0.130332960242527   0.213011486599282   0.836051305082258
0.829473718781197   0.806545512875631   0.065093393427340
0.950405920643977   0.972279483984249   0.765019525209779
0.807356028766697   0.231173391234545   0.836544271550360
0.874802097923111   0.152373968719072   0.011434018706773
0.859185332357582   0.197333472481635   0.141797150363621
0.723194329078484   0.095024647805912   0.175194344505767
0.044090108338370   0.165993526150260   0.157044217409833
0.125073191211597   0.214980656305634   0.251988791322020
0.820195856915351   0.099298030324555   0.490274999658596
0.875356457942641   0.013699510937386   0.429258236447851
0.827037136837362   0.027111489112899   0.177081473193849
0.981144089435866   0.275591605436723   0.547458915700369
0.962038513908886   0.040330128387426   0.528538870057433
0.918094732306964   0.226837422668109   0.240504677410484
0.007914909380713   0.163150944794626   0.476374050887249
0.097047617261043   0.067933800900497   0.553231476414926
0.918154813784281   0.165101468998571   0.585059111461541
0.035975573186987   0.191543718795181   0.762483686314065
0.037492067893173   0.187435872583161   0.721867254207758
0.854725248243287   0.131518829681741   0.839419295443122
0.922699402507771   0.108043206404009   0.021598220537387
0.903176018606199   0.125035036361214   0.167561424382807
0.930025367783015   0.983549925757286   0.976684666432642
0.093823442604696   0.143727788540707   0.827017748172133
0.945371739276263   0.280297968867796   0.094868747658088
0.904039524401172   0.999634909496290   0.222186278508027
0.657051528622117   0.146936798725338   0.295094346946252
0.049843173482276   0.296373356592598   0.402442563228385
0.920213035166420   0.917751422412413   0.210605616524770
0.056964253137858   0.174967698332999   0.259892643887970
0.994496018964691   0.383830435443595   0.479755728562943
0.947041892036169   0.228662601540349   0.342323823326103
0.986577258527635   0.108767806379827   0.387543225381811
0.918681576218497   0.176434526487680   0.426897109011903
0.049605015978570   0.201662546483051   0.360567845821791
0.819423163208531   0.094880752931727   0.704475798644698
0.045570386636192   0.025317741515410   0.796501496491989
0.054482507657660   0.190058263406465   0.663380113636204
0.893042620793047   0.944304388795948   0.570633017644188
0.084603100910152   0.229686961505991   0.873215790613105
0.967616098894358   0.098315740322740   0.794353546228160
0.620239223713801   0.124550204497611   0.768757676845979
0.015700113535847   0.232927495649514   0.856670420590208
0.042629249416659   0.199435275351354   0.072153504937376
0.857111055481200   0.265064194576704   0.160125307318760
0.910785950757711   0.156002461540124   0.281846391246777
0.924160619047979   0.156874513784067   0.245441268964849
0.038189196542709   0.206255778128092   0.152026858622470
0.955927267063321   0.291582344804524   0.281418729598590
0.845236097246326   0.354340948343157   0.398274200963811
0.000601021079409   0.154986277359533   0.437903043690558
0.137468711583705   0.208068086637065   0.426077602693578
0.819137090015411   0.139519172359966   0.353536330404321
0.849562691786819   0.143331856225868   0.645191903568711
0.113916112322786   0.248574542104639   0.675536074147635
0.905804888058611   0.303016474662751   0.743202473016931
0.889189132952509   0.241415046208243   0.695726693222949
0.061289517910300   0.356471142571483   0.665791149631714
0.924891636066825   0.069212249008694   0.830820060081016
0.105527558858089   0.307333727212088   0.750251243271451
0.802102832280221   0.108126653465008   0.619647116169515
0.054931450184225   0.286300754668430   0.859548413480490
0.902329793209439   0.034984796387729   0.120321505059509
0.053738738976030   0.197286605872355   0.987570536531628
0.891415547523271   0.198199647102011   0.912685885163839
0.912575328929087   0.552219990516017   0.148847749268603
0.849433163397854   0.423304394694664   0.105558841115517
0.047358276798797   0.045368398822649   0.178957980693630
0.989769462572702   0.169251653342848   0.250183904915306
0.962640073388325   0.360854639343634   0.299230139491781
0.887019495195276   0.294656493399827   0.209709712728772
0.869282734782788   0.278717192447450   0.500240829665559
0.856110162231004   0.225804222919213   0.470988486267745
0.824443832150616   0.314106390055116   0.525399783892692
0.866724989096338   0.295098895060410   0.652471620353633
0.978548143508167   0.501750442952795   0.487340811074302
0.915963996621554   0.429879046493377   0.744266502925939
0.990560853505743   0.146282273892796   0.749895065948186
0.959747311814295   0.358352958287424   0.680226097939462
0.900775225096372   0.394365571029860   0.745955166861534
0.877360383729854   0.061529785654535   0.949175985615036
0.951492212893113   0.424264329222013   0.763577274942864
0.902158955174470   0.114250501354944   0.127224056517561
0.988633027295840   0.447402755135318   0.982702806031431
0.800330799028528   0.530332684414104   0.122393834877732
0.893072585707514   0.501909236860516   0.190010875935193
0.952775188112396   0.375112875002409   0.098745784063104
0.025856432379296   0.338409840523846   0.207298870991278
0.227075204513026   0.360715084593113   0.232007497334863
0.872350804859720   0.111672012631248   0.219308538940698
0.021175395508053   0.519338527542808   0.441640888189083
0.781218483884428   0.194511594134200   0.322812241022400
0.914079957359349   0.464632132050203   0.308614563131020
0.994989746219225   0.217735581547860   0.426194204755361
0.070147908418058   0.254422410087367   0.548926078245332
0.034757813475874   0.327733896504286   0.608378077383420
0.124865039145627   0.310202840886248   0.972487036835301
0.979023723667449   0.179450823942141   0.572021642198148
0.918148414404865   0.386175214812061   0.921986265959906
0.026318810962082   0.642523377986300   0.741321249510036
0.860075327828490   0.501612116442227   0.737430844215830
0.004799569764848   0.502521488473120   0.992188700608040
0.047278380692522   0.514100080589796   0.835777456406426
0.167283226115844   0.342256451906559   0.187314086660086
0.977402356169727   0.356952423200751   0.121851484871734
0.954013383235605   0.426768061309318   0.058741900772168
0.822991072101012   0.220097591197793   0.092803490669238
0.698555600194651   0.466764311042674   0.140109108053677
0.843502983057274   0.324243374766589   0.128684621377760
0.943527019896574   0.290455431443012   0.244470198604475
0.031613881812887   0.385971637210380   0.480924707677859
0.831250289819716   0.413672364591701   0.524695267819635
0.936660109430277   0.452902854452343   0.379803287730090
0.890006901120570   0.499836775250453   0.443116603336984
0.664203566967762   0.451623026963077   0.643680812460961
0.935775558553871   0.327703710215095   0.593287644775995
0.923467012117395   0.448443494935064   0.708060213436685
0.089901967845659   0.401288254633430   0.699116280350040
0.923064734834008   0.362424533226604   0.739279508504113
0.992408559330733   0.460356771112493   0.791295922425102
0.698761607676115   0.314537518358306   0.643377202931996
0.945186499507372   0.407927525931652   0.974161672191983
0.898176724813583   0.212071534221522   0.876883854482013
0.807225019570994   0.512178703205162   0.959101546460223
0.889747802380205   0.468702436449036   0.982645738801454
0.984679455795628   0.573349662145612   0.994008325947982
0.893555891694739   0.414936876519890   0.191136831887185
0.050412247522210   0.348188977744651   0.122597118279068
0.737640828517840   0.427420183937872   0.050876765141439
0.013174824423371   0.504056457754882   0.337446839319045
0.922825329029040   0.579662451928351   0.541851056907516
0.641828485313404   0.507061003293972   0.396275157344868
0.959826463903307   0.458696135991450   0.446036716090415
0.939589711655419   0.765896481807917   0.599291810923146
0.995584267757775   0.427308321963427   0.531447020192206
0.093820508910259   0.514801403642136   0.584180752839575
0.141391101730330   0.457779924349192   0.661812031426618
0.850303105550852   0.394652801557108   0.677640804627927
0.081772022935086   0.525496738384443   0.622458620316026
0.005305581899086   0.416845431418701   0.999616444626559
0.890657872342565   0.387587083066148   0.551718655360787
0.724804955597130   0.462751728736519   0.045700303000905
0.968175628641178   0.513094199319004   0.999601258374872
0.033127449519156   0.425288584023115   0.029140593586268
0.899649637031927   0.498361094559093   0.149051927569369
0.759045719862838   0.629339819517365   0.078557360890908
0.881380092022515   0.562339206830983   0.077600138501994
0.046801312131887   0.496820540063999   0.274922471144412
0.022325480000361   0.601640339185281   0.124972289782069
0.947813932660774   0.368341297055583   0.184337607318093
0.967878534805876   0.384976123355017   0.326462194268942
0.998435636449082   0.291331583937212   0.577913689968543
0.928231324393645   0.347943897796615   0.296418123449146
0.978815393267702   0.398994121352474   0.640413240369028
0.770767643847118   0.372478068769325   0.508375121590981
0.084895119372286   0.389578530576260   0.663718941618518
0.898746531453691   0.681040850349940   0.739168224911806
0.021671975515195   0.535752362146173   0.649237996162619
0.781770827296930   0.314609364816724   0.737714492421057
0.983690945000745   0.527974717721518   0.862596416261521
0.864350932698616   0.557982219259102   0.616324193668453
0.850496077559051   0.620059217844449   0.908028465217465
0.773439032911671   0.497797221908697   0.941233694112838
0.983303058603557   0.745596402805069   0.934033103343186
0.812366518257330   0.476696259778669   0.976939448946676
0.153317666946902   0.571685324999982   0.254784235843304
0.925967148731405   0.572897706112470   0.120813910541961
0.988608531207683   0.577206939062604   0.371995874293866
0.890118842102081   0.624485484413426   0.413870376441578
0.997351677230853   0.455644308096090   0.446420772064139
0.910324658026348   0.427617214028400   0.308779556439750
0.056381463945141   0.577270879131064   0.377030653562615
0.019697328672080   0.727724056291334   0.569160507753558
0.993657912282780   0.469115058692190   0.343980552818870
0.692866460154273   0.558905916245622   0.541151371033786
0.964466948456267   0.634319369440359   0.532448118379229
0.207928359973311   0.440800942543139   0.714347463390771
0.889469532964327   0.606344336758403   0.761778183200276
0.980825691260456   0.484135668023172   0.914972538276477
0.936895485823346   0.522887412082981   0.699031788613344
0.989336719082891   0.705734024250748   0.925545826226228
0.753211738177167   0.599665919211603   0.854739296399076
0.784702145581121   0.472171839643802   0.036227986534619
0.784828966421467   0.708940953435211   0.846107199930901
0.065230225573373   0.590590745555940   0.013440195900094
0.944224904479856   0.604590275038373   0.128592849165623
0.881571279883569   0.717331564964997   0.319458998520132
0.766705045416511   0.584361969756165   0.326026633669792
0.043411714079891   0.640836870990002   0.300014461483165
0.851967653761161   0.476747725938264   0.256072559208163
0.836153535789411   0.648797197976284   0.351934699310284
0.655034997815543   0.571589871012300   0.392455317587670
0.968839624101885   0.737106153203560   0.454831015377166
0.091176439357780   0.611570584900117   0.494716388940096
0.115022398635813   0.438298990499274   0.366410496928748
0.009544936170392   0.574871417143358   0.567003261981134
0.060269131042181   0.576053247077815   0.682904446091064
0.579136423978324   0.507271693617976   0.648460940471091
0.920759451164338   0.638350262004476   0.632711267033970
0.853153553040684   0.623291473769730   0.041484003633125
0.745810630161673   0.485805952974761   0.968937207845556
0.901898512570447   0.725088074443061   0.951007240184877
0.214482257397181   0.631629804062571   0.994336669247628
0.064325869497137   0.442978025501186   0.080115231691602
0.881511528617314   0.530621292466952   0.135194114315583
0.871782702040437   0.712750237953046   0.193438630299820
0.794270544216471   0.603275997510745   0.013065952082535
0.977892928258665   0.652818181657504   0.152777924166470
0.056935961126907   0.774296368410090   0.133437307292946
0.096243281962973   0.476279213451906   0.321940768059582
0.030943598024891   0.712026734866587   0.465614099359508
0.889371376116589   0.601328964341619   0.525038689741526
0.858466686847218   0.782390990383421   0.276213121405295
0.978707704380678   0.368387126437158   0.244298093352259
0.948342291278095   0.648029118875246   0.496656299368806
0.021839051687766   0.626111335150920   0.611065238023684
0.999678980218195   0.711743814678821   0.763615706528808
0.969823961455713   0.664649761021286   0.665657878132038
0.883098867784872   0.636084261924430   0.542138364513754
0.950611251546333   0.527906636603458   0.965406914912001
0.990653598168030   0.563595845257685   0.772159864493052
0.767609055927468   0.635222147302237   0.864163829068482
0.806925707994621   0.444826276473103   0.951633743288596
0.961882056493576   0.692662703557808   0.099566977801063
0.957588067668779   0.791714132802210   0.122173937165778
0.744105244656651   0.853231597112074   0.267603351483462
0.914033768634403   0.675922770469623   0.990589495114100
0.960254805028862   0.972981813725886   0.225562100879592
0.569648884457109   0.496735527982143   0.189987870273325
0.018312427499799   0.559841139589284   0.325143681108249
0.032845352905369   0.617093468867943   0.480791903447466
0.850911256367195   0.722937823876822   0.384784307405358
0.986336813754540   0.655497400540537   0.406648556420864
0.817372480200096   0.615296460155432   0.364584949344415
0.827646563875707   0.527803537123755   0.497321971713910
0.029477519635574   0.764663997151541   0.559571183908763
0.856762653921059   0.665806517184385   0.488264355685945
0.896496235502450   0.798770406864282   0.670730566590174
0.576667555334615   0.739946621177703   0.710687776242543
0.858500660431456   0.719414288554385   0.704843287559755
0.962184218053225   0.845726840355568   0.782770308226099
0.955875287647082   0.627529552075632   0.979709321500189
0.875380874183318   0.845975506084449   0.876917127730091
0.986937306541618   0.788027465958003   0.847320889890886
0.923386215496346   0.623094172910405   0.035240090542407
0.867210508422894   0.732144874091700   0.091577094397405
0.797272602023312   0.578173329709216   0.972646047522148
0.105596853167932   0.796420758801685   0.205341724888808
0.066507074692513   0.563347434419682   0.036915790118007
0.935718929037698   0.547605549552315   0.517622427946841
0.803857619172418   0.591680253128218   0.483112102819448
0.900001054521246   0.600646782698162   0.190989082652560
0.049750498173201   0.990015223108194   0.405772925286453
0.894419784751523   0.715990074003758   0.572227259058278
0.125853927380162   0.553989433627847   0.659699924391921
0.063932405353743   0.885095341973808   0.642714061191322
0.922145208733568   0.586443746562174   0.665892029919711
0.963987693939306   0.589881334039243   0.893151320036709
0.899707408767454   0.659955394461718   0.924778919203502
0.793847945540387   0.759719890360539   0.716415400352715
0.000059888391733   0.846462016203088   0.911304519034411
0.107657308226493   0.598167157323867   0.872494920115156
0.023478759456509   0.655721656242896   0.839440264808458
0.012550253767675   0.788994041314156   0.979691935407722
0.333303541945232   0.653613764144757   0.101652833227443
0.792949697872688   0.979774349661732   0.076552652288190
0.839330430716622   0.845984665840395   0.058757680298337
0.841453358455999   0.834551318488163   0.131540669412451
0.066162781828002   0.832284796286685   0.279338803766905
0.948115359733778   0.749869282969767   0.306160060591789
0.936966958386060   0.646639436423505   0.370183470626940
0.798687031085257   0.761421570598694   0.428507896483794
0.092419890373257   0.522303663423473   0.368376823822579
0.955145549800127   0.710465018906791   0.475716613506975
0.755393653506867   0.795153428870924   0.628423693349933
0.019265998361258   0.825099629985412   0.574676382750542
0.841849109131309   0.012637040896042   0.720746246322457
0.133358386703595   0.806178979017182   0.664285348117247
0.052471115277463   0.588356566688334   0.757968993507570
0.908101480108852   0.821929884670752   0.829148036707121
0.853879394882746   0.666093068744751   0.599446117415866
0.599367858843276   0.650280327656303   0.853120961740738
0.847724065594252   0.747741691983838   0.990265667000781
0.962114884016664   0.875226817763369   0.112095187598997
0.992322534724372   0.121955059701372   0.862045398147819
0.801857152965863   0.967009365418040   0.258767393040075
0.796694425518769   0.755074754606711   0.361652918599169
0.084978043348429   0.808458017417621   0.175183401741695
0.993617384173397   0.812370733336500   0.068743124327207
0.996290966352903   0.830945517097191   0.424183537156735
0.041291174915654   0.731245582748189   0.367860286506787
0.889657801320081   0.725115438666923   0.278399660761568
0.771157530738914   0.891927942245056   0.413082647059582
0.834555807547349   0.773560804335914   0.780220288495188
0.840706259718885   0.591074739294340   0.425078494338668
0.996618059360880   0.721752101922499   0.599236833279399
0.973131653374979   0.709173876974005   0.509633097128486
0.882030140870786   0.996131269018356   0.524315396268588
0.085150460267653   0.861595005730003   0.826076754465424
0.868590040175257   0.989497372728524   0.890384576612326
0.929886582116739   0.127698752437261   0.900266802169209
0.923556101201537   0.999118477374049   0.061478430512233
0.999021360367778   0.854413361685268   0.950826871616661
0.037144852482209   0.772327013844961   0.879970939875855
0.764615141007696   0.887768622045419   0.178350632742881
0.040630888850523   0.742239855787839   0.149374715614768
0.940671287803945   0.849408841992470   0.173068979623962
0.900805693095314   0.865170869866250   0.260558787702530
0.047305612118568   0.094642392376605   0.401366179559578
0.089201832525862   0.101002684242071   0.158181433501493
0.889311792263154   0.763756709323584   0.267342308086062
0.752344541852190   0.045557803179222   0.611252728510799
0.942662603711139   0.883456878697858   0.441505928744752
0.896603463135524   0.924097798409957   0.472882234166480
0.992917902694919   0.843361505224474   0.462569897735338
0.715038903289172   0.050016954821324   0.697621811428232
0.884670670965968   0.760970585662906   0.668470558327081
0.720279269226345   0.842968164568200   0.836865713440208
0.172620780455963   0.770965593578063   0.878031108200394
0.884015089507121   0.021163094178840   0.624395275610408
0.877536163325716   0.915103490522808   0.797280030119506
0.978002402516204   0.922491108472072   0.642862487441384
0.835823477142008   0.929228701510254   0.850846775267556
0.720965981720521   0.081844144242193   0.936813337199275
0.902283816645342   0.839848067074849   0.231958518326161
0.072712355931336   0.816661630034670   0.049865821223115
0.727610870331988   0.882318452161505   0.182928248345992
0.853953706812305   0.786729694348742   0.919699828106150
0.912967171859466   0.906082225160620   0.991410521370148
0.233778445788936   0.742155675522784   0.489813731373574
0.782742982407157   0.858122983868252   0.193565232974295
0.170527976635310   0.002751183634893   0.378414308786507
0.940775381248375   0.922333054020827   0.344689434447079
0.044343844366824   0.917940980166981   0.507320904336910
0.876020086265960   0.827745133103900   0.487640535442939
0.951693430339408   0.008585031349965   0.756798654586539
0.980351293964329   0.989150260911194   0.566217246794877
0.113778429415394   0.997176417516718   0.787058343929202
0.917877645743719   0.187929301709295   0.939084218661070
0.853911403171503   0.988241689208343   0.749897436421008
0.763395081689193   0.962639418648705   0.723967130862748
0.977123477529210   0.151576598300643   0.046590680943869
0.077493268656820   0.024319002402782   0.066527472782069
