Generated using phonoLAMMPS
1.0
       27.2492699825         0.0000000000         0.0000000000
        0.2326656174        26.8351736104         0.0000000000
        0.6799055227         0.0164019945        26.8660267516
C 
930
Direct
0.755279919461970   0.803103241473622   0.901127480585055
0.192419291633770   0.650632916384877   0.383418746480126
0.078302977628671   0.653500059276520   0.462337364391267
0.117185987032451   0.435820022752106   0.219615154654330
0.213394545565858   0.445324179326764   0.664403030825426
0.128673485955512   0.261375045048990   0.385301231764147
0.029343286557147   0.299356593416965   0.055836760451028
0.100209983163373   0.666880725479504   0.935602943166988
0.785654759198299   0.151783606725127   0.859890686985346
0.940371216637769   0.043132134294772   0.914286248097224
0.772259477507868   0.061812602393915   0.819756002762426
0.004258223776625   0.983799715592434   0.020938564202334
0.199758938158153   0.242295607078572   0.441889491504097
0.951704963369795   0.352163183881516   0.196367054524942
0.187325489331190   0.260158561565669   0.533307955525903
0.939336909845428   0.357749235903938   0.528662262988112
0.347238565172026   0.228327771264016   0.671846222997044
0.989288324038231   0.477740149394478   0.823774836697129
0.229224962008523   0.246319634327432   0.559617257103513
0.038692574358122   0.378333684150385   0.613029297271103
0.918834451134266   0.554119491654096   0.238552729410139
0.968716142835505   0.365311837167610   0.109141462826295
0.133150315978112   0.169496389046786   0.237317089309468
0.332118943717669   0.334240559386443   0.239280730620770
0.206382855652989   0.363652092788655   0.302214235661641
0.310364630553271   0.425279028227080   0.096265406266149
0.913033751765778   0.572068008711739   0.569361809300254
0.522980451991585   0.520801438910202   0.655436770119024
0.774550994443220   0.213167070726654   0.926293386442710
0.084242236768226   0.691861891533051   0.206238716324885
0.992834018121254   0.331429844075041   0.217448833949817
0.033298629594505   0.315602070257854   0.105700732239124
0.183070135620080   0.387433642340723   0.260775924358921
0.934320014484211   0.352421666151545   0.143289571085190
0.863154108782900   0.343301053571323   0.577427140359566
0.948331322452781   0.361150112158118   0.612224984069162
0.303622963639351   0.222728255579715   0.645918615374212
0.852554680568136   0.755496303835783   0.574267022907702
0.972843936752908   0.533370684118859   0.754791923178307
0.058621541138702   0.759837412727945   0.037508473036117
0.080006656738691   0.472704073768144   0.118224285986421
0.066984588434643   0.129056251638205   0.103983804000107
0.881831314634992   0.345908876802941   0.146426558953892
0.196568246441339   0.208395496545787   0.357784571156490
0.294132244893471   0.939884648680559   0.651578008235158
0.022425124383774   0.686445476181061   0.662210477362101
0.721008274981729   0.417410974179233   0.843588931461563
0.188591959720662   0.362859434533449   0.352549083181268
0.961220333111779   0.537212314602380   0.210990925543630
0.842304913180416   0.606514810683782   0.131859452934886
0.177560894812802   0.454233002809129   0.097677757647722
0.147619622795075   0.389013035246611   0.376592154602744
0.050542513143884   0.894460237267358   0.086730021210197
0.894191896818918   0.602683271807056   0.609393508439985
0.994091599006871   0.504482837698577   0.288975032362671
0.088595290917283   0.654174906054970   0.603184231514059
0.148964570328811   0.675164772163768   0.513725532532571
0.795002921603015   0.735140470202194   0.947449049140997
0.938286358144021   0.210561278540846   0.839010446479869
0.446499331493080   0.616468974332488   0.760081242708652
0.055581340045549   0.453577924204665   0.074494484372566
0.737549945176088   0.545458964443868   0.562803005438812
0.962262756649259   0.624842850380795   0.320651906947385
0.837136248631613   0.731756271146383   0.528906608758355
0.983067716841107   0.724285491015593   0.742001535408015
0.232152859097074   0.715400280261706   0.680245213368278
0.993978605601206   0.486055811790581   0.447817870920697
0.888950729580360   0.798108851148596   0.765554422697622
0.758310371853110   0.299549555307940   0.903981426972771
0.139799602832681   0.658862412117425   0.602596559948555
0.243096037440292   0.658539052873819   0.390348070332933
0.889840465809641   0.591806835657674   0.050989000445271
0.052363801381259   0.678665842741033   0.244853550948252
0.686779943266835   0.829001561254332   0.060973099786795
0.106047644683043   0.424852098669115   0.304144320466493
0.761854262189276   0.693405610249813   0.490554153089091
0.673079150578834   0.771683531719711   0.725006584713536
0.957795047074828   0.872616281800981   0.960644305115306
0.976567365324590   0.511458822144320   0.969925528658536
0.925381610136021   0.570681785452153   0.082112641753720
0.175530851483766   0.236941567479817   0.395280656800788
0.651428804911408   0.766356575348081   0.904545667459098
0.999175646017402   0.511321441737111   0.235675012853284
0.847914582181178   0.967247461773269   0.813281524730811
0.185211288829170   0.186476856759039   0.318263400801936
0.321628979561825   0.890733468369620   0.528096488966499
0.905372055278279   0.778466587494061   0.720654716791978
0.657756338689393   0.746960707275426   0.680791602312788
0.066477335728098   0.773498986449429   0.161121329552097
0.839690375752202   0.170737478595392   0.788454117010007
0.927875354428366   0.300777315921369   0.728323569425266
0.719533196443863   0.034068254255828   0.033809634651164
0.003465868720594   0.521405814964938   0.129815550406697
0.247563502500169   0.728209775323077   0.505478429153698
0.179616317225166   0.676036224349488   0.469427828558569
0.021822540144696   0.694858909190198   0.818073506112737
0.776830021628222   0.113493372961962   0.893352508798892
0.066163768743749   0.663267075842729   0.555528152264315
0.002562686164868   0.265347243425617   0.955857266779154
0.712376679045097   0.922235513813743   0.948669817671574
0.732570583243726   0.034833189581368   0.948894793253408
0.011335235014371   0.639436186671626   0.322419196931833
0.002885608158662   0.642897562483283   0.413595862266394
0.131469385255719   0.669376841453225   0.208794657351628
0.105151366383582   0.284353738637999   0.428299551191161
0.309347704429424   0.125106083925330   0.643749645599158
0.327682564281481   0.095701714453042   0.560607299294937
0.170974066259768   0.253829144961943   0.483133777838101
0.036493297254089   0.697949441423196   0.869508164195094
0.972293951613042   0.052003415953102   0.955563944656279
0.536712277638170   0.133930651004891   0.719908089827542
0.032028959500285   0.639855426035184   0.371141252935966
0.008834809764584   0.178715511289155   0.988658890485850
0.934729950977700   0.716466381257794   0.564380931359602
0.255289087372094   0.367113774651209   0.205816583193520
0.252132245529880   0.240805033223930   0.447204587082624
0.431259372392778   0.826373633994543   0.432213576177894
0.908712360917253   0.263441104302599   0.759168644049137
0.910561695187942   0.532791690528555   0.453541579209301
0.080078736255850   0.358170148346964   0.587321684962600
0.011818971009177   0.403931672303944   0.939626396318413
0.254584055966433   0.303585118424574   0.379218609219663
0.278369460760884   0.263619384833979   0.407451112931989
0.505133874508360   0.362095066977136   0.216469051928330
0.269006295542378   0.649163767573258   0.345963753998215
0.214352244210151   0.336500744437699   0.392128102804506
0.906576937413070   0.601268489489434   0.660023272661409
0.344850847232295   0.056766683675392   0.701685291029397
0.645945028301201   0.538484688375223   0.472217016580037
0.207811112782278   0.315954957828008   0.616363675697368
0.887765861839128   0.603248964125473   0.954025280216531
0.032656356040213   0.344650294853092   0.510338101974214
0.064548774186760   0.316363400424745   0.422212409928627
0.426328530686296   0.400117365837707   0.159860022462913
0.341323191539765   0.009787815073725   0.541071284354851
0.835608747353463   0.359086001464166   0.534568502919573
0.913554493232723   0.352503368357883   0.574495489887831
0.994806571381434   0.369620334915263   0.589413233538783
0.011370320385186   0.351772578530558   0.933059924780545
0.799281549448795   0.709190280968967   0.992287089806175
0.776676711215980   0.326126900632863   0.009820909003014
0.247690347318136   0.629167697348441   0.258743630171738
0.149062773840168   0.194223152139241   0.283313909435704
0.999570447527364   0.347234814446170   0.379357569105116
0.458404205375268   0.636366879862520   0.249024530566343
0.253333141371066   0.340639631492946   0.292200457945739
0.946494976097742   0.534028866304901   0.574366717589940
0.152418711105566   0.386625126037496   0.430016035002719
0.950038239413176   0.546663778211510   0.001878136036509
0.665838902641560   0.716336991637589   0.893078329811872
0.221934787639503   0.627453178237011   0.708263230582348
0.381030118668049   0.611814400167336   0.224957651753997
0.839228540231017   0.323443390970823   0.621490280434029
0.097657409339055   0.649570187099553   0.319342689908140
0.038694802972040   0.463562275986661   0.467842167962237
0.961686763304322   0.546312783028262   0.053470439573446
0.824026354618688   0.641727915614739   0.679056064697528
0.011617562980073   0.486179172183534   0.599994634451855
0.718074923454852   0.795951775760618   0.726619677725044
0.116711108407092   0.601225621081442   0.716942031588385
0.818841626950384   0.649883205823303   0.049624772666490
0.143628878707794   0.653135455955360   0.030907724676875
0.073042042900450   0.461775828739000   0.233597609279022
0.921601168540246   0.656978211278081   0.447856637352728
0.196823043058792   0.399298549116098   0.646696478814653
0.212824435374461   0.579070871929707   0.787045687682148
0.262012648237204   0.449886455174166   0.679336310826575
0.805809160036648   0.709339627949773   0.903392281426749
0.742461450656539   0.627999851558918   0.443644589138592
0.078687501777778   0.723738910577237   0.162009934712091
0.881160187237795   0.583597494643759   0.159969120843076
0.146311407658854   0.646523991178548   0.299942390235285
0.779108947927807   0.682021867705192   0.071508013364335
0.083328270449567   0.645684368248956   0.370862245918318
0.181327596254335   0.621567264917755   0.678425748195703
0.358283198006149   0.643736578216548   0.781506431677680
0.258760668454596   0.819861764186913   0.609536938655238
0.739620860320350   0.849935718320200   0.994643742711548
0.377568272067350   0.683251152061381   0.807402717214527
0.513059031251116   0.685521514914553   0.778309833208020
0.014703633304769   0.691743008870942   0.714313321334615
0.078988177931666   0.037422755583479   0.122647092570313
0.383575097447153   0.469187234873275   0.115119925942001
0.331196897864229   0.363984216174442   0.155794925639711
0.356227114360265   0.826333400862697   0.474285476516960
0.360394966604851   0.780554687593884   0.448753107836535
0.250016790787374   0.765579236298629   0.692231753208257
0.914044580174251   0.541541832390011   0.400762877948031
0.800794633862449   0.653921565288183   0.725586629546517
0.686395304020557   0.776828507957842   0.039319818288243
0.990970404218950   0.355906012918084   0.431216115695636
0.087180453034584   0.144049387977010   0.149033409629935
0.021142127432153   0.097323644709301   0.015932076371304
0.275157564170960   0.892097529826643   0.652774861804065
0.258816743000608   0.789036620732022   0.566784587865906
0.881664905023836   0.783468841870377   0.673028519147259
0.950350241991809   0.750070656228188   0.711298863679644
0.107273001992613   0.689074619119477   0.024830236870075
0.077833846005501   0.633098404591358   0.699914898985952
0.028142469326162   0.148258611204963   0.026610122204149
0.098063649015850   0.661845031216969   0.510802763165667
0.680394318170473   0.018650619215894   0.251924813169365
0.406389978481883   0.779655841341982   0.422786462063042
0.460603993935492   0.566609939120882   0.188203593957148
0.674793258528900   0.713119942432379   0.841528131756720
0.326840388823097   0.195993159937961   0.469457334224119
0.344445601311748   0.155174563611595   0.496264375944835
0.140995285359722   0.674731755462105   0.117991853030937
0.038504815714524   0.061904914157430   0.049734271552470
0.523465364227988   0.086842302706798   0.734925263886448
0.213938988578149   0.425996790901715   0.127695365292365
0.335297846719576   0.472482692822354   0.093227089109886
0.706422565407321   0.484427761173219   0.683912387562323
0.107059044177670   0.266195219090603   0.335811077440497
0.404956787589962   0.990562898461961   0.477963076517642
0.189331102700844   0.414242141425829   0.172992259814645
0.279678101265741   0.216494105298927   0.485667073908610
0.774661705438244   0.234005653669403   0.779096588919813
0.060216906486295   0.840665245616036   0.096578843756473
0.230311412969332   0.505296195060486   0.978733463013247
0.984581316994568   0.499332949431320   0.716127091582465
0.280157059398125   0.375428938369418   0.160276879041802
0.100334047398911   0.707922366355731   0.113388414973516
0.686288428251071   0.312068531167345   0.317887424104920
0.353889245586307   0.210836220346245   0.426166686494427
0.470443430746770   0.285926556017682   0.660562314036373
0.964238473242159   0.335936353067608   0.740566239435279
0.978291717554872   0.339033439259152   0.789147792341023
0.060832425139727   0.989946601695455   0.097163700242521
0.428465143581573   0.258917921310831   0.676444610437890
0.402102804071022   0.299300869809254   0.291371084469489
0.440476099614983   0.252236305039249   0.359308340576454
0.715845308532782   0.369455121040060   0.118971850566241
0.981063296391981   0.700722580557449   0.581605975623821
0.280062673934231   0.345172803475883   0.245632513546388
0.328473779543224   0.247363440290895   0.396311858781496
0.048838717017145   0.660630455654993   0.786698848155554
0.927534029807796   0.991156493303824   0.915676877993689
0.431945093182635   0.425826225939716   0.662907126709362
0.041453374178053   0.402577780862004   0.071104698795338
0.906498639981757   0.581305082902142   0.998706572731380
0.085967313682117   0.696994131428086   0.978032134894497
0.432726656443991   0.603657472708551   0.214542118687377
0.750802147691675   0.594693982113055   0.406154564680844
0.271671287518106   0.497924016799332   0.700961361876053
0.705189665084557   0.494643547227561   0.804654268376791
0.320587830414096   0.839734916900736   0.510176872327566
0.045786589639704   0.809694416657409   0.052795873506510
0.292468939381396   0.592075144518358   0.748366696940128
0.128506975333190   0.363098525097058   0.605659960456600
0.350064749269833   0.544134645101326   0.139820268353462
0.600826870908576   0.676525329655787   0.202336786167172
0.108606050301469   0.415868989105471   0.355028662711800
0.713947143370233   0.687029457799281   0.514780351701107
0.404161040941478   0.525055986375398   0.723049287473933
0.138075223024810   0.413205371918684   0.262962398397048
0.394954376345810   0.607298249349793   0.765891331466592
0.369212362666202   0.489236832206559   0.704205280331349
0.834729264127211   0.665005935025684   0.906382552401419
0.355820493768273   0.728989867255786   0.825969790962054
0.952136554961376   0.517998833693721   0.371477252005849
0.151299690483752   0.291609155985998   0.555828300852514
0.024373498585909   0.485990044935490   0.047053498892415
0.230085682688345   0.496953686370913   0.029249485987101
0.204568922089625   0.700424962831457   0.638033463544405
0.377181439753832   0.562995864258215   0.747448165136815
0.172606286699154   0.659325224659760   0.644021099955525
0.149685838511603   0.404788873997053   0.628105973987949
0.204271695795230   0.616583503770556   0.086570630689240
0.164662522811943   0.602610432723876   0.902159698718998
0.584452540751016   0.775095334285056   0.300435404335303
0.746019571303623   0.767349547120156   0.032574280450602
0.107739462612804   0.651419698948748   0.417521507877303
0.047808484644142   0.164924752676611   0.070974250775152
0.272551619128221   0.870656405663774   0.605060500769132
0.786901955192177   0.729110243261089   0.520183137953874
0.910582839910188   0.870663362920046   0.877283541698117
0.793315598256338   0.597882154745774   0.210692598214691
0.123298343636638   0.607255040773318   0.770226758549909
0.924313143356827   0.567323939966224   0.134049409065876
0.230016067708014   0.614898354265585   0.133460021206391
0.067409243339029   0.814891881946910   0.140219181825078
0.931892944023027   0.622771655595070   0.362407295653428
0.608755825476683   0.818654739356986   0.314842343015841
0.964977652283925   0.210401635059497   0.885487144040874
0.422715330147820   0.741942643795215   0.391778255762109
0.255076214709186   0.810394090458506   0.663808886401035
0.428371014913925   0.373079270224251   0.655195506308043
0.946509768504582   0.553090035294220   0.891292866689859
0.465213068643226   0.973376353808960   0.791437729017139
0.424631861573840   0.208528706729186   0.694564442763711
0.045104469418558   0.216179191161895   0.082804211079240
0.064117541703609   0.939696197047498   0.107127898241544
0.320029307473630   0.520587427878625   0.104736865112830
0.363445535253724   0.975850162860177   0.508606554528434
0.314852508317102   0.997563495850812   0.585745925346509
0.270387958499076   0.856249235690225   0.688977580166283
0.897003229070279   0.840249946287426   0.836307758037273
0.469329083380127   0.427041811180672   0.166690585526693
0.427431498737169   0.893254020931245   0.847175635997032
0.142098265765548   0.436243234479137   0.174647442414259
0.681739223094490   0.411238073604491   0.129935393955941
0.360772820386155   0.349673926598415   0.196040347487793
0.394302985894599   0.703350511491426   0.366456357727466
0.355873854571441   0.923269606931966   0.504664769575298
0.991040975961669   0.360433092360960   0.537743233622724
0.088897809152950   0.633697494888893   0.801610327389309
0.003657925456801   0.340657449894581   0.883791322011765
0.103909804153389   0.638320837146992   0.850556072592279
0.951286993384931   0.968758617195667   0.956458129725850
0.032600017373627   0.299684689664106   0.197065941270407
0.234984872438880   0.635829978680767   0.309610846698968
0.403680484929172   0.188554064582587   0.417370093600916
0.478173069118921   0.843100347018522   0.420608406463640
0.063772811477341   0.299374557334014   0.330787173785224
0.135878489915705   0.122282963186803   0.219484483303763
0.453841685147771   0.533188592174211   0.711716000165944
0.291636426974321   0.177889375740181   0.568990470430825
0.492859547563857   0.187833053763359   0.393550460503815
0.245559200694177   0.542121571546497   0.057414334998685
0.382750571583366   0.445311411359791   0.679939593185736
0.277120491003620   0.547814500832171   0.096528740702067
0.512923020214599   0.572300350852514   0.192045399109592
0.191998539972314   0.473415977497369   0.053612621371868
0.541498949719168   0.493566553210507   0.614062900053410
0.552047272654882   0.950478538427707   0.415114657746547
0.967098388127277   0.509882428286100   0.530143821849346
0.010171731490930   0.485998696397542   0.547848479274050
0.473744543017336   0.454058266498369   0.653596687830077
0.627931676180579   0.356761894044489   0.184521811722858
0.319337901465455   0.581950731482544   0.163704966896085
0.749643991627766   0.371991542739750   0.077881319755456
0.558537215420232   0.854882941578011   0.387858085467715
0.348329395715829   0.406378687953972   0.671623026613915
0.465268266564237   0.661096635689379   0.783082083350753
0.043021893403491   0.495460361524406   0.152638840417881
0.126709669054333   0.431175239967215   0.510765868986666
0.319727058119490   0.509462247581876   0.716348136549587
0.307584952318893   0.638934894551434   0.765838506387055
0.480975337433383   0.501279408933625   0.678053754223822
0.591841675963328   0.347488749801677   0.219361213122034
0.441823432744656   0.520927931203360   0.165030396232147
0.813895529668999   0.551755716618473   0.486718491011003
0.159175815854410   0.662823096379993   0.164549235764337
0.295845285441310   0.406891582590936   0.671317171934473
0.031511706996473   0.339495644527278   0.458488090326435
0.514575150959289   0.446554710595226   0.614602976192475
0.584236157651630   0.202181663867569   0.697691324932657
0.943488884924113   0.350404224809342   0.661658155273792
0.225968808565893   0.356910258999960   0.643305690856230
0.314287846686560   0.751217970719771   0.807647904195873
0.394610479424531   0.513924750452188   0.143476388438065
0.621440703664402   0.399156272766170   0.464255895198839
0.263390333989759   0.685213517565752   0.428252547590231
0.208129493673585   0.388070856906022   0.213411959759124
0.302627057598983   0.314540368511168   0.650990556277862
0.652837108873423   0.312388467690825   0.358422607072947
0.139933363624321   0.630702854332513   0.942081001929051
0.957116216274682   0.763154517467224   0.826035651091517
0.526160737245483   0.486266605430475   0.174114333066441
0.326638605421180   0.554436734089465   0.742280746772962
0.601768591537890   0.469748252782219   0.506589817907833
0.543831532703994   0.754731647803694   0.326850611040840
0.487595065615163   0.744231048848027   0.846543261133526
0.649430024903555   0.763208651111182   0.770311590595268
0.572897447861703   0.743950891607691   0.812886877613914
0.263882236814143   0.410578897832135   0.122222691146708
0.124540262313468   0.277294133047063   0.476702302071417
0.088440806341322   0.721876547187814   0.063256388661892
0.164372130032357   0.596005523973289   0.801938533717752
0.312177335325398   0.705598435595317   0.418673568816056
0.273939945735191   0.585231698082745   0.133702010468894
0.512846672018908   0.403277463540448   0.184450295379270
0.683295153450606   0.861640289222232   0.147015596556896
0.129982574107073   0.457343658977777   0.128113182564110
0.229857153865022   0.694728232355500   0.470136280916484
0.438795400134934   0.731492701599101   0.839212441365461
0.578865813769824   0.640022417572795   0.658944854915909
0.313938624341756   0.804759635072716   0.802657151330193
0.475603249210848   0.909036825852808   0.856734831421592
0.117892669333310   0.237646857492995   0.291230509160944
0.392845383536939   0.418517549122171   0.125235397891488
0.317334647940339   0.661619444005463   0.336560050490589
0.137791154083146   0.457353996337061   0.628015506572634
0.504960664103268   0.031303411125504   0.423817716154172
0.017140806851281   0.423789729990160   0.986210634902389
0.034064533498994   0.009160209702267   0.053166054407913
0.237501516440992   0.556643388934090   0.825943385866631
0.643450245150710   0.675524649574976   0.597180455760713
0.429568223757982   0.683274699265367   0.328443081724933
0.376974129502392   0.362479968198451   0.661461818091195
0.349724884171006   0.266862078962173   0.352983353202208
0.038415397323991   0.306519474074779   0.285137166385937
0.985811527523659   0.727482644969125   0.795752230043722
0.809130963855742   0.632727542135885   0.629097802822423
0.294763200696768   0.904557937903295   0.571180273208286
0.049861581366276   0.461859422988743   0.624241185905959
0.063402747681986   0.078473840175618   0.091633064046338
0.208717931063284   0.549187751883918   0.963012973195197
0.670566521054868   0.976250595489842   0.281513493600224
0.476732120080556   0.058386908916654   0.742722639432035
0.610748171657251   0.280639298537009   0.354498464103286
0.322026938637387   0.295174068970834   0.319904623763845
0.674154643538883   0.234170305705832   0.271145803856767
0.916548623751776   0.550143560340394   0.291693039036124
0.321633462656870   0.143315937526562   0.542029528022143
0.863447860790226   0.301696792588802   0.664744350369427
0.812570564123000   0.348533315976466   0.264987697876688
0.548693482536348   0.945416768488722   0.823971951813889
0.784747264944065   0.283259576113608   0.704625171225686
0.518843862005363   0.258216543427634   0.657716843036630
0.352638195176223   0.310875365574433   0.279595485385745
0.475693720896444   0.479989086142417   0.165250773069211
0.275106302126394   0.312829986593612   0.330853008231693
0.473315130832486   0.940142499619459   0.441745313132066
0.352019963806973   0.059720102984411   0.531098116291061
0.533607232728835   0.213888025840266   0.685931420763679
0.918876032161872   0.159727866639989   0.834433781640782
0.003056751392723   0.386034541501810   0.857600530701022
0.490211399916930   0.012119933224318   0.765142664751340
0.647446235770053   0.158379588651418   0.298351654456037
0.815967449026698   0.303362798110919   0.087156214860113
0.561099839333766   0.389024435590958   0.545136887393585
0.398998137300463   0.269679401027900   0.335886240396994
0.616736710883403   0.226989564654563   0.347523268934583
0.763005862046261   0.613575548738622   0.610829768455534
0.910031960939693   0.362877852037716   0.227907112079212
0.148813580741786   0.611082327843467   0.853435359533933
0.721925620516400   0.360706716696355   0.742541708323578
0.936508993826043   0.253623613616137   0.805482340209135
0.730184237248989   0.448598253892145   0.025525888451636
0.563808262432351   0.294191037976924   0.335051402770747
0.637771579364658   0.404005229424925   0.159829883655732
0.834625064723941   0.369172230455054   0.352142149543440
0.711308078602455   0.327909980334617   0.150957808071060
0.538751855624327   0.566848418021586   0.667040316965840
0.517661191557508   0.596835568537889   0.704463193422260
0.275624124726791   0.359686534989155   0.656237766864802
0.940033625876005   0.569041417692608   0.685073069053796
0.331590473623553   0.605869716238985   0.208540457872742
0.734314748440748   0.469281787752168   0.975348057317015
0.863010309926707   0.090300176111529   0.814242865246057
0.444425577325617   0.210276950822916   0.391790669209139
0.111685646349135   0.301013062178735   0.523441062946254
0.597659467470927   0.537329642143950   0.182634316393949
0.761831198164355   0.591694969960197   0.559703682238926
0.674356797294715   0.766482760204193   0.818117610140882
0.354056951256523   0.316195917607414   0.658824517062088
0.825167713638263   0.346631179164890   0.213789751759922
0.473882483266890   0.581767651650075   0.728324049585586
0.641677749722770   0.675567198446508   0.119829585139837
0.535426445101616   0.687770151087731   0.264680707562257
0.542476172028748   0.898290292503362   0.414196464660979
0.414019755108304   0.360917610741832   0.193762209355724
0.175538749599249   0.482973514300245   0.658815885342849
0.595552487901378   0.877329243433664   0.870762331784204
0.701663896380812   0.533972520577444   0.769047149808616
0.712909414211730   0.490284838307317   0.630316360382225
0.237474917087599   0.273570057386547   0.604775560979904
0.203995363342167   0.637714909023255   0.173643663915513
0.702275114049791   0.587815034527845   0.778752708520771
0.378237545432827   0.639161834117009   0.269480417664247
0.618625004593541   0.585429473445462   0.188589469773317
0.518450278054960   0.819128452814271   0.392919258124811
0.675677729806813   0.924499532518680   0.267524911534303
0.878292341497841   0.575111633440933   0.212862603498280
0.547281589470420   0.680109846223315   0.736465461861481
0.350271853615798   0.836634972997073   0.818616973151425
0.039824142043600   0.490500059483201   0.206386354828958
0.164366945052119   0.649056409773605   0.078256384147864
0.707936951603315   0.991230994678872   0.112630801270969
0.423318885267447   0.654612273876245   0.286019058979102
0.475248971284784   0.706104004615372   0.335145164681404
0.508458210152129   0.647854426952281   0.242328972206963
0.535584728035331   0.615593997606586   0.210858545715645
0.015050585938034   0.674472048334460   0.548475222489773
0.646483539430958   0.638817882685445   0.554506508823929
0.276579558013849   0.681289614755253   0.754756324315518
0.420847216048232   0.124108858062017   0.718031414855609
0.376299616558243   0.191669922866053   0.692368479789897
0.657062732812225   0.775986621170922   0.124698342668049
0.684645385015992   0.871303260075427   0.884870956907843
0.598526564336749   0.854151384177015   0.354543226211622
0.599624961316507   0.752407533949021   0.253396055283633
0.867641502279930   0.367083698350765   0.392680000565090
0.394696926059286   0.905507763353741   0.473159824395803
0.184183964107114   0.530308434416859   0.683733637647258
0.393455819702807   0.759385665747648   0.845703393734873
0.079073341661158   0.668163552921184   0.886389592334556
0.709600404499913   0.720747980209610   0.554683866646284
0.736912299596659   0.080768230668632   0.019805993864288
0.377552904945290   0.271314211963559   0.667509612262706
0.569197768376437   0.982235269984286   0.794074386110312
0.830578407456242   0.650527900048053   0.432280586458820
0.301173343633867   0.949972003268232   0.599675074731343
0.202511310142246   0.713723954872968   0.585030136585565
0.469151549740384   0.338836856305926   0.643176378843251
0.732945856583237   0.031698064226270   0.896110858616867
0.971896918579832   0.514706613041671   0.618600415076645
0.889789115701414   0.918727682596896   0.868914864703979
0.542082542321880   0.013475352719083   0.767204093503423
0.766793492311503   0.064911353609290   0.873127143692842
0.762939688343006   0.331814038853069   0.273179033798249
0.759511863124665   0.801789818865612   0.993660355765489
0.538097831730892   0.317796546105849   0.292082311335176
0.504640214275150   0.172530720975468   0.704058247052609
0.494192866918772   0.892226832313658   0.431127751308079
0.267384784571024   0.771482469812912   0.741055314359587
0.583419581172044   0.139792033477479   0.362567020797740
0.742477928556987   0.682848268676596   0.787078699634685
0.718779343763994   0.477426857459203   0.069094878344430
0.590459874153381   0.924939431975935   0.850534599376112
0.785800460176478   0.239309157304284   0.028687802633640
0.295556998391050   0.173773549613323   0.623261837517629
0.280667152349800   0.268902990960002   0.633688984136298
0.310839175562031   0.084620444538433   0.609369172872762
0.829079713012117   0.216549909413356   0.769022058640270
0.526284886383642   0.401555942008373   0.589408923262423
0.858564810795759   0.917180415600007   0.824973774682929
0.207038850437074   0.634655277221476   0.227268275523338
0.596432789109404   0.314179662368333   0.456912449819880
0.454288566756063   0.346551086316449   0.226390383521738
0.102164269814285   0.054201170106534   0.163566711617984
0.747104135334419   0.506670294581353   0.528318777139411
0.876556784918299   0.571318445458382   0.318767897433511
0.635302072458113   0.484702458634734   0.467514676291014
0.454172919824164   0.167670766244093   0.707802849889871
0.748092172633379   0.082305668832639   0.969573411090596
0.007348193702856   0.475342808200748   0.998385743749868
0.741302156093219   0.399423494262143   0.032397730823675
0.994290444089783   0.437823197220929   0.786068542820248
0.548536341480014   0.341344206095896   0.244056813485065
0.628540807868388   0.897878534563305   0.343784040542949
0.594911772948455   0.510915084426983   0.536795036100421
0.765902571648435   0.367471610687638   0.593808289833922
0.623571163176105   0.031991135793566   0.341679360140342
0.509597128677823   0.354246916173073   0.611189300592135
0.741319333072099   0.195909625804312   0.759071074727695
0.738985026165414   0.324950363579896   0.824322223184010
0.772823357933882   0.189472218029126   0.016700703127725
0.447013820800146   0.317437268255677   0.270767433058064
0.728223364348391   0.847860826731280   0.905616521749016
0.624435431285850   0.353645414104951   0.437311814233949
0.603990875734030   0.444481655739539   0.169900166191421
0.740792044537666   0.598531906970270   0.223891374248028
0.589719885439509   0.571467352632153   0.594048451881688
0.751457856176939   0.654000612379415   0.742899010878539
0.232357730117603   0.534523732052301   0.707008620054649
0.230352923202364   0.549423016073890   0.871435367665809
0.670612948368938   0.324973423395895   0.184707683271568
0.990092464244728   0.473828832907402   0.878350941811470
0.286191386186884   0.817301353703850   0.761491618733001
0.070075500379978   0.438629321320475   0.386270813170465
0.586193360109587   0.625006956952307   0.200725739606391
0.545451773951097   0.642283529002234   0.701664186308358
0.384635523915563   0.037740564891194   0.731388429025136
0.052281554705764   0.654701696720654   0.289007869000860
0.561631264279949   0.334569667065861   0.542804078728594
0.939057762997329   0.850719850694651   0.915090710186085
0.573201877600068   0.592699035458907   0.637403258707771
0.343231144109115   0.690283098449479   0.374430852504117
0.549842960402180   0.800454068573768   0.877423942064531
0.501634537971008   0.870745828566332   0.883113324473520
0.289807565404670   0.799602467440903   0.523836715049867
0.158976652515196   0.622939593007753   0.990188897151146
0.621922996410765   0.552641422438348   0.518179942598729
0.731015007610217   0.581396879649704   0.642183976794131
0.327754639158851   0.901464479598812   0.754254999719793
0.424565228933475   0.842828154426169   0.864007864453481
0.241564066212516   0.675383173709366   0.715484934848255
0.713986877505833   0.034304084410867   0.086363660747186
0.714486871106668   0.618846434836715   0.183379099393869
0.578881793455290   0.705584182068915   0.240682767488680
0.471458928086415   0.742670107688105   0.371761186436144
0.396727985549542   0.856190412618626   0.460421677323884
0.052531809313735   0.738334073968814   0.985224240440528
0.972271674693396   0.764906584094904   0.876303188323071
0.355858537568205   0.885949858031691   0.796070844332286
0.994513245578210   0.387578854480462   0.807429382862061
0.299685260791387   0.626264901631326   0.249307401199588
0.672628735041777   0.964425468220997   0.871310254263999
0.740206531570087   0.112089724601363   0.060633502864468
0.513578431837006   0.774301608451134   0.368272919605083
0.651830127610018   0.824039346359304   0.231543709366311
0.799029737104683   0.616281329280797   0.161269161609168
0.315692955857880   0.969970439061744   0.688731533362969
0.962980304723810   0.921354829698598   0.977118255807462
0.380023284021975   0.984287574435736   0.750308595549936
0.687353523157278   0.039456651928042   0.816845501677804
0.640892427460807   0.037451947623033   0.792327633587735
0.723246016296669   0.203296193771750   0.188404270076838
0.711102292562417   0.950791327054569   0.993712760239475
0.586110576587178   0.151231072038669   0.720012225062196
0.321820523340573   0.746335036795820   0.451586303109650
0.618295148338491   0.712845315798790   0.683099435196797
0.589810810085253   0.973305471531308   0.390781468993168
0.283729344038958   0.730494630496237   0.770258102968932
0.818805211299566   0.776930110486228   0.610127137576225
0.952243742288080   0.558769250964729   0.838492063165180
0.233047576397357   0.743425012049263   0.555593122794425
0.754721203315193   0.370488177131672   0.990561609502421
0.630922124098562   0.958319116862383   0.842441742847297
0.794200684435982   0.255400544843519   0.079281756461184
0.373267806060749   0.140900561236457   0.704455023252475
0.534652780670254   0.216202157182517   0.379863989355710
0.337245512053894   0.108704348707525   0.687884039231793
0.415157104496792   0.141396150650542   0.439351412441255
0.546370257591004   0.056491038166886   0.397518933437523
0.617091452470407   0.993926752226582   0.806581661678331
0.746923201834608   0.796983416050509   0.682981918750127
0.761748048791226   0.279121574490457   0.752113417693840
0.674871652250134   0.285462029550417   0.273323335001990
0.689253781847090   0.309743329672472   0.230118573437057
0.528030516136137   0.264740990667235   0.360548447656970
0.667920285469646   0.230930839115080   0.715055742243535
0.482280210437242   0.276906730624218   0.343517967332121
0.319413818885411   0.020498181618379   0.674144694615901
0.020292101210587   0.368593477532587   0.109317117010058
0.563680408994723   0.058017632893413   0.751321361607663
0.709474080315509   0.413504925382809   0.750776900748778
0.836252671578888   0.649942066899748   0.764571530800575
0.769870155175593   0.230319235383904   0.118536355950377
0.348866555533103   0.393229445359677   0.116038634920749
0.590832014061273   0.416958935850162   0.508521573596154
0.266311196210537   0.212815481037634   0.538468621867893
0.709820929018223   0.562371464394535   0.402824146646675
0.813299895417740   0.088510467662352   0.802378877952848
0.971631917697738   0.512756968174819   0.914555792978830
0.936615884987232   0.128265765605617   0.873952963610508
0.625488831543304   0.232151506864882   0.696847530641465
0.751037952545835   0.245420858491998   0.166470288344131
0.577541028686578   0.310218866447107   0.499537520902705
0.850125236065650   0.360765301281274   0.300630359847274
0.729146867820617   0.468879998993512   0.408726180522620
0.707175065899130   0.528560493843429   0.714558471094231
0.650954965610799   0.439872557850360   0.443790152158988
0.728129381415946   0.351597507019356   0.690879889743823
0.695475930836315   0.601438607511762   0.869830277326299
0.946186606727593   0.574218883556448   0.736792674369728
0.161228244643204   0.322357349312367   0.595662717377699
0.624824584985786   0.493342087699102   0.168840885626300
0.788800845187384   0.578196373799594   0.325608460859551
0.696592427631203   0.383724497837046   0.389293020389669
0.737090735243697   0.566873321652770   0.311687602615124
0.573748282482998   0.520953074035226   0.583350725617313
0.075826619313754   0.438861784849663   0.437764601693460
0.692795763918029   0.619499836339719   0.821286716640597
0.687760626945452   0.628278664874962   0.034511191311338
0.700995816803156   0.938233792737569   0.178038393031643
0.860517856334977   0.249055383268782   0.743042035376933
0.674140456628617   0.825231378243039   0.112595824755510
0.731232193391789   0.338602877051712   0.316947998999997
0.546203117985548   0.532771152585408   0.181698985307133
0.838709499973151   0.612582573046271   0.393915605677335
0.524742452366097   0.722901676705510   0.813791417768835
0.794504308915405   0.592451317615761   0.375895508977656
0.782673194281792   0.726552436410014   0.859342556063861
0.015454870538489   0.843493914654587   0.025653034346024
0.549687718802060   0.275447994693230   0.619527202659722
0.397370908870731   0.915174918958353   0.810679815120147
0.999651382977478   0.521540502290532   0.076458761058803
0.330865861244925   0.644967845089403   0.287635988434344
0.713326055136410   0.549966305610367   0.881942075732836
0.873752566666726   0.628982808826263   0.691527313352860
0.955101845872479   0.742020322350707   0.659128819595380
0.783632969900625   0.692924126327546   0.818575519310472
0.724668388356678   0.450251485012889   0.595886758694104
0.387965431658188   0.812357656408152   0.846876064345652
0.859030106849161   0.865452440073240   0.809036918669246
0.986350617190833   0.792278198118798   0.955420741493579
0.757411399101596   0.160823118350656   0.060520596701303
0.675846832852267   0.859808332459692   0.200660156034384
0.958931420250332   0.801393994679406   0.912609893033023
0.716079591535880   0.599478910493479   0.001783998528817
0.461155664284980   0.059699835481126   0.440069672725085
0.698056229733375   0.009981761451525   0.861900515252817
0.382401909803851   0.123983066046449   0.476354744165429
0.923217733344641   0.075856200720798   0.877413672589161
0.768112827426600   0.771137219743396   0.600264238888230
0.916905722671174   0.797240535914047   0.811054381113587
0.631287635185875   0.776602231664505   0.217637376902105
0.012376743320590   0.230505593810414   0.995094951969697
0.010375225973245   0.733661471049117   0.898229366892253
0.643126623300932   0.840022021368194   0.281009728747865
0.519058311113933   0.713007946309081   0.307058705638663
0.696805867678506   0.616238786905058   0.469940892888008
0.776609681778009   0.200880243581774   0.873615619347294
0.292343559674185   0.862517904782526   0.736165536603664
0.695780100132689   0.674099970858048   0.812879876206458
0.729252951983888   0.161440628022941   0.151696138684046
0.688031315077372   0.923730180828437   0.901690846360722
0.287980949113810   0.757815483396754   0.490863376335119
0.755809096951182   0.300042567366043   0.179688160613943
0.676162822178791   0.151282410169914   0.253005138528539
0.655461037039742   0.888074001138816   0.298707608839929
0.385505052349390   0.074559795617036   0.492657783838905
0.426652005815497   0.945970056519594   0.459993024434252
0.612603085460447   0.072672563463139   0.760610714376774
0.413649930944718   0.960169550259970   0.785149839796976
0.669664176195658   0.676761243495920   0.027834297639693
0.703757745490539   0.561878394974289   0.095136169692371
0.913930462261164   0.360710416634108   0.484824973206143
0.892618290452088   0.614415704435138   0.861438072476486
0.699412788272358   0.027259069963547   0.201229068220072
0.647453673452730   0.208945751829539   0.309647372382839
0.705367603049601   0.988914020768719   0.166575285261840
0.756714787429288   0.772828571639403   0.858414443387188
0.798496253461206   0.817393607284707   0.748484611659311
0.625902957469687   0.122954851433305   0.742152763575751
0.861575437845877   0.364651840557867   0.487128030542164
0.717182029157211   0.003002752845366   0.991562799602048
0.641215832482281   0.848783946132650   0.869555700066766
0.041762104856644   0.282742298550917   0.146181086854092
0.917166902062206   0.696491709389939   0.521531714739529
0.586705575090913   0.025273027931435   0.380241976026158
0.458828781926182   0.111539945822387   0.427254707446325
0.967695247764057   0.294543959165781   0.819923448438021
0.310883963006846   0.034454960711017   0.623920985971688
0.997237211512251   0.450096630431954   0.731915920497211
0.875661563893875   0.001386117877083   0.843620342879701
0.487430844560985   0.307747721644535   0.301171998554573
0.707700071022434   0.545427086801735   0.349227885714111
0.950775940168367   0.642870836465742   0.407261103443530
0.786578549118014   0.380811690294210   0.376166330564609
0.739755797496100   0.370281644502759   0.358576209987071
0.732301606386333   0.367598118099920   0.855091856805058
0.716933601778642   0.395913968543192   0.665804354524984
0.738115593674548   0.321588712677025   0.773046483278854
0.710000389031272   0.440477882065718   0.795846092080834
0.966149646958151   0.524746667615625   0.669557172198107
0.780990475916224   0.277250507290383   0.991212580342349
0.028662747533097   0.248231759699202   0.043861303381224
0.689644800002255   0.548010673307484   0.143015621756246
0.780155945254117   0.661484007374204   0.452702359468755
0.721993380459192   0.577516834863123   0.265502681358538
0.035295487215251   0.416597583545701   0.651373214275453
0.786939609130266   0.377585674684136   0.545907209711483
0.753419915660162   0.148839102164237   0.773760984167932
0.836182523223159   0.274236089919666   0.701769944410450
0.733301478853168   0.438398035175566   0.931905909700956
0.551079535848773   0.853079804612599   0.882974305033298
0.667161605254141   0.595484671379578   0.167001714153091
0.692418774982951   0.429890646496602   0.412771006391541
0.947765526477714   0.668946185129682   0.490908958065954
0.871268927263799   0.703571754395231   0.500361308513899
0.719661362379366   0.538720230647686   0.611881874159937
0.603358910088049   0.740058077009794   0.769773557929193
0.825021996784545   0.663423015815383   0.997152721825700
0.975397769494347   0.524575192202161   0.805935250500356
0.713256845087420   0.503241233368594   0.857586840548645
0.731266960275412   0.402154885053024   0.616031259591237
0.656890589517968   0.350029109081881   0.394685481334470
0.026825263559323   0.650237308796067   0.459196014135782
0.678821673804860   0.571629985580312   0.447975765500317
0.067195666988830   0.454401288842595   0.285198554324513
0.787784500460873   0.331197082334098   0.625727944642906
0.027649597951213   0.386689854955255   0.023942752530822
0.639416588521448   0.793473418465685   0.859228445405506
0.429370045111389   0.687603972793005   0.811841200102321
0.676730939504037   0.681761922395436   0.930749705983629
0.240065379303415   0.583074871709280   0.736928049802560
0.744066128872891   0.386603815873960   0.942134359279330
0.714979442210622   0.510184870555124   0.382668415953533
0.694379986333155   0.632468193769252   0.916285952054073
0.773725377108297   0.782907686335948   0.946373702188241
0.955681577366953   0.510413246617231   0.478369504312155
0.544500568368350   0.110074209704609   0.388051742685737
0.666743302042372   0.757658454166445   0.989693360534471
0.731524394061528   0.550003072847457   0.014221068360145
0.849009051566422   0.615915889335876   0.076160266232079
0.990903741429832   0.488663473798878   0.395076558887439
0.716706406751434   0.601411799222369   0.950363477118157
0.154091789102530   0.575679154188331   0.684810220361457
0.644901417763505   0.985230239130606   0.327044781918738
0.849460064131501   0.624617837387590   0.594988222404268
0.997173436745253   0.662975636991332   0.500651422123629
0.913468029929613   0.762275335333183   0.637095531775299
0.509164640136127   0.978279371117275   0.430090169522810
0.801166831056235   0.589611289342295   0.524929321718929
0.656125382223453   0.627036326262620   0.121328215003206
0.736758226255464   0.520832355619986   0.971084036400964
0.682020561869284   0.607207632175967   0.081366506860558
0.739617372944840   0.312132701220003   0.231486681581214
0.427949498924375   0.073091637550134   0.732463169263689
0.753977860228796   0.747176631407334   0.557345544186516
0.612677858883466   0.676288219322003   0.643801205139868
0.843937523002195   0.830329484374095   0.771700843287714
0.796186244188155   0.806264789436446   0.695336138563454
0.898666857295035   0.969618572223417   0.880452588643063
0.707327921728026   0.922265552813971   0.041127641248038
0.993271991979246   0.095655486080479   0.970904132612261
0.666288949534109   0.065606596090279   0.271482466962318
0.852121308509468   0.646848007659124   0.859189102036657
0.624757496375312   0.947620502171148   0.358200794593748
0.681586028565599   0.646532933936513   0.511832446499781
0.879949535399191   0.142023766009069   0.807013582635876
0.661819577822638   0.749754702281629   0.079520759424271
0.887841613451046   0.054438643478482   0.842740871560087
0.470166067796903   0.828539965712056   0.883982552372975
0.699072969396410   0.910093745833283   0.133869623270058
0.804476448655625   0.320764812256824   0.173334101579522
0.702189755640003   0.080627768105968   0.193335332314841
0.784497396592389   0.334589387670978   0.060789171212403
0.749640594310947   0.670368402053839   0.110727263004115
0.693652908930441   0.194246125853342   0.739617342144447
0.710217100985620   0.868513774633466   0.035347816213406
0.674442432019410   0.141404300631396   0.749056664986813
0.763528037396877   0.317991282979586   0.671305227481243
0.771886166602489   0.722290395815959   0.036131651806019
0.771555458875611   0.264527276385259   0.940938220367643
0.718129728143724   0.108810930002698   0.150920223056747
0.724008547273619   0.085319481084597   0.103619272985136
0.636232097844785   0.073726481974187   0.314261569753599
0.954165430354111   0.524770362989527   0.317644514721246
0.992995295826656   0.331919080479160   0.271870030039519
0.005019814824120   0.411095969284391   0.694189582718602
0.004397955058263   0.426277375084553   0.892338637255777
0.541239661008843   0.315631527358969   0.589937181502140
0.705921031413537   0.434661099428743   0.700898609761064
0.096393863397076   0.464410400912362   0.597260597868063
0.682663777341860   0.102985192516044   0.237626560080001
0.657568260650114   0.787081619655299   0.949597379466640
0.500099127645571   0.785629413961367   0.875447367690843
0.720945521340547   0.576747528842049   0.693588462941967
0.940275806817239   0.363115842478171   0.439493283066012
0.188564179462033   0.349208537013129   0.436546483350075
0.917052548206492   0.604641729303404   0.768261570303498
0.766741867661950   0.124259253056249   0.944026138829389
0.723228042025479   0.454475634274668   0.881713046704581
0.722512889751418   0.528794918519425   0.060624165793440
0.202300251026346   0.565674538524744   0.912898227444048
0.552397437798316   0.440427897751477   0.178307642744929
0.882987250956979   0.579476765876298   0.527526363724623
0.029666468708001   0.466387755849596   0.365833680241336
0.774437474587891   0.516102145231441   0.481419013670480
0.975811999982301   0.367038326772628   0.698924108637751
0.029657377255938   0.475569460430779   0.313801198738772
0.715218021206675   0.114713082011624   0.770876300075396
0.745204674422372   0.352129288966002   0.903785651838300
0.588337447131814   0.712531658749161   0.728261100195428
0.902973038646120   0.358838915531692   0.279796675909746
0.837817850147068   0.321077789449246   0.131246092420049
0.752952760028849   0.182222679508105   0.108266079941530
0.095137741569046   0.455772976559758   0.542735646577573
0.693367557413807   0.461078256279101   0.114421741198368
0.849707593599910   0.643208597251089   0.953928198499755
0.843442403656470   0.611207656364686   0.543649093892537
0.909238850801051   0.590620443884931   0.906581848711569
0.728974420671041   0.553603447230013   0.930977160532696
0.879772109977488   0.631033691645682   0.743795559527980
0.671853204398467   0.499524854058927   0.146074833702988
0.638560321950795   0.753443421003722   0.169314271591317
0.654287255319127   0.699886643617728   0.074400154086088
0.627342802067884   0.701649844747289   0.164339921969930
0.159492896923681   0.659079470515850   0.423191561041787
0.773585508044134   0.424377103203287   0.466495660704782
0.620541375524661   0.592244502544094   0.554350534885589
0.721170644323747   0.611671629622503   0.734704948465239
0.832954871936576   0.582719231286456   0.239761225936261
0.048514546444662   0.467805916244875   0.519206465807947
0.870858104251102   0.360625411696359   0.196653450056040
0.670949843081858   0.703784288542925   0.982028903787523
0.793417300919671   0.389641178907377   0.430241472134007
0.763218566243592   0.473936846318801   0.447985070932873
0.741068882624424   0.457357747573702   0.545533764092122
0.734673502894238   0.874961613386225   0.950030945624662
0.825997178293784   0.661559735792892   0.814640947928654
0.989160399467889   0.711369639197721   0.632644460498342
0.964015519486199   0.542944804933791   0.158370906473791
0.747618221646607   0.805028193054970   0.769429480254981
0.724593028745276   0.070704055556813   0.798693364612320
0.192010434254725   0.584039222474390   0.001065091000041
0.057551738846486   0.232427644781539   0.132305277325324
0.063091005269424   0.652919868559911   0.651504517651000
0.677070569169687   0.716354436682625   0.595398629201743
0.687003650098949   0.748511122951508   0.636853419308869
0.869759661904143   0.551826711587736   0.484471061550806
0.833114824761842   0.792960940577804   0.659577914659252
0.986091653981191   0.834822823503765   0.985288548423840
0.964563496040848   0.159877755288849   0.906931189538435
0.995472840683796   0.931085644126227   0.018271785275088
0.977651887265736   0.005657435022294   0.981222923052068
0.727925320158201   0.785795087080872   0.814975031568300
0.901164431770274   0.748123781248940   0.589937285722985
0.499773562399242   0.135901816523240   0.403630767595889
0.588197724745174   0.776404637891909   0.850698386155626
0.732002469433347   0.775508960491221   0.638538733643535
0.214365325922252   0.581887446289026   0.047826934808046
0.768720271798615   0.237675469494703   0.836596620996867
0.018518610025965   0.892988094237841   0.043766574077798
0.109789277816351   0.104161531254299   0.179141949217086
0.987473437301726   0.146304815374832   0.951442788185182
0.092900027662557   0.245942696202284   0.245122579564461
0.082011898836389   0.195605256663486   0.164415268429558
0.870763231014537   0.672310246724309   0.455682941627046
0.186879488820531   0.640143308963986   0.331171213081224
0.339208201693783   0.951968068660578   0.733063648826565
0.704324455250747   0.941027340678979   0.091070677202176
0.496750536067393   0.943443172054437   0.824502555022610
0.018757018205464   0.751788788805754   0.949179323603604
0.772522711188838   0.174597353317715   0.963823137653129
0.687864537801756   0.908269129958342   0.219199719945536
0.159495678769627   0.649147890730355   0.248277941195855
0.057766713564207   0.283228136385680   0.240406661532686
0.102274421084776   0.205997817364231   0.211405854781327
0.765467094119489   0.416946971297806   0.517914994600805
0.621440811408224   0.123215805678240   0.327034805378385
0.021994710085883   0.334347418428675   0.017132689409408
0.986967821958438   0.294672209274911   0.868805068044158
0.755243597490463   0.284200976044400   0.853795409052585
0.045285167732079   0.322857240420645   0.373781489642936
0.751990699538486   0.638863559760932   0.149552571623220
0.950350624460594   0.348135411864855   0.302374975098102
0.419313613906858   0.040302248167500   0.469497995242218
0.917850062821418   0.362648563761804   0.392185346103421
0.840871413100323   0.372267541465716   0.439989493396005
0.120629420622929   0.417872697844580   0.461590588539910
0.909813207222398   0.314555247692214   0.681165215429935
0.795727775136062   0.140867551737809   0.803667081092076
0.011845853451446   0.315764108654088   0.969335426514048
0.165272064779654   0.683056113327912   0.562926246587591
0.693646148934745   0.198834886647603   0.233595798814063
0.831550225665086   0.577995753077332   0.293697214439425
0.955551097978038   0.352583490821732   0.353836945741665
0.580154129665498   0.193000136381426   0.366950090951312
0.073942634759995   0.332839369131999   0.540832090072071
0.985487787650334   0.254760338517676   0.904948287470609
0.046729703049519   0.658730296438033   0.735711297496675
0.921212478605845   0.596621453976071   0.820211399465225
0.886141999687907   0.588325817171901   0.370647405813625
