Generated using phonoLAMMPS
1.0
       13.8314209414         0.0000000000         0.0000000000
       -0.4341392726        14.2066786111         0.0000000000
       -0.1911117284        -0.0147313232        14.4194839138
C 
216
Direct
0.124279741353562   0.329185639686491   0.495382276002522
0.191240581803039   0.727241933232833   0.440559063554299
0.553523693338739   0.013470195376153   0.937358603178887
0.871778420467618   0.095419881085958   0.038548044182638
0.428184315802130   0.197981594392775   0.781986946787227
0.985995346565315   0.755183149259866   0.936602494287253
0.839677651788479   0.059496683452915   0.758160220251530
0.054072796356526   0.671225571663437   0.151516747274781
0.501865483355948   0.255364323496877   0.083520172927092
0.383091684210145   0.464812037223313   0.998177638398358
0.561146262982433   0.006815887329121   0.616193990930321
0.425633407846271   0.790265118382532   0.884941172394375
0.895641328255493   0.629612356730504   0.284490509821508
0.688372168379546   0.437259163867735   0.277973049102262
0.603345026161760   0.401909009320322   0.291391089661593
0.163372085966238   0.385987730698445   0.736823007225095
0.522189220668249   0.358360820613871   0.305690480765506
0.726903189574294   0.945220856001340   0.559068429091616
0.044698341507009   0.462114679789135   0.844067913439805
0.132880780888090   0.973618594205222   0.148435930356119
0.124947657110255   0.938506490291162   0.242746829284930
0.958637149377997   0.859580235183409   0.279000171854264
0.224521070220529   0.297973584469108   0.521329214342107
0.553681732452376   0.359622153005779   0.954730202710287
0.469685278199881   0.567922940931477   0.888049057549481
0.055451437490251   0.631394942574714   0.376268700213847
0.360165913738794   0.480578414899940   0.091117946235411
0.663664881242553   0.475354018490740   0.753110025637400
0.020374448779945   0.694942719571039   0.997638153070970
0.233691614164598   0.752772702231832   0.522536075843117
0.919929138462128   0.756824032687646   0.867701928501457
0.315473164758856   0.042430573562883   0.142390053088864
0.478706743225757   0.118522823909539   0.748913537027840
0.298244329058431   0.758365567220742   0.208330452598587
0.638200946590855   0.417909138444585   0.825777043837490
0.931817922771651   0.767705736520850   0.319480238511947
0.035674301358624   0.178228244813106   0.553301517425630
0.881674663537582   0.698572297092718   0.624878111024257
0.602235722448725   0.863226238155938   0.525046803010360
0.425889189099656   0.190138620403543   0.132233310248724
0.307300516279217   0.845941028549612   0.254737235532031
0.309412612895152   0.160385435029705   0.008987608694925
0.366227501975002   0.564744731925805   0.147206313533077
0.310100542735277   0.400873434762809   0.130777213752794
0.861637491437300   0.505434682999607   0.258743917764583
0.380202774710262   0.357448081618179   0.987106555622142
0.030694689316844   0.467867665914349   0.440590575777809
0.384813421546399   0.543312628147001   0.940965264853527
0.303039210365102   0.330070832868959   0.057779023367310
0.183696998432689   0.791663852536786   0.364958459086290
0.061650945668012   0.270404879022315   0.837283995195243
0.973048656551824   0.416219225254990   0.598095964568210
0.047914665872152   0.276413364867018   0.537473679108783
0.711174732579067   0.741961376384587   0.810681836456892
0.771022478702650   0.472601335009782   0.259919466078332
0.434534957708025   0.166360274449981   0.231117240389622
0.265529062783204   0.310715636447287   0.356951400672119
0.802915483939113   0.655054100584373   0.411786490799254
0.966999868107927   0.613364686196940   0.131334312054510
0.393127675571632   0.230509304221031   0.297092927570044
0.150821818761279   0.236264266931309   0.050934160500509
0.440829667274540   0.682799715136550   0.644248895143145
0.011340719122380   0.538602481010390   0.372380456339436
0.964174341757451   0.605922026600047   0.028459445736977
0.248230129751189   0.245322264852173   0.037884777518091
0.035891114616987   0.966484556425342   0.104781879090278
0.214769558602189   0.714823738757581   0.167745970969537
0.116384062823557   0.414948380178347   0.441319988845772
0.104258511618731   0.772502716911562   0.299126243060062
0.560616873526631   0.809185036944789   0.602536287147212
0.762534583265664   0.265825964590132   0.712103405460508
0.908064936419445   0.546580654414485   0.350567443343944
0.221243978228372   0.051154603337894   0.330333265633828
0.592921697883405   0.146010006695649   0.167490665715756
0.949584430883292   0.592095351127325   0.785488882106263
0.032943227666005   0.114429644584595   0.634369640042783
0.420550285658961   0.051607763858639   0.691340882211429
0.633207465025384   0.909926462320079   0.740402594421735
0.385914360216226   0.632841387574388   0.450604808663204
0.378845690284892   0.962285684481858   0.833614966517360
0.264671158525733   0.220733673642000   0.681393649643505
0.984495743231375   0.237941596273617   0.883210306009059
0.950526568880817   0.945617201764087   0.944801386890258
0.904621547017643   0.601615060425987   0.610456436764405
0.759498726255722   0.829095093625641   0.824897601821686
0.919140727067482   0.953267443276089   0.256643411936423
0.060766223238963   0.227686430674155   0.039810048849988
0.006884910770873   0.950702173837363   0.013416213794923
0.807781557282146   0.948626599319128   0.620407165296559
0.246641141328688   0.298872262464530   0.617314445039261
0.977599212154374   0.534676024809944   0.862933720401152
0.459311330819791   0.017146341194273   0.606171325010796
0.286823760393967   0.336411673310519   0.452930375250779
0.372518581775903   0.969247137907603   0.734773301411996
0.398540064852049   0.816901310327597   0.428975233578238
0.897750579129488   0.179945328335013   0.864325427630063
0.196702221051461   0.691360253895719   0.067536471195616
0.707095626752670   0.995473546898786   0.860231390676112
0.381521255440615   0.901037454770495   0.488193517332678
0.355006970128493   0.126330011359070   0.091516579781130
0.131655095892926   0.331426242304351   0.880230344988479
0.001784971443598   0.468340724946092   0.679820112744707
0.630929190221437   0.843013785776715   0.150143963746720
0.393159275112286   0.740654209304921   0.175042901333272
0.332574449260421   0.231394898470297   0.758366011250551
0.335690885173868   0.887486574415460   0.404209065653308
0.501706375087333   0.846153306411876   0.021055808017472
0.488632587773069   0.923700694108413   0.956709309602781
0.848561785659786   0.225633197043487   0.693616876983238
0.338220228316331   0.802598975492597   0.666002523211608
0.320194036796688   0.113161019623395   0.927393073146118
0.388116458561994   0.897267697453050   0.219328962735848
0.208853487055519   0.343066555653747   0.814440646434004
0.305336430033921   0.494496959908879   0.534864620405649
0.458523972107935   0.028178493417672   0.963967156043446
0.738747887768688   0.690072673804308   0.474795437265811
0.900036782024951   0.243333825479381   0.608219212450910
0.087115983248407   0.413131858218402   0.914756504383375
0.059236424030255   0.862774378304233   0.266622787818405
0.879960177057188   0.934527205043590   0.877582767569743
0.298176343675916   0.585131926822239   0.310154722369770
0.109085853020466   0.114967476321273   0.695858524478616
0.891543063323202   0.083511384409123   0.380981979163793
0.387864338875893   0.998334946609341   0.208265928791385
0.021133444266959   0.719291348208651   0.339943104711867
0.808189760044526   0.003248218216037   0.838869461092404
0.404341123832159   0.657034351279822   0.121990065699684
0.251575105652430   0.874866938351383   0.342930541034659
0.456827775236336   0.633997976372932   0.822631494366292
0.071674771101637   0.436894128052198   0.748827119233178
0.681637526998337   0.631552607614067   0.529581237834163
0.449540391278344   0.767229048090771   0.982580256318355
0.898866331415783   0.734035844257927   0.714730663150622
0.368924650747297   0.642173900622762   0.355830804394430
0.623798874273206   0.963428884651767   0.555709000953301
0.707281799497639   0.856774752485116   0.514050948307942
0.423044710929862   0.723539116519478   0.809648311256608
0.848868964871256   0.703008788687721   0.331573857884351
0.221550452243110   0.012253924381324   0.119768970257471
0.564428742821630   0.071316007818960   0.210973099188978
0.425061767935692   0.888929841512331   0.882124844137222
0.354265582817508   0.902694927206363   0.661129659493320
0.617008337424112   0.823819621260626   0.689699942761623
0.202716436290074   0.959258970645303   0.307453764399788
0.125812187707599   0.706990676736620   0.215997259584252
0.701664056638719   0.908052348391781   0.813285778472047
0.209283703919713   0.559421665553053   0.362875793702458
0.765996482370362   0.781552254146143   0.512655403216294
0.373874213053623   0.037302940407206   0.906224541607491
0.616072827968287   0.042951955000188   0.867091858123585
0.659027890508698   0.749103025720007   0.729040620513418
0.463909874953524   0.065638507417489   0.233109636245933
0.484909699870045   0.334975379596153   0.024369199487348
0.399631638137129   0.722868676425266   0.410103282846383
0.245299458022889   0.136395413992844   0.337578678897198
0.282132076264913   0.433477656060252   0.223018984536772
0.891269951860273   0.051016347000163   0.111375042241493
0.553842269074059   0.288710272414168   0.881358838913593
0.526465912130800   0.711840069429097   0.593550814381713
0.337707332688738   0.628210552824067   0.972536131239690
0.640904429862120   0.602795105634037   0.898086608190353
0.659185131437165   0.578473331025432   0.608072937451568
0.592658888500151   0.642479532725537   0.573992948671269
0.349594736284767   0.585293198461727   0.526777785211194
0.894494173459242   0.018660450299882   0.319590581573426
0.962030603655042   0.470134690343813   0.515737082163033
0.457392957075045   0.259656354494310   0.856430034099990
0.403788456779051   0.744734888542466   0.715754576356411
0.204282907645605   0.457999801807861   0.384251173836904
0.354886837044000   0.655894095393712   0.596086044506351
0.266493917601966   0.469274330592514   0.619109026603670
0.837185373663320   0.780623456674001   0.582185669070017
0.449377808575930   0.824941335566887   0.179748103711221
0.251284024406764   0.658170228166291   0.998993284788361
0.866375570034852   0.841693974932733   0.831377507798805
0.225398506399292   0.390274952451642   0.656669418725726
0.866060221128213   0.154431388676577   0.775361876114027
0.695969015298026   0.665057732169623   0.868026489354535
0.390193594601343   0.944505118317396   0.573924172284685
0.154691274204172   0.633006280773229   0.405270434429853
0.375290777759917   0.307124791730704   0.893527311866503
0.094231290879182   0.694359570198817   0.064435104928464
0.952951846128050   0.555387394605786   0.691289552357709
0.881786568164445   0.828592784207170   0.727394583793803
0.946270746403685   0.988815907734525   0.163319119052950
0.845562438628335   0.860053660568054   0.642070224242868
0.898406425291067   0.154143368303412   0.966869257134591
0.567109135299490   0.538444301416328   0.916496774711357
0.685734891680870   0.273673154592788   0.755288688909109
0.858109237325668   0.573947894938766   0.433972076074871
0.591200776651317   0.998134642861065   0.712962548552873
0.299111396026193   0.297561052694865   0.825463717783172
0.934474133065854   0.079919360160141   0.618599190048912
0.288512639731937   0.436954183093320   0.454227830840163
0.566695853805249   0.069851169616228   0.775819333540342
0.983446101560912   0.213287195376969   0.981759505723482
0.245279722300892   0.394493764284375   0.306344054087293
0.967230917614288   0.316502115076426   0.583809648828237
0.537460055057554   0.841367526969998   0.120813959113527
0.921499940494456   0.158368698522924   0.543027388969602
0.954773418038990   0.548560043743380   0.956005116577517
0.294220340653699   0.221283506193582   0.327675549849470
0.901366033400250   0.584772189664803   0.198985470433793
0.891512143385826   0.140007076432653   0.452108616991549
0.416252728455171   0.682214055481349   0.026401579368292
0.439852981750894   0.316712223683558   0.310753081510192
0.317463981605048   0.532941629336238   0.229881349416926
0.900177788472049   0.549473027593503   0.522200781596186
0.184638014449257   0.166345676706237   0.699052432129910
0.592308327368854   0.442518605533488   0.911970232680436
0.670587714809191   0.516813453067862   0.677391262987713
0.591423292211037   0.218642485267092   0.114082007361281
0.857402311237988   0.029119873652043   0.663825308674134
0.626808999935845   0.317366445781227   0.815410604865499
0.917785351307743   0.684784417714002   0.795694330573053
0.295237934172737   0.740224467292294   0.594088309346604
