Generated using phonoLAMMPS
1.0
       23.7225627997         0.0000000000         0.0000000000
        0.1362293466        23.9995775481         0.0000000000
        0.1494897035        -0.2661157005        23.9082134745
C 
991
Direct
0.535763262080671   0.959500085665989   0.786645481481059
0.066415720886383   0.999561026491030   0.334451026988215
0.792921826863297   0.467306512153812   0.221330335101948
0.739642886960036   0.517902003934593   0.143678879798518
0.777645168575925   0.508664500271598   0.098738707202771
0.766330528943835   0.167463010318883   0.902749300905319
0.917372889446261   0.189130176501747   0.543701921260842
0.911741471311043   0.948163161363129   0.134216881299915
0.619121856422903   0.136234030439734   0.615320020280506
0.228462931154274   0.002361062525486   0.398181419124169
0.738412399206518   0.216794436971345   0.919779222460698
0.127734866049497   0.113039016918078   0.982842320069732
0.853713325399943   0.354590713525278   0.875014539347027
0.142774577223020   0.097539630282724   0.262089124588220
0.932975368582754   0.318099416846949   0.976814115571988
0.306014282806581   0.297806902975599   0.141492411953242
0.952079312165760   0.356915604929726   0.441672206552056
0.729540694600517   0.034981391439531   0.564266724253102
0.801490802390736   0.924374491196544   0.397336890526433
0.653944588301042   0.104781066473129   0.577798191183706
0.203927210230987   0.191964821507158   0.737358787548164
0.349468328223579   0.997246820937426   0.745008330254275
0.190364297188338   0.960611429903197   0.055478521279505
0.782021772662442   0.269214842261366   0.613737421896885
0.796507768382768   0.364610254389153   0.488937536569510
0.591037526370943   0.578487971908709   0.165368080062397
0.966891135886323   0.198351297722299   0.571030236724349
0.687766901437246   0.235445433081564   0.492959112673578
0.208642683767058   0.138831131538809   0.549405379620265
0.609114933261030   0.417509744362237   0.314518409667883
0.036136351726208   0.232923371294483   0.893108455082780
0.960542768653350   0.632589389843906   0.332217593693128
0.872212228856975   0.385938936598740   0.030600215310119
0.047524284043645   0.181528015377086   0.104221855918162
0.075159208912502   0.385128109682420   0.285873641177321
0.296328018219539   0.215472206556565   0.384609703682274
0.005746853090895   0.538912724397347   0.354778844895578
0.989792940068081   0.435659642637187   0.779254954364156
0.901254991292133   0.372214249672631   0.183332134986789
0.554613222834106   0.485920774057221   0.431227841887739
0.349604801707509   0.259480372890308   0.861947757910882
0.091787154164527   0.376186069788904   0.166713479627041
0.757276438766939   0.252257317347938   0.962869493555141
0.941491771334047   0.295832601703156   0.869559200739686
0.065747529570355   0.432047278665025   0.252017707488954
0.019604739307094   0.065194135691528   0.397296908869041
0.885526818835998   0.805021217930348   0.335737603671697
0.013969423929314   0.502649557052838   0.452162438298878
0.863619385870169   0.400134097173170   0.222055273835597
0.740454816215475   0.364447077253228   0.155433680310892
0.051065349363905   0.386521993038855   0.342604159810452
0.932381494584758   0.763820742222557   0.063308312083392
0.725278348394751   0.340093404926052   0.328056912674193
0.396161466178861   0.677025662815530   0.358102496831543
0.965668021011410   0.337752566260354   0.386407325242155
0.094124339452138   0.333767797586076   0.258365669881120
0.304820120255459   0.350601006587790   0.611936183170038
0.630813316318244   0.278544965484787   0.563228022635916
0.263840715191602   0.415560557275356   0.754323401003394
0.970679948953641   0.479520682024660   0.005219512287403
0.988785468975213   0.454682687165496   0.880782343794109
0.918965973214134   0.923307435272159   0.184871067205177
0.031840462297056   0.487845318529911   0.334970666400555
0.802096228036035   0.283048702345854   0.173612085839333
0.040301155703953   0.440588306129596   0.371393042791362
0.041890176265499   0.667130726307203   0.129825863957194
0.060251893343223   0.407925898718166   0.015382783343149
0.872056598462844   0.806473779511436   0.985416912272769
0.813695694086368   0.844943036673292   0.901215643861512
0.894905359337600   0.625658563446864   0.716836367480127
0.841056998421205   0.447762099348867   0.718691629482338
0.336323311393081   0.305912933142000   0.035747916753026
0.069233280770232   0.285431208951799   0.280957357067454
0.477846952595857   0.396479657556297   0.227688549201138
0.117585823843573   0.334352318486478   0.200888094174107
0.169119130052804   0.608582525665224   0.823151053130354
0.301059052730536   0.916239327959590   0.346517713204970
0.944612940809695   0.598288157674373   0.690276206442696
0.200490641676536   0.969835598910945   0.997174779513658
0.842488816763597   0.801825296075063   0.932442816096539
0.073043056097170   0.583017167957554   0.786213793015043
0.899324515424164   0.813426913738971   0.279267987008788
0.787867675030689   0.433843821664144   0.271306584530806
0.231791197466467   0.808619490133579   0.216731896154711
0.840515747142924   0.446400856039017   0.193147799810524
0.753075112832945   0.970756202732129   0.318602275662477
0.729122763340882   0.993013240023558   0.414133626946255
0.953652060775846   0.585676950657074   0.632674416101111
0.493027605992271   0.017965022602087   0.869521368552811
0.920885533301242   0.604599400799320   0.584853147430432
0.900191529680401   0.468444669355802   0.822013766146155
0.783017402774724   0.830184357517025   0.851308911964852
0.868147945367785   0.912566705739685   0.992533780297286
0.181929805298974   0.111949690228173   0.502587828773404
0.815176960145213   0.152484255354740   0.935512188054351
0.957567414430546   0.591453176783040   0.427940486264793
0.168943377376269   0.123240349385992   0.308450128984563
0.779753921051826   0.774854263869772   0.833192832297838
0.758161789087550   0.988919637336354   0.588327275687175
0.181880454779391   0.760451308197454   0.108822375321978
0.294101434485340   0.963243242215634   0.824250838358056
0.299214387623868   0.804257700260236   0.807931082788860
0.116348689843168   0.400130650502146   0.683723755329312
0.167418453836811   0.054646395672654   0.230314673485454
0.226711592150984   0.690529601103717   0.879598650163876
0.843360002623684   0.147300044500498   0.419731156855494
0.848998362227081   0.998442967030464   0.939005155025265
0.757251830709634   0.012678122178881   0.218170601310857
0.613493998782964   0.168538107260017   0.766899978518092
0.318702364638538   0.007934771051316   0.794951752470810
0.957030153557372   0.258630032660368   0.718300178234424
0.069697217988075   0.215379483437376   0.622569185935851
0.068519484117145   0.234932908015653   0.797079368574550
0.577556601489005   0.033117326127836   0.105092850734325
0.016331522981726   0.338490160989602   0.353287114447461
0.046436043941674   0.221050383384326   0.203929711653286
0.919033140908614   0.157045713354930   0.491620246428547
0.262522521253275   0.562767352640414   0.003705235093977
0.262832148822825   0.350324437159825   0.569946441817312
0.187990420403636   0.301891070886561   0.937822670184641
0.319755639875422   0.064626436687703   0.817927873233069
0.328749150106293   0.212473468516174   0.747948633597098
0.017162300232394   0.026347957048914   0.349302338249038
0.953794891946915   0.305601096546421   0.128684047148962
0.211415507575827   0.913615512367292   0.090746386479861
0.223402291299181   0.925572088441317   0.963506521496030
0.876249582888152   0.389112017302505   0.596586010711881
0.914237380598882   0.317782635374276   0.361480442242903
0.217487709943666   0.377647325320222   0.651655612687967
0.067480792687099   0.186167734630976   0.571138057411275
0.485712151851465   0.909422421828613   0.526156992592399
0.238489669489453   0.270367687744557   0.916828462460364
0.299228170232277   0.232026261769412   0.845132482255560
0.010486127685074   0.227918196021695   0.088543178780709
0.148241536767341   0.752041289338847   0.059970692562590
0.106249408795380   0.137120912976066   0.240236311932133
0.377113379740419   0.660411795376398   0.586449414756751
0.991822996592361   0.544345731036087   0.413107474572880
0.276571498172483   0.370964639962128   0.662345453661346
0.861823797092937   0.213266305056803   0.558500818735025
0.000586156428680   0.253469573918985   0.935234204088418
0.393060178060315   0.253958637920970   0.818310022238462
0.188443859921683   0.832992376561807   0.183209552009055
0.018974746438304   0.138332610133134   0.494199079851871
0.380508159563984   0.537284476024392   0.413935170043356
0.680147056457071   0.391273281723527   0.456960814393451
0.381233360235032   0.232415708416110   0.763211028689445
0.773079385017689   0.349022078567073   0.436164421533303
0.984550389468288   0.589785599017084   0.735138588198823
0.068390667698420   0.503279495840686   0.005682824404463
0.075682793324390   0.196226586354207   0.919122117737388
0.048075330566074   0.523263247190155   0.182708043604306
0.002259478651903   0.255317009581064   0.189163325182104
0.845306364486048   0.257279148626283   0.144642157126812
0.932720722015031   0.604909367435671   0.482097347520068
0.040146018008892   0.407288820971199   0.478166087658253
0.013545433098679   0.580220269637225   0.260294886802710
0.223018082951512   0.506726075158821   0.924850115780658
0.724918760596854   0.399454407430377   0.812288480722885
0.254046414694593   0.460365455301847   0.845836771600222
0.999454868418818   0.665183140501225   0.927501698261616
0.220899873082587   0.892184099236237   0.281801023618345
0.997569013430758   0.408103769958053   0.684017156591079
0.067274370495940   0.709354477417166   0.012414862629388
0.574972395598825   0.778716906182580   0.382099506922319
0.399560527340652   0.736134503327161   0.363424999917595
0.178034804395713   0.396850438611157   0.693139285278469
0.072775168805511   0.960490817005102   0.288767054358267
0.810271888023316   0.428980013241657   0.671198632934894
0.709635735912593   0.276599363234769   0.990483865524178
0.287217166051941   0.703466841400896   0.804824414025039
0.504986511869186   0.969181520584486   0.837277022867081
0.920790194915224   0.723379190017196   0.297776370768702
0.036249386195500   0.528917538776020   0.240627247039433
0.401983348258873   0.582625928554302   0.381863804660165
0.372045905162446   0.048070360257916   0.450234197192566
0.822928946039577   0.856564116974316   0.466557403458741
0.438072351294917   0.796409842511495   0.555789737872829
0.990644039400338   0.619959507802579   0.835422651772090
0.091151971253310   0.883031950133463   0.202588815980166
0.559998779782226   0.593430440135579   0.923006297544426
0.697148673707939   0.476153677913994   0.290612007350972
0.795981241081328   0.400390655404653   0.949404275823863
0.771972046671264   0.940024348213592   0.554929460294083
0.152167895605182   0.594866033061446   0.037207842942711
0.052243025828347   0.536871402891336   0.629786843590784
0.250288432795215   0.993036346681473   0.212222391079604
0.195960360506341   0.857170650159075   0.079833284575435
0.166350196257656   0.903528316013552   0.259558481298435
0.480761552119137   0.672725622696341   0.890690215005509
0.306649373681169   0.694985888254466   0.749791987557736
0.648871270775295   0.189578673599615   0.882012929259283
0.159296372657619   0.552236097769779   0.994635614466267
0.993058292960732   0.584055412731515   0.316565576849664
0.530353145235592   0.946339078233215   0.547129667967530
0.851481046474629   0.824726688992897   0.424967892763576
0.325272474993017   0.865066551259932   0.328257149300200
0.291519330110994   0.165685033209985   0.605384773539742
0.456006499641003   0.095969953047534   0.493889876489274
0.150720391142891   0.211451899676980   0.751456917479934
0.877730684292488   0.202698298842153   0.071594655611791
0.956458801178890   0.298244001213140   0.028516601448585
0.897815534381180   0.748651418017944   0.349095010336173
0.248908225791075   0.842395524783559   0.263128492921890
0.214238685338040   0.076934928851713   0.466931341896656
0.758150144192274   0.034515419157566   0.740487653704549
0.476065993961311   0.234842464324662   0.767175419424918
0.126674485157802   0.538175804711460   0.695141471684035
0.127225253942539   0.042756562706679   0.408310630169499
0.026696508873112   0.246637798173788   0.836947399743697
0.256263113335433   0.600878608430742   0.050084455757313
0.476127973477997   0.893597453235105   0.968875099124672
0.178617811282320   0.756267240726762   0.961025938826678
0.862043599731619   0.190203716586577   0.221935293729051
0.266510978553092   0.140485897061957   0.558038517358479
0.496459243794319   0.071597101781344   0.842455916728476
0.216093792110292   0.186529005481935   0.678191334425463
0.117142107309286   0.161998992285760   0.552807210546977
0.936475022783316   0.325398403509342   0.182303858657141
0.275388237387303   0.078583160975576   0.475462723809301
0.126148628594283   0.174023051091583   0.899925856984174
0.430143968942711   0.225191330437521   0.729451015593491
0.987563041676980   0.258472017058064   0.132857653014847
0.043979047872294   0.482512691069059   0.276297667203181
0.219239945510721   0.098746361154062   0.321365826777263
0.965816635644213   0.289845089785245   0.221569111203144
0.810758806775377   0.480488833514169   0.762905460060999
0.409720851238843   0.346725671897927   0.633469879133942
0.315714752850748   0.518629847092604   0.495317013654349
0.599089644968412   0.889044536099257   0.631056294360594
0.250365907519866   0.520438958636261   0.579191105800079
0.737081912704291   0.397684188400258   0.105475359448736
0.182832322319859   0.308677269540465   0.996753995250094
0.260242961874296   0.871500654844266   0.888052259640618
0.430139012453037   0.845157574488735   0.589585090288508
0.330422552555370   0.483275809820830   0.912429723085205
0.638841558071363   0.144125645847491   0.670920971034012
0.372763073208339   0.312890788633691   0.543292994846895
0.372201603792398   0.087016718314370   0.807880853188841
0.111785780774046   0.374619635330407   0.927645075766742
0.016847944844451   0.297376380707829   0.309701004547972
0.149732506859515   0.507231977080468   0.599050971134911
0.539158358355109   0.940918056768949   0.112756480649434
0.134366219393983   0.050664154572096   0.060721958650253
0.257431409691797   0.132980385177075   0.348987888572234
0.663569421919631   0.440486281989466   0.539112435722032
0.229324635092532   0.294272198759613   0.032245051175499
0.444403451344908   0.428756751815240   0.323323705815357
0.804912217005023   0.240941757180355   0.994440033144184
0.848987114202299   0.252348226033535   0.084426772922740
0.145383091548104   0.330614189138671   0.909472910771504
0.255069658565664   0.031374689836101   0.889021114968295
0.470803804564655   0.381746542275934   0.065126879164800
0.293743886248761   0.918804033944983   0.168888810713802
0.650602378248987   0.400033494679554   0.144783368012502
0.203477388443404   0.416548692887878   0.746585252764199
0.809038751726684   0.332971868268463   0.390733029465530
0.254402263737744   0.307695215373487   0.331888168827970
0.464743900235403   0.290504323039462   0.870274164240335
0.956489141322575   0.378063886060718   0.538051649644183
0.065734642291168   0.513166073587300   0.064454213262048
0.992889725310641   0.249338961630298   0.034905777417878
0.453613529237240   0.688413741534760   0.983606283467477
0.349999166827558   0.505254384113203   0.966919172971935
0.110698959941398   0.187981981178211   0.271732952231215
0.801405037799816   0.675431519472790   0.717512080871143
0.273321255987725   0.486978984111055   0.896367230569418
0.156604249228204   0.972254791995263   0.335149624146794
0.075264598452314   0.430031317658718   0.838043211441545
0.164663155916275   0.526449379379970   0.651812370532044
0.133020883238449   0.579860115820382   0.786583866672342
0.966853135417650   0.712508501958067   0.184111070226758
0.148715721252805   0.707402415496896   0.944435175973441
0.425510252292822   0.505906950150404   0.039557539211732
0.009294695734577   0.625090299237626   0.220907714231059
0.385047829042749   0.960493096034826   0.395421399431758
0.905942131348361   0.862601994098626   0.252370492945257
0.085384247133685   0.394825226016829   0.627998721695118
0.215631470306488   0.542145964891103   0.972943822206125
0.836355370577053   0.234319546995601   0.256841099672690
0.017395659964544   0.439672863167924   0.830541283278184
0.215192982045122   0.712255015955516   0.124995591711082
0.396610671273815   0.547422050069270   0.071200391941272
0.771442147243237   0.314614279408816   0.069019589513035
0.384224517864006   0.369472641372513   0.259487164384613
0.524566891023395   0.176313485088162   0.643279850935062
0.162627671560514   0.004257670236951   0.085784696216951
0.305960354355499   0.584173942686196   0.633431018011969
0.237112094831722   0.187028997266000   0.785492036869674
0.174143860267664   0.674877701328509   0.901368570386278
0.738393053455841   0.777859957307998   0.738031865861488
0.241006607590133   0.929666900428116   0.140448950047290
0.646844327052814   0.171989653680767   0.101452416868665
0.148862714977324   0.062229006958145   0.005242825698110
0.428090449424383   0.293515869605904   0.528431407619603
0.390567017364686   0.250616102246177   0.444441949262887
0.294631427873461   0.268019358508455   0.412701650858350
0.373936897373475   0.863069914859738   0.676928684665698
0.143566800153073   0.635045423914263   0.869859603779321
0.250828251158551   0.927865480379039   0.908809025951464
0.507948203021321   0.043791815069702   0.738095814596161
0.218227188781796   0.976592147954055   0.165967613357316
0.515323986241716   0.343197630250923   0.648642568652835
0.088102714212338   0.132503087998798   0.185068734003034
0.890493893849400   0.177525589369952   0.122560182638711
0.248434118723823   0.190386562545328   0.358643295917757
0.966941842085784   0.129330237389444   0.465031718570620
0.585663321239681   0.035560119293511   0.427976971634180
0.734154251251846   0.265456217373549   0.578984645371521
0.475517199110631   0.434045760286237   0.860613195626082
0.346446576151718   0.944087479032437   0.721693852968278
0.108242049918408   0.087219276972488   0.152000957908295
0.248311851434885   0.056992612205008   0.289849287877204
0.161918381907603   0.302820461975970   0.111078640937873
0.198565917125741   0.493575877426137   0.563698969576891
0.170425299885772   0.189397468963085   0.637727850985690
0.301160473797665   0.114267631141605   0.516866252393977
0.337559292929654   0.277204493285365   0.453902618511187
0.271625476898921   0.180737871981872   0.660350457253485
0.476003008576837   0.067806901025010   0.783198732936343
0.024950412203375   0.418990408746571   0.733500264195995
0.234044221001056   0.125057711548908   0.868209488849484
0.146067446058927   0.047762815176937   0.175966907125334
0.221844154839659   0.779147211505035   0.924366068739153
0.527951703097262   0.988918934776606   0.249363580694090
0.219462183680898   0.269915812231426   0.302185767150931
0.014701567072302   0.248154309512264   0.705401803358823
0.329037329515745   0.310015701899881   0.502490866279637
0.325691002029513   0.796871439734323   0.750973029379624
0.403644673783669   0.487560485603081   0.986821082435287
0.388501982208804   0.322228678851776   0.008935310169781
0.286061894913914   0.293418500744162   0.005814398225458
0.234760846429392   0.276461948126773   0.241744523327286
0.308960860525528   0.403579997370554   0.393673629777427
0.069366177235165   0.425128877556001   0.192442853787770
0.215838207793741   0.287973764481013   0.089630609676695
0.462490459952465   0.835299690068706   0.462710721225537
0.633471256530381   0.091521771804740   0.523561704572816
0.035058203996372   0.449789725140816   0.431404793628801
0.940821576984600   0.276047085378562   0.772783274656050
0.289095946919458   0.437090671518091   0.805190622901722
0.158031695791502   0.300038571943539   0.170953403706191
0.132567382371745   0.334086077115414   0.019532840272574
0.259411179974050   0.547228200150791   0.632218338527116
0.122133806343370   0.126528359557655   0.505186454558065
0.373806888011677   0.344615460668827   0.206166875883773
0.020231996181960   0.233485209569061   0.647983012889004
0.168876512862023   0.395915024771502   0.557357604917349
0.317312922446390   0.631777620684970   0.667695669399399
0.349975111575028   0.172581170003214   0.605929272609649
0.341650882675635   0.311545937055569   0.095907479764042
0.309001884984805   0.739901810073793   0.244372536920481
0.458758176916644   0.728081889143967   0.898504144733016
0.189120117477616   0.817433108165309   0.124925247684675
0.538537271971353   0.644311336811910   0.105115154366529
0.473713459094527   0.826873490610835   0.887955351521470
0.249431355467188   0.279665615410250   0.138446001142259
0.330006844636141   0.574420259781321   0.580214055508391
0.306329293192731   0.673842932537092   0.170962158856392
0.291000759672926   0.207307906648322   0.791433994856269
0.332679446599234   0.687266771867598   0.224028824893702
0.319625668213309   0.542847791865165   0.002671310567313
0.524490533017247   0.857689723487010   0.803595694027565
0.192677516801662   0.837491721902076   0.023034814064522
0.090411006700991   0.371892575061857   0.106723559362620
0.536981047629997   0.257436498759130   0.493929465394610
0.776216803066322   0.296994917555760   0.667153102719800
0.096986339675710   0.369657513295290   0.986595139162455
0.444514931966648   0.817720843787800   0.409155502582134
0.152320411041129   0.133200060400694   0.933673242620519
0.479347954499285   0.937190099655452   0.927416058236602
0.084852496951321   0.412762120478047   0.735425489602280
0.828702739972613   0.388179030223086   0.268747158663823
0.038248057206777   0.622513865057696   0.168740811366056
0.089789031317349   0.664781536619130   0.091933097483185
0.251596367897729   0.665194090489236   0.832113471013587
0.835827598094924   0.765047048330635   0.495438503283973
0.813155371651232   0.819517954255786   0.510878895783134
0.918254841000578   0.763888658889653   0.254025624979368
0.631253376417447   0.606385250160346   0.784926762512625
0.218303007051862   0.542299441799876   0.670430972063052
0.117696413073921   0.007587056388673   0.362422351182441
0.201599383686104   0.622151486907726   0.062562098652638
0.110346124694087   0.422674600504033   0.789944456541832
0.614975003787255   0.581272465928370   0.066953669361674
0.100865040102670   0.610182964766752   0.067431502220754
0.089665290165947   0.507393780311163   0.590160511786006
0.861586264386127   0.768813611079756   0.441339157827671
0.613164750572803   0.077407923336705   0.120084305046973
0.469729258441471   0.793973894817066   0.038169336908980
0.478400003723609   0.890207754275515   0.470527039253621
0.701312307902420   0.994765969856543   0.297991195686736
0.890314443885076   0.945841774266506   0.035527440597180
0.322076483082833   0.453296424018416   0.422680737344861
0.325817803491498   0.774696660647731   0.288237346857809
0.398559368688236   0.827351886088424   0.638776101622515
0.269973693598121   0.366090710431540   0.415590904380939
0.310084030855537   0.108394624768224   0.336826247958220
0.589967487726803   0.180634031032811   0.891160818968117
0.069697041999927   0.547407511060265   0.687326646866644
0.537659410648071   0.703119150293419   0.814647435734732
0.531543036560412   0.892483534174634   0.146169837981718
0.540424006368425   0.407082287134643   0.789621048855672
0.576759838682844   0.296195917646872   0.580952588315070
0.549870715976525   0.541576012402356   0.452511849600935
0.546553261340496   0.840398019184079   0.234279422675146
0.451771229690044   0.791275235881021   0.499924225318971
0.565122544068618   0.789708264928916   0.739076439937532
0.288265033984483   0.000774848076461   0.408851244382007
0.299909027074287   0.907181023190703   0.803748955165370
0.593731229708067   0.987224629204112   0.330999057225270
0.484269511043173   0.997335432501215   0.927763951231989
0.489155703094411   0.845612458435809   0.061770018975911
0.380847818930723   0.604269970358171   0.155650018098135
0.964830084201168   0.288654603527108   0.280623397359066
0.466363304128506   0.331045393382916   0.615867384474571
0.536995331030392   0.689149468506842   0.198696324803472
0.772234776512276   0.983962063866621   0.768347962075580
0.188767103135059   0.041240838347799   0.425425346433699
0.554833776388976   0.383125119545384   0.736826075222604
0.816357056724179   0.905993993073634   0.902322916055992
0.123893172810130   0.481913650100206   0.921763791489689
0.545673241387019   0.419600143130582   0.305011707703622
0.523127161220550   0.483653011964931   0.379062441017021
0.407702220686686   0.063870478322127   0.297632824283991
0.465054003052849   0.181395839660975   0.630638555075698
0.436859686284513   0.263216106630522   0.478117874101802
0.575333495117642   0.099273203571089   0.510146892113405
0.323904612041843   0.313742254880189   0.196686839650964
0.722021886335665   0.321317099886420   0.682567679822897
0.151828630030397   0.187692954549559   0.849141698590449
0.476030158301915   0.484024568228097   0.061961621748945
0.297250977946884   0.327572771690724   0.295027300869770
0.076989869950365   0.231328600003155   0.253953016459210
0.423760679748039   0.348519407616639   0.054823785616521
0.059705709671544   0.178311052265816   0.163158492547364
0.362013371634372   0.337210775115691   0.597495890491197
0.735834775279035   0.239208206854551   0.526534963117451
0.598440438228715   0.428890829314558   0.957341552283370
0.427094962608968   0.447971988621077   0.893116339402543
0.699756556427771   0.116972744845048   0.750630460914241
0.587968431568877   0.584777787483022   0.015015495506718
0.056480626196103   0.466202994961882   0.098843588314138
0.396586771135456   0.089446797884749   0.486166175168096
0.552523478210913   0.406025525501626   0.113437898356256
0.247317728288126   0.231573855451934   0.873586682763915
0.666708494687210   0.401815302821607   0.807195590778185
0.201201312107380   0.218818262264959   0.329448972772514
0.542266880329765   0.633475473558158   0.390865898866391
0.396476378646174   0.307647916113744   0.950401272108233
0.570118058810526   0.324934647821417   0.632394135853189
0.366036337842878   0.610749749997585   0.554889047404135
0.617975732205946   0.468363875723863   0.512106034733992
0.560514525517880   0.662226108016876   0.486328065139680
0.029072885525451   0.445972515245264   0.924761911783222
0.358242460406459   0.392579543281658   0.721705229811650
0.040804736077593   0.571226025030078   0.735336114459203
0.613382338318316   0.653910008034823   0.693567673623375
0.200323672775282   0.444847858026773   0.528764238845512
0.157697109550111   0.182272770375381   0.310222536197055
0.630332805236607   0.605450920541783   0.665746586083337
0.770858336097619   0.782872652705654   0.590987072918274
0.632128823410083   0.413073787833070   0.426499052757569
0.007977389031104   0.705785921989203   0.022400283508059
0.475026028786833   0.689768285166153   0.037636825058457
0.389921288965717   0.644094795644670   0.307633845910095
0.784770041448138   0.982985355720379   0.827363710011113
0.471971229985212   0.550627666869770   0.141159620044366
0.332739149615465   0.741312983020251   0.722742111970429
0.490237626522439   0.923316401672408   0.871042117898586
0.176066126981672   0.483236862873790   0.895464507326503
0.512171551837977   0.645594332397664   0.053322088718997
0.410841315664499   0.354176259335554   0.160747981194792
0.372871824247864   0.651426335624580   0.250035073359868
0.594739254222856   0.905467445036654   0.470803354337014
0.555724798832973   0.676817011452104   0.428606249100522
0.420137959799000   0.967096156767735   0.228758809428958
0.049135672361985   0.608587479076138   0.834259679054381
0.210784937858062   0.965723186712803   0.354322234032050
0.292314977981777   0.642766089334951   0.722442553828720
0.464747359535933   0.378303259060042   0.170592161323559
0.194787455320717   0.457684676240496   0.842873530533483
0.248459214278959   0.608842545550709   0.749113961154078
0.504586123555020   0.975059065328212   0.406725917031463
0.262531807998950   0.312388567970702   0.390727762238009
0.253736378900277   0.376326912008685   0.472027009129590
0.328441456136896   0.628560013672987   0.134755640919648
0.517168306455988   0.118122448703050   0.872632194883659
0.415214693044748   0.857703214927177   0.377958608644596
0.600719765841906   0.823845931955423   0.558599253526169
0.605836427725488   0.648277751498281   0.752374510089830
0.267674252130323   0.974578372731252   0.876740577975719
0.493994117692371   0.439624053291478   0.974116741296458
0.463628277137306   0.838926202179542   0.945878600428255
0.380834711429533   0.415507491967039   0.772666042977364
0.221828626149345   0.031617699097966   0.245481301070855
0.333815885740235   0.878449201249481   0.159606619878561
0.804710429000704   0.350142035221139   0.782485275194375
0.084052855874194   0.631950545313915   0.876854760493075
0.591198632432523   0.883034343520611   0.376529099073065
0.547623086025088   0.902805047311151   0.773207831681644
0.234614341486125   0.835791418000997   0.929083665063123
0.171870715650105   0.005759578135637   0.143703214950144
0.592451397740999   0.928625859265341   0.415005286805835
0.311926638872428   0.042313840301960   0.445176370511833
0.590571124562279   0.240539146200479   0.474960599298291
0.656937326117415   0.999972618839055   0.340156599683786
0.429539455994727   0.012691093714530   0.683733249974332
0.339797544425617   0.847752828752590   0.725438051592549
0.272557842818427   0.078539296842606   0.854841953030011
0.575777036833795   0.983042619735491   0.136076471103537
0.424751650910626   0.201431583861433   0.673219570218707
0.751760976401668   0.370785194806601   0.767706400127994
0.305801372396032   0.966371865218877   0.211112006983849
0.868068151376520   0.131441173965021   0.226534125846610
0.424478262106985   0.914967211661573   0.390604725859606
0.444655954969094   0.157385676233101   0.577959780003553
0.602760105893248   0.169596829026322   0.709258678741768
0.839454811008332   0.246653000871990   0.605152388965884
0.660929011530581   0.247693604019619   0.971083469903037
0.688433326756171   0.375582673909202   0.183923639660071
0.920665786191946   0.087850703328981   0.371795677643618
0.530605211751478   0.430678044424263   0.882447089679135
0.358284426739830   0.987283896449372   0.238546371776500
0.518485575751300   0.540462542299380   0.364439210369825
0.582660975888827   0.396823057855566   0.217674942778586
0.679365400986973   0.287233300266082   0.596583605680654
0.853288905940967   0.102825366235573   0.276214408786481
0.711417746549342   0.354462874588807   0.729955189609372
0.478098434563105   0.771526645151005   0.866768666011059
0.659458726946121   0.502881687858365   0.620548374131927
0.454332374807337   0.386149810145416   0.715178824140794
0.499100074145774   0.207791003206603   0.413441954186279
0.608458893258484   0.058757493025550   0.256806307445287
0.858849022575764   0.363605874460827   0.495057077879280
0.440417496674048   0.411194778490936   0.766575077621239
0.666803386444665   0.165985840538132   0.352480111865667
0.403505211904991   0.638157074723488   0.404141140462277
0.343582242811761   0.362834766941546   0.303142716528365
0.440471485365094   0.456093721556106   0.951551671740951
0.368265413650419   0.192772808653578   0.658100067442578
0.502957587843447   0.440746936860470   0.340200484602294
0.345172129025210   0.566375602913876   0.051915777451287
0.542894010445505   0.040722151703071   0.059048826107636
0.592604359962689   0.401450983814660   0.158000515347122
0.458464084378730   0.140231004816495   0.349203239669274
0.526894410119333   0.660091126052592   0.854593201695816
0.638512415591521   0.395569781033938   0.367979925366799
0.348341553196621   0.436506162346401   0.817951714412194
0.529435645000736   0.285283791654277   0.546623858530413
0.713228200139230   0.552819242493697   0.028690454170974
0.618130398266734   0.335887713170520   0.666529819009543
0.211749120067914   0.277217736887930   0.187908394945179
0.473920897067664   0.647520941964050   0.943406797168549
0.624663720369078   0.386715997017129   0.257962229866236
0.245274645161252   0.434295950311371   0.490463501696052
0.416123447867282   0.567310982186972   0.123217122565098
0.787916319186670   0.163708473678220   0.404452195489786
0.986420335638205   0.377901155489613   0.485877031857268
0.169706174820131   0.431992215762906   0.794695622919075
0.903981612267100   0.373310935256171   0.077642995867504
0.504184533771211   0.741127811584227   0.119413424723058
0.525254746902416   0.689444834793343   0.141768703195456
0.737976543782168   0.209011832691397   0.222159448076916
0.300024891108418   0.391289992623214   0.712428058172013
0.831132687572476   0.196018870667932   0.510099356148360
0.660987289708581   0.566031534101573   0.698183898926772
0.690033641365553   0.361922395159499   0.368435792552844
0.482428614187476   0.419183106080813   0.803688549146261
0.598657822245440   0.791215282476758   0.609241126089812
0.904654917603350   0.674537010449162   0.421864967483144
0.635425321913820   0.252324382805723   0.510548277185955
0.801324894089534   0.959436191392654   0.285215707450203
0.260983633597150   0.715491941477068   0.163668413542214
0.398218811277724   0.611599063541500   0.212153411856135
0.457842385074988   0.574472296456285   0.286907265878153
0.847969472925865   0.518710751548149   0.913575960968233
0.430198393932862   0.759568823003846   0.409797582761666
0.619813322097692   0.597593168040185   0.842955820245430
0.670421394014001   0.570381771990323   0.756521950889025
0.415617708617141   0.067802426764517   0.773503550138715
0.075875941870662   0.139793487665376   0.069152244343283
0.975501235216663   0.672063303692335   0.231313199787951
0.072641722596693   0.564533582369823   0.092011439179523
0.549432595335591   0.891673160303121   0.204117074460833
0.550917444263134   0.067150699832611   0.464687757278457
0.592388083293047   0.831838113894496   0.404243423721652
0.512783284544520   0.998802778709015   0.030913030945967
0.407987990324153   0.009592501185830   0.422873926183706
0.513674515382846   0.608811888756316   0.958144280601839
0.091993142625173   0.693808790116387   0.960639531870347
0.349514984855662   0.188062597895338   0.378493609723352
0.601192772110534   0.847434826227322   0.460879342229081
0.550032031612127   0.730755130867654   0.286670541373160
0.214477787497303   0.050704359958099   0.929434950198207
0.105633103050733   0.712431014649779   0.058038228221443
0.323702332584466   0.899084546738221   0.751196195364221
0.306871915979145   0.060782845363300   0.300905436019847
0.436268455870041   0.742568692314746   0.467266364837979
0.562464751396818   0.778361415145674   0.321225102753547
0.015920345987654   0.228342987516943   0.986367455901813
0.103355061899019   0.091507605392655   0.093283830361425
0.766498932101952   0.938245476907633   0.675933369811856
0.596272047900197   0.807267283271132   0.502190463240001
0.774108237455116   0.887494260241409   0.583534236670595
0.906242396849733   0.632916062350383   0.776931685833061
0.525047164750293   0.204837918188876   0.753391859212379
0.580293713423044   0.754646167739986   0.482752892110078
0.580306549511770   0.132683900324880   0.038703636095058
0.283436265470487   0.755148510793497   0.834583396257603
0.817983168641635   0.532951834782766   0.015743108216825
0.112083853899051   0.227125587956288   0.711460281971392
0.395138486927215   0.031157583454611   0.728678026008982
0.478931176304697   0.742352397134406   0.066288922494789
0.513391113675907   0.792523603625361   0.147557937516441
0.527095629675847   0.002962582956212   0.646986585446803
0.915278565972212   0.958553861342516   0.238421593318955
0.844311233918460   0.925052754261051   0.307241218079078
0.683733771541720   0.157018791174065   0.842801852237577
0.599884686107474   0.210107118516127   0.423916191429772
0.658721697489480   0.376278229277884   0.750869951832544
0.467900345006385   0.018833368277127   0.425478294764671
0.461541960302890   0.043929049860197   0.284464650495690
0.568863885641272   0.943651892788650   0.232102725530647
0.360804420889476   0.120948493716858   0.520751402578832
0.288462560316185   0.303504878646880   0.242273985305426
0.491190881929755   0.063144056183995   0.458662915641769
0.777787316067620   0.209780981802848   0.495862403631476
0.600052644986716   0.883277899138693   0.571710111865055
0.698790615931396   0.423007324667912   0.937946995659782
0.168678524857299   0.783366440771851   0.013035096676395
0.532498312911458   0.406224433091156   0.248412039499919
0.534536563954185   0.801692317008142   0.788362473009673
0.495961473759450   0.385973983591640   0.120061840382243
0.560402537526379   0.030320406931905   0.286409566624601
0.320475862776834   0.195215797325120   0.692748440516690
0.385738494032574   0.153182909137773   0.565183965519305
0.539749300639921   0.128524848620173   0.549461009038223
0.490750729280822   0.243413740178868   0.460972289366363
0.643150428484765   0.550878209932095   0.172672708665712
0.633048962823491   0.107580186662467   0.277226756280610
0.665265633365411   0.421422788548575   0.037405137274428
0.629125467797150   0.217442685563335   0.010953973925293
0.611161599268842   0.520935090501242   0.270108459876677
0.897602323819540   0.653328205463680   0.478723469330214
0.598114985404761   0.452961114693027   0.455849459919879
0.419747366792512   0.960277862249431   0.654268509718798
0.754405505113778   0.448837897864524   0.665887566922561
0.061193209011431   0.242153185738775   0.738426215694865
0.562026201565344   0.150967574926979   0.601234881700027
0.532520456826445   0.607531588100199   0.013574777904094
0.906000396304869   0.761677087345081   0.007933858638259
0.930346183856090   0.498707493548366   0.969784062900789
0.445884634867311   0.308920414795282   0.916440520466710
0.607625219571346   0.425037975836493   0.018174658489789
0.715690160433922   0.360983052495725   0.422136355389518
0.404624556830846   0.373590018617498   0.685928085655215
0.677848358031914   0.168747713110699   0.150873048036285
0.891868508914362   0.397892401824367   0.130487691325303
0.738101274717178   0.135430518655841   0.859959876212791
0.406354725367294   0.700056778360054   0.555233832680910
0.622265104216774   0.537767945058625   0.590390570799234
0.771829178295417   0.880170398868834   0.819839801953664
0.501415198594438   0.432124066410220   0.034199568816469
0.708628136530621   0.556829542761164   0.968031920272287
0.655585840375883   0.194324536688061   0.405052154161532
0.434876970181816   0.399338518261794   0.270390122912988
0.201484176216772   0.663521223154963   0.100599663482397
0.822912465883280   0.401363692694925   0.616942395789298
0.290078018027223   0.470988724211383   0.469371821193122
0.829936701868630   0.292807257264585   0.696266875722638
0.574823019188104   0.709350061973153   0.518725579944629
0.789730068154314   0.037812384708534   0.856064357206348
0.906564817143067   0.033630961824148   0.080440117872095
0.589276908908975   0.633208765183407   0.573661621125659
0.564387275728941   0.979285081511397   0.687430899742027
0.370996791086856   0.776996718480024   0.329559284235259
0.373347075129077   0.835263655675176   0.345448153991469
0.353434369445496   0.673100455064927   0.642129978317883
0.598223374256213   0.833091603717304   0.651161309756775
0.751900111814939   0.411812140561969   0.910972303439979
0.847273179410793   0.748346228259717   0.905519056164140
0.412689515127964   0.590577102429930   0.322461124007562
0.379797324944875   0.923879321344551   0.677324251654009
0.675557779036315   0.132274579910233   0.242861424848534
0.495868648402573   0.024348023899786   0.977178555182220
0.799621004249833   0.909214489693426   0.455246169338783
0.215275276326588   0.567759319754074   0.723893113906619
0.573460186404805   0.695203301199352   0.769225710637696
0.401294176712394   0.645782532748271   0.464084132084321
0.605772656544976   0.575748697691571   0.957553868440134
0.876411193328194   0.856848736174984   0.014087822762635
0.568271294056160   0.737207043500080   0.425225979801597
0.668210816029882   0.061163148270745   0.485725343400752
0.247125768272839   0.745320259612201   0.883326193424064
0.513085472826363   0.119007286449877   0.332830042633138
0.414744962472034   0.750337619183085   0.583290195014943
0.643989440758911   0.041393371499764   0.434750058221043
0.910716621759128   0.671858024523261   0.875302210360478
0.490786681680398   0.895941619106015   0.028788479186624
0.834453878853168   0.190827153899521   0.979833349948366
0.767435992849150   0.535593480090762   0.047814765047973
0.672872845230141   0.314765170353006   0.648608011491093
0.647171850357164   0.072442740642059   0.167352064355100
0.072481039684785   0.112413150427318   0.474537995576320
0.723638133186114   0.163135768471544   0.322694212105338
0.791209931690014   0.927780104319331   0.850880879146301
0.544077806404106   0.089542511613959   0.026681782839207
0.398156467114142   0.210006284478591   0.401814134721788
0.528022463085326   0.118960183674940   0.932734418813214
0.687042209690530   0.115852273530661   0.692548400475844
0.618651801008661   0.140406159811555   0.326939975600309
0.357350046208672   0.137740316405845   0.348585239080658
0.836876234903936   0.897057484229257   0.358138425070218
0.024786765757074   0.944776610475179   0.256258193718012
0.602844146594441   0.979789376663818   0.189147524754339
0.970160407584561   0.013974343650042   0.313324519960045
0.868752903080796   0.262428826398525   0.657009074172511
0.587300646458605   0.925833152441410   0.678548985573640
0.610283342961670   0.365527982406556   0.719378861927269
0.678622707189610   0.221019711875501   0.919616784560261
0.509093424553568   0.371805733040307   0.699913844162710
0.890357946874059   0.116552703192457   0.023477151841507
0.558760586940337   0.548610817418320   0.264380704427861
0.643041767117931   0.423783248115352   0.914725084888735
0.689693992486761   0.259222249358641   0.082891147099457
0.925612616333904   0.249113152097182   0.665515795104082
0.811237682337045   0.370185617740670   0.838061000307303
0.727857109022198   0.488263484137795   0.699664285574555
0.562332489280856   0.181676709300047   0.794686232840630
0.628889063074857   0.414483294556401   0.853440175350732
0.740813358139083   0.080311415070174   0.774402613551500
0.899420407022143   0.121401382171476   0.126819972694066
0.580609559695651   0.601731756690827   0.113590659247566
0.393885956832154   0.337355342970773   0.106377394643587
0.349059045499024   0.398365854535843   0.349454986208447
0.299242777105742   0.534011077631026   0.548906617970310
0.699673884074777   0.403347248506840   0.510112815957908
0.452235841217838   0.262067587081340   0.820354562289610
0.698078707858608   0.206907804151527   0.442366913415775
0.914622473001918   0.496064182457544   0.025574649341832
0.847486217098300   0.645372876718563   0.689177684379221
0.710221368569763   0.423556251347067   0.996664569915061
0.929802701241585   0.444788586407231   0.775730148962453
0.710636240501352   0.213574657800352   0.169509473149154
0.569735487321065   0.614853849371954   0.520140068736778
0.552348526882234   0.162553993210322   0.849416758874942
0.535100668851383   0.631684952552173   0.332631274958378
0.838034399500963   0.097243200480083   0.934009156469062
0.124418860513099   0.213250659645108   0.805249907967146
0.819575766412956   0.416278745713372   0.045066184938878
0.757987880577514   0.546984369806084   0.936122522239946
0.715260851217691   0.295849249829491   0.045518110383309
0.701525657661195   0.010232016216930   0.238631349267694
0.794443117090093   0.690035271493507   0.621582675587633
0.685817564156663   0.542478754411566   0.129658019546558
0.562482071492111   0.148732573242078   0.350588654770881
0.976470015100846   0.388407603150993   0.593773542098460
0.794551478959946   0.729010997182285   0.578134473106593
0.860887879565895   0.504140780319752   0.046836967605059
0.762198551052525   0.889895787542061   0.642131082540916
0.369098531085427   0.455878098042445   0.873427858684314
0.531984638748360   0.791649673179835   0.203928300004522
0.444051500510169   0.738963146479297   0.955391728635956
0.057125676448313   0.470761029138198   0.157701801685073
0.899718280785845   0.858919629908808   0.070596982990813
0.742949986528789   0.992382465644358   0.472204914517817
0.741016212725516   0.837105138757507   0.728370378597023
0.756977053384292   0.388134532262282   0.528174834705590
0.758049576322696   0.084751506774213   0.831532708255432
0.469243836906452   0.994765396791130   0.250904709228821
0.740686007580501   0.441736468658185   0.304212924054632
0.715565609593186   0.333530308176373   0.270326799904699
0.563691689913598   0.833005771242290   0.291659247456415
0.512675519499394   0.067642828973830   0.303587159188681
0.972083152597938   0.974410241257363   0.266967520463529
0.308802964157676   0.604404528680817   0.081612082478731
0.595901422536059   0.708771710069779   0.675250349308571
0.600449368882404   0.519399757582263   0.538001930329050
0.576826916562207   0.734676304724722   0.725548126734834
0.816029787381296   0.513689625762138   0.863604096643269
0.453792120097477   0.791887918115187   0.980787678887429
0.513438274747515   0.945215035313048   0.056283186589212
0.148628772650030   0.872272669605861   0.210538788913222
0.744364939061352   0.790697910782592   0.642661168154110
0.588475041956491   0.694063388419669   0.574250648825910
0.595619009152235   0.732089143763903   0.619828809701973
0.875164743460724   0.641625088445494   0.581231647225394
0.926837150018957   0.813257620249615   0.162138587399453
0.538367771851060   0.740031845583960   0.229598877634867
0.567036988495675   0.984496450682215   0.394119602037603
0.876759739700994   0.010606761753806   0.234392480892686
0.451505837421508   0.186507321453158   0.386844347440035
0.285803481200938   0.859045026803878   0.834698733189948
0.516106385263971   0.081427192076441   0.975627669749499
0.509653455127677   0.970445930408052   0.599190362562195
0.766235738489212   0.934662053255308   0.735447130700665
0.359234671802497   0.728813446490674   0.667988874076004
0.893260483935579   0.039406852887179   0.182764450579316
0.713213417171705   0.548156041559453   0.844321576830916
0.591149280775074   0.173755089298089   0.997218651465910
0.841002562291037   0.487868842926557   0.815302624798386
0.809004377107301   0.991516832779865   0.235576549707790
0.244836474692452   0.925261769981204   0.326562471860448
0.831070367041031   0.126679798621215   0.326862115328483
0.967536421594203   0.094370550488522   0.412711630692279
0.583851981239189   0.833766520707417   0.707406854888546
0.577477240260528   0.889531525829413   0.724585716890847
0.761818209873683   0.962382697557142   0.376568465460729
0.641341150676513   0.027395127330020   0.210118529992131
0.073790398831359   0.424454193100979   0.526938180196397
0.571529484149441   0.417712580599776   0.840337531761987
0.920144652263913   0.864482870510916   0.194340242735229
0.861859493356978   0.844815458297078   0.372035565914906
0.891723868559110   0.915023485144629   0.274414060966854
0.485425604118495   0.033145619306323   0.682073836984636
0.784499543622164   0.831678211120314   0.560507037227726
0.681526978569237   0.455775753201216   0.593101170655184
0.889215228790461   0.303361442932281   0.787548965968641
0.359324268997447   0.551033682557674   0.469278572904103
0.759788924803138   0.306141720281504   0.135866416512660
0.855833785357616   0.444673372671931   0.136066346131203
0.059503954180767   0.188030220388970   0.976268349155191
0.672269741038847   0.121761547876740   0.185154917774239
0.755396235959001   0.191269385133273   0.443281703641457
0.678265208434359   0.014865619733874   0.394325916909488
0.894343051578163   0.375336627133978   0.540961879640004
0.355980710493355   0.035887312027934   0.277744311471975
0.795057325404489   0.698744027762440   0.771324202858937
0.763148126448524   0.989046013697197   0.647930595756234
0.892229720950378   0.319478461335482   0.846314281139451
0.612663130853662   0.126987069547598   0.087564142851279
0.549411038121023   0.584018095506415   0.213092547690101
0.780910030900222   0.253764821405627   0.229378575519629
0.517157409364627   0.569975116409820   0.310101232695934
0.568542363430116   0.162555655954756   0.943985606623081
0.931215988136885   0.474001565927641   0.873464958905163
0.480349906694303   0.128852870365468   0.539145696258243
0.866401910087743   0.670518132200504   0.528033899875659
0.547197656763709   0.668452202537948   0.290912455981634
0.713233926020702   0.538220225206589   0.784904958290383
0.881196465314310   0.050156903296118   0.283193889297561
0.876053818269453   0.083417953949330   0.977621892364704
0.662993548357108   0.568591369589897   0.873501515379821
0.064648574569103   0.412903496595117   0.073927943293846
0.991139383256544   0.548442157519167   0.547989050456393
0.782760489401656   0.330284466468573   0.338896223619630
0.880949253106623   0.663212310090803   0.822838210850944
0.408659280650947   0.113857261670906   0.331160471628070
0.901018551447291   0.434321729215604   0.724431594124463
0.717960549470082   0.258913746190449   0.133587307701032
0.115229722715095   0.515660670477108   0.971975907977624
0.016846695392482   0.174507449620245   0.543936564472723
0.659211251107680   0.566197995867975   0.934313942939526
0.447380306501080   0.583062331300157   0.230279293175633
0.768887105453562   0.700336232831271   0.674707389458649
0.903363718452702   0.499908019922449   0.918506839644122
0.950631552784784   0.674560690742361   0.287716990118763
0.830041180391235   0.692619329526693   0.818890467114229
0.926321571237197   0.396856228273565   0.626578197320253
0.636841882767342   0.477290364269241   0.304949351308755
0.541699475648872   0.432837611754652   0.939192345925362
0.613199875166179   0.593386169070418   0.609986108562844
0.840543724874190   0.653627857167233   0.628634632864985
0.416639344353627   0.694882270621554   0.494804854934792
0.370178913076856   0.480116964884372   0.397300988638535
0.682417092552457   0.518069001352798   0.673203320572936
0.110027840935901   0.398000705584793   0.569875687889931
0.752599994950017   0.503325689197234   0.752189778595579
0.829165535237028   0.469754358873989   0.088347152423281
0.508732491227391   0.844499265325123   0.119130917207086
0.209644518472484   0.369455925949902   0.591669281984937
0.560041680205796   0.421215101597942   0.055286836526276
0.546272022146086   0.645093632917041   0.234957083932323
0.887803962595812   0.728531880259551   0.404287519864641
0.497765214533217   0.509385371484407   0.108727236887547
0.940378318195365   0.327203071855449   0.077274422113158
0.392784462912021   0.439554240258683   0.355148439219697
0.848788474411782   0.372953142847871   0.933571649918806
0.760186063751393   0.535342037602167   0.877323080721683
0.888954243312657   0.097566360908716   0.179862122470442
0.771115557298652   0.409988508420727   0.004598306942393
0.514054670708712   0.757953770400101   0.821322417960828
0.584331594473933   0.921985042135391   0.529031983652409
0.777507706417388   0.152317449188777   0.346779741148074
0.546779981124199   0.187780788044468   0.698088253971852
0.325222572662783   0.957972682130785   0.383888938409772
0.744506166006316   0.842733680105819   0.669751569563266
0.378095354845362   0.601472935251385   0.496314018304045
0.200568203812560   0.106022220934824   0.913440179179123
0.384290894757018   0.894292723816824   0.173486479214514
0.680552252894625   0.411406589741865   0.093712750741065
0.291126811107941   0.283644430393918   0.946639949661622
0.582792640602431   0.936229674329658   0.293791654382361
0.765838276499347   0.307489503018599   0.251945761920882
0.748179679290404   0.500473188396258   0.200579280217435
0.897255025664196   0.002059519614624   0.031126152599972
0.945802431283319   0.584172731135360   0.534311437097755
0.118913995245301   0.214247648700995   0.655380006402912
0.844240364465159   0.938278243356562   0.943312486483127
0.919268960113976   0.811154844379550   0.100781318628007
0.671435716002510   0.558811484953648   0.073363833390177
0.425843580143265   0.919053188010407   0.195822931102463
0.977999076377722   0.725045570576728   0.074340961188744
0.651250589814393   0.218459450775936   0.066345014515275
0.905436920236032   0.007944753222335   0.133712152244653
0.456951136471108   0.944245490616640   0.610636186412307
0.168295041148366   0.166864374886942   0.583132956164621
0.664588172780244   0.147640235089720   0.788020176417386
0.749902357451829   0.036430022371090   0.681340528324050
0.215148312083113   0.867156988463461   0.976140041784869
0.131688628291272   0.942607245292378   0.289330470358144
0.923116988493089   0.048769755501986   0.324383525698053
0.553508694153383   0.189857288527937   0.394291426252088
0.264960514008165   0.758247277435606   0.206293109908044
0.868115726523048   0.330464579920393   0.397989192297815
0.390284255672277   0.767085755608286   0.635068045389265
0.073836198077855   0.073323824133469   0.427495045202818
0.967515564965736   0.228203163813730   0.623340473176517
0.873419524560162   0.211095453597004   0.168465665755238
0.085228509827098   0.146940807361338   0.010224805390028
0.973730590760497   0.271627058672232   0.824624245597770
0.188270739909874   0.026004388674778   0.975770670814955
0.904190841277069   0.091195532547615   0.076086023405312
0.715188444405266   0.171079255689369   0.262024727053806
0.716722867724805   0.078976260185101   0.656614962750926
0.864048707725057   0.162622502451248   0.471184369840733
0.580432211024648   0.884251862034644   0.318835133713788
0.451477482062356   0.896574313114503   0.574026466454203
0.000369348914388   0.554141775312134   0.607559076527937
0.872129579359492   0.172399219402095   0.021983127119079
0.776102437734048   0.377522026990790   0.064004426831478
0.731210073271509   0.433026417441912   0.614274488374633
0.859809203898538   0.282839066247481   0.281305552051110
0.474811114266397   0.303243892553336   0.563910453383718
0.771256842964941   0.401709629060436   0.583804541267252
0.886532928036331   0.359180089651703   0.978665876685265
0.547140227747615   0.998254095414367   0.742889184043119
0.822146358074265   0.043571413205918   0.906016813974973
0.347257086472796   0.283306675531524   0.919593202706243
0.757811398660522   0.882504649536555   0.762554681028139
0.956727021480973   0.292084109565670   0.926763650643846
0.762348934593715   0.400163552787241   0.856035576302215
0.815149031255444   0.328410915990914   0.286304738214788
0.494057200105799   0.868794651764576   0.852983938835542
0.868378019732430   0.118559021578980   0.373516527678853
0.570275081935359   0.558105927009270   0.504758174962397
0.213792353158141   0.180762366750649   0.843154906639112
0.937226022033217   0.413266735910221   0.681312324627412
0.028274044648709   0.455851271095846   0.986614207923092
0.652273048344690   0.530206109143787   0.226395634528405
0.831397535879397   0.719797075689162   0.531588841364308
0.703924489203523   0.506088393406536   0.239570396010938
0.812333178780265   0.538156247571352   0.958350807953005
0.225328957733740   0.623046230762526   0.803463421492715
0.996114305113183   0.706055023457583   0.129807781468494
0.024902350254978   0.395516161837363   0.631373223101760
0.960565037569347   0.611250312087334   0.785770121219519
0.158733046166981   0.559067883754718   0.739625397726202
0.053608571888378   0.569989531149010   0.148327040988752
0.891304833157805   0.710270233301286   0.918091806542189
0.086092595470299   0.431588715667088   0.901045861204840
0.674639326151483   0.362139005072936   0.239212851102402
0.277036505847919   0.340211216422048   0.513377568469979
0.490799679407115   0.573596620468148   0.191831876726871
0.062856634857020   0.480267620969951   0.542078926717925
0.892080726692997   0.349770970162735   0.448123625440569
0.965680560279939   0.649717622881845   0.881009554413831
0.020899814348720   0.511800641578092   0.512472155774752
0.816794313345413   0.736266663797048   0.857583349833662
0.880569313692091   0.025645195544763   0.981135320923036
0.975254188095012   0.693812322091541   0.974315785863509
0.935780266817571   0.761767230669307   0.197317279479355
0.297138701735513   0.827521496775477   0.292063694238284
0.043038837965904   0.901939838572152   0.215785086807198
0.940233876186823   0.634411989197808   0.389504384755990
0.773165225162815   0.946712607185458   0.494833757136152
0.762099867807139   0.749485538344196   0.781607016347373
0.124566041475559   0.332530926308862   0.078091984245972
0.567446121275624   0.615592278304705   0.869634601605665
0.903289783561404   0.916895019460345   0.084723385214895
0.921457423787370   0.718303901079133   0.968818737740688
0.058902843204926   0.661660593512166   0.922087738739377
0.532287912466272   0.576439664600520   0.408249991176061
0.912159154913894   0.293407253471343   0.308308764595141
0.716423263314967   0.032853652876776   0.506673780243772
0.841646370494347   0.314039789025699   0.752265760851716
0.478504813716997   0.921784973966559   0.417372838863222
0.740389363928926   0.750029646682828   0.684428872841249
0.702312305474546   0.075875386414643   0.598895254773922
0.810929136436355   0.271369943840312   0.046143543564084
