Generated using phonoLAMMPS
1.0
       16.9254484124         0.0000000000         0.0000000000
        0.3675978215        15.5089565161         0.0000000000
       -0.2803653145        -1.2956899739        15.9812206942
C 
189
Direct
0.983645160140623   0.838324804635785   0.512008007183685
0.007913636670974   0.507684976435037   0.471672873695794
0.525610296347694   0.764913428190449   0.790901849230281
0.572210453011435   0.663221519879047   0.298582438807805
0.145395516398856   0.685789775714252   0.531550274071554
0.408668519256072   0.745970680285517   0.233697372776752
0.214642156069889   0.702278034417206   0.578131661954532
0.395616647400089   0.745469157286948   0.053444146247851
0.664722177126572   0.808604320039083   0.832571263146933
0.616834947863625   0.705952438915758   0.171465460144387
0.847899309007412   0.238890368831345   0.535029780491247
0.826681051354860   0.001390885674931   0.765368123877993
0.514076683262020   0.842869057841759   0.746374430854896
0.307581743769587   0.861607702863074   0.246612001386750
0.355091857724782   0.781593987437270   0.454738229266647
0.651901728673768   0.018511100503838   0.749497915659665
0.979146567934782   0.024463415813202   0.151267364130536
0.411822889626129   0.298025164009312   0.580806562127553
0.856214941556500   0.865810433759147   0.283723943043074
0.919200816551666   0.942873774459715   0.412810146748947
0.815504220576836   0.386792402550701   0.503381669268833
0.896733064401622   0.928699474739794   0.906752767969669
0.952838198610833   0.337052199148166   0.496357155800925
0.080609368523214   0.905533343968238   0.964475129587189
0.123497136224624   0.602571488565569   0.497726707002226
0.020709745718461   0.752962033501281   0.496358039963673
0.270578892938349   0.842475151621190   0.076185117100715
0.276392646489443   0.914967108806529   0.479493641732954
0.491276737635255   0.542981454006259   0.476851385499341
0.266757362398136   0.923335894534499   0.392423147768434
0.872238802561891   0.915105526571832   0.141736698550322
0.919386944446797   0.999039431799740   0.273060232600614
0.781327303953157   0.795960458810028   0.163602287962201
0.879969546755050   0.038043455166675   0.639866809655613
0.977345072650687   0.178454421756918   0.503581782893517
0.868509303889407   0.897038405578544   0.051988536413963
0.212889077406892   0.765028973397528   0.645654515223909
0.944232000157936   0.946128319960514   0.835448984497511
0.350047134639550   0.798861677774834   0.194822857375968
0.795634502679388   0.653650954183699   0.344977042460897
0.006146578443956   0.932189213931194   0.662615209603055
0.920049318087907   0.489755161150336   0.465355355032364
0.511620835855365   0.022633159624625   0.700719076113139
0.010576804701656   0.938674581494913   0.012046606431627
0.086518200703346   0.279264239776335   0.503214668884377
0.551467046391318   0.260199004566648   0.598620775787922
0.896508864950302   0.405746857225997   0.488101411604371
0.989078105170501   0.046104389379827   0.297018260421290
0.771381428024609   0.521247942546813   0.446205247174141
0.547645916435302   0.691497757519495   0.217843124540761
0.210532297913441   0.214911212840080   0.538342773973605
0.713246119464740   0.293281967662245   0.558450723556995
0.459387593314482   0.721318877210625   0.820883176011776
0.158429456598669   0.048056992727331   0.354054675689043
0.092969089872462   0.754786253874959   0.536014404901428
0.807219502901923   0.722330544334754   0.293296938305916
0.205536937562025   0.372916418340808   0.521051995297337
0.039663449689351   0.593297150863725   0.472982415713920
0.355076691261755   0.426604234677985   0.532624222697158
0.320043413185385   0.842789247218651   0.511482068010399
0.108814201458023   0.002073487254836   0.117921622262807
0.230471938696570   0.992830475738757   0.354633735960913
0.026611366519945   0.880072103544455   0.586083708449086
0.859368324005525   0.627358407352713   0.398232995575223
0.853627455672010   0.545844296421788   0.436783126493794
0.945236917824901   0.090449157903406   0.506697855248244
0.892411289345993   0.938791216623769   0.326112546076750
0.095534690069634   0.070227209130583   0.407914180320775
0.931159535651315   0.857828097693761   0.445747807774492
0.684079137737376   0.752229732543553   0.044263915975876
0.834692167057074   0.860386739053538   0.195875887073888
0.153329904073194   0.894447270664389   0.011082146939143
0.184443364674214   0.534964479524052   0.506802887900764
0.258237652726927   0.759297967729696   0.786876324445221
0.918263468567066   0.690038328132687   0.418569438968308
0.615627980898231   0.205634474311500   0.622770034933068
0.906872650023360   0.977447342085161   0.764804193238873
0.222448454237962   0.836391707357022   0.999750438700753
0.029420055710537   0.989919748654053   0.085956778664508
0.926654376025324   0.252285610108828   0.511006429124894
0.703147045188544   0.568541778794643   0.413778570269036
0.023300343404626   0.923628379972756   0.821201756181427
0.601775957581342   0.721139062804831   0.914759997357750
0.576970783716356   0.898699251465269   0.757075791112192
0.409252385519150   0.710327645387008   0.462496489563058
0.792341998628522   0.307173463308230   0.533286433688577
0.035572948849413   0.352298722832503   0.493837195606983
0.268952507338499   0.562726573219899   0.525348654564731
0.349679243181340   0.793818357887973   0.368100242939201
0.455530996641703   0.150799546010855   0.635233102292640
0.754337969939899   0.797517752276422   0.077878692361197
0.306971785982605   0.860086903760231   0.334540668845174
0.571055026401522   0.337574735213322   0.562731119360854
0.186907228631253   0.128377000992801   0.522129073846552
0.346454725502334   0.514481034440592   0.518499699025326
0.343668480903793   0.866476197822513   0.596451766882828
0.445493953475631   0.969837686849803   0.685919186634995
0.142941230052711   0.851445146486268   0.824261184552737
0.245017857575451   0.790068010842888   0.927492184960531
0.717049441876872   0.626778672877783   0.352383148806888
0.901097705248404   0.780078802161896   0.399378194077277
0.407221211586609   0.659396612314226   0.531093611208332
0.470015572168920   0.236201562900369   0.606247245776178
0.050570737491619   0.912862331283524   0.736650217481358
0.237534960889651   0.911754594758492   0.127036611210607
0.960239498400969   0.024935275802045   0.441344347529084
0.066398095911649   0.437397141438110   0.488698909141181
0.597306357540825   0.754916755186144   0.835291968957333
0.509891797376241   0.398495148647611   0.542119524270402
0.694712009351267   0.219215535190250   0.598216755962181
0.270919873597674   0.983916852953063   0.545416883778060
0.327545961331786   0.291202193473751   0.570661115599877
0.272265406956460   0.757160378058364   0.703779837298782
0.262033315609090   0.926725370977685   0.210321748526999
0.231586902708275   0.992178970155549   0.264987852995293
0.534453660056835   0.470927982684395   0.504164050680068
0.778526553579483   0.960476394015096   0.819651499134480
0.672194536209705   0.750647210778707   0.958018025841825
0.775101204683768   0.856441915428549   0.937514104003181
0.105846730988898   0.049790692445519   0.199820848551260
0.025422008147318   0.061669930376354   0.220472299170410
0.755777845048046   0.158175695454452   0.611931147634373
0.312773996207477   0.129736800912848   0.585951986345982
0.447684937166818   0.691845027869144   0.381144844098839
0.446766106628271   0.877853663970752   0.701305883602970
0.991961741804887   0.674264420953388   0.460710414484929
0.667389335651351   0.087339735450997   0.701721139741846
0.325483604095207   0.726252773162522   0.826699365011264
0.337557139602472   0.793261890721439   0.104978946984249
0.675243215431234   0.427361543928818   0.507016288370306
0.290358895946027   0.368739385747922   0.541142150870780
0.468491850199083   0.721666769630957   0.094203823275301
0.382197878846226   0.012069377371870   0.645757692573847
0.147978912733966   0.822696293880671   0.661762277260724
0.404721713559710   0.740331053544076   0.321413320564693
0.522093253838149   0.647866862971075   0.367577001932772
0.122931299066455   0.864761391903559   0.737689912778603
0.754636885993290   0.446553380354728   0.487557934972254
0.280457384582738   0.646921550971745   0.566198132366945
0.458729139973441   0.712638013953369   0.912608165488456
0.854406264528779   0.789832621387069   0.326281817877181
0.389124147641039   0.825336397047454   0.657813142134713
0.389279342158859   0.715699440285504   0.772881335934665
0.546624618192121   0.589988362479997   0.427394569582466
0.415543563823716   0.567905816814298   0.507507692009006
0.538898030405355   0.713387998015813   0.046107048397587
0.081378701135651   0.890782876762321   0.876482896271097
0.828805881258449   0.161027734875629   0.570645951551733
0.354342856970691   0.681400491907417   0.598881757729153
0.713428423772361   0.803554818369530   0.906705894203620
0.926455978329221   0.921483445437964   0.990387755908049
0.095627247013307   0.827589919895333   0.593501760691054
0.937669679632139   0.984384781430390   0.682497733352652
0.615503285061692   0.722749608914726   0.087538577106799
0.111601948368457   0.118496055455606   0.484942589699213
0.600821408096524   0.133851501450234   0.668017969608198
0.429618639078143   0.379431592405340   0.552907016246066
0.168352235191764   0.290578443948085   0.518908963757047
0.576242411613586   0.984128748167700   0.736414328116450
0.757438157110067   0.735424088496968   0.222356130861122
0.161764165753056   0.045389946099353   0.262764557248373
0.207023842835195   0.800628591867573   0.846197500101350
0.624978076619016   0.551866140750488   0.437792335383942
0.153953472234748   0.448315836582629   0.502167029262825
0.914552475389064   0.983265356715414   0.183610250815505
0.652263485065269   0.353384904401023   0.545167254536568
0.320547147308868   0.744408939385025   0.913732679087503
0.698467707493962   0.957532740568776   0.793878517966059
0.683775114272089   0.697570581523222   0.225284459735085
0.651897796990867   0.882917222428094   0.794188757095777
0.811387425180874   0.046451903497477   0.691418003132278
0.360424231582059   0.738214932777871   0.681124659266518
0.389542981276381   0.732128444334143   0.962681299156550
0.744602353523959   0.096495972017566   0.670012022541312
0.057966947687809   0.193058992623283   0.498906910339688
0.614518614939368   0.481795051607061   0.485738855531686
0.325272428027538   0.956526281089523   0.608424326655401
0.532226577675736   0.709386319446017   0.957322628399249
0.800395705597888   0.847902433759343   0.022627307195078
0.167316205549096   0.944947027293899   0.086930097930767
0.383531014964388   0.101266283587436   0.624375286527479
0.657994706507462   0.659247613053920   0.298365891519822
0.016938931721476   0.048660660935043   0.379801999242952
0.814728836529724   0.915838746402551   0.887740058877285
0.473382717685728   0.714789438759069   0.182951654066145
0.287743878853558   0.215939494487625   0.570985664024509
0.252137690369432   0.072928871756008   0.549450262155932
0.520858979345250   0.106050107410005   0.670870624037565
0.884695383796859   0.089324579083415   0.570459295597405
